72
Lattice="14.76 0.0 0.0 -7.38 12.782534959858314 0.0 0.0 0.0 15.0" Properties=species:S:1:pos:R:3:REF_forces:R:3 REF_energy=-11165.600663833233 config_type=fd_force_conv_snapshot_003 snapshot_index=3 split=validation degauss_Ry=0.0019000869 kgrid=8 lattice_temperature_K=450.0 trajectory_seed=1 pbc="T T T"
C        0.03804084      -0.00661988       7.50975502       1.53696022       0.08510249       0.45793610
C        2.47029267       0.02801093       7.55287577       0.62933201      -0.69646711       0.72689226
C        4.92822469      -0.01806277       7.61040178      -0.47582763      -1.12808797      -1.69239523
C        7.40888825       0.00453487       7.39050723      -1.14595199      -1.24826724       1.15027967
C        9.84128537       0.01934332       7.56072876       0.78121401      -1.33926321      -0.13289209
C       12.29913251       0.03250534       7.49031645       1.45711127      -0.10423638      -0.26103202
C       -1.23835167       2.07068717       7.64361992       1.39043562       2.90924205      -0.85589967
C        1.22348786       2.16968550       7.57729420      -0.24032847      -1.80009000       0.50806130
C        3.71681294       2.11578130       7.66447689      -1.41171921       0.49351785      -1.18498391
C        6.15483855       2.12158610       7.36641342      -0.16754619       0.10054016       2.04502486
C        8.63535455       2.13178821       7.54442275       0.79171131       0.29690585       1.09153228
C       11.09528641       2.15676771       7.66638498      -1.55534618       0.41391933       0.27252922
C       -2.44057077       4.26503817       7.55041212      -0.43242047      -1.31052625       0.60356595
C       -0.00526347       4.22019620       7.71936709       0.30316494       1.41717586      -0.76621291
C        2.48972706       4.26572284       7.63141426      -1.10713708      -0.86738248       0.41717846
C        4.91051840       4.28036399       7.41178780       0.16961542       0.44834383       2.04039944
C        7.39474146       4.25308477       7.54956429       0.57927623       0.91141056      -0.00678026
C        9.82158234       4.29118174       7.66099647       0.98609391       1.10557847      -0.28259843
C       -3.70079537       6.37641264       7.38354730      -1.28157948       0.61446872      -0.36735639
C       -1.29912099       6.34647776       7.51583597       1.21272508       1.91112463      -0.66226989
C        1.19976549       6.38121445       7.68563209       0.22986794       0.03045600      -0.10329947
C        3.66712030       6.37829964       7.72213913      -0.30478063       2.69634802      -1.11077133
C        6.14499618       6.44710720       7.43654293      -1.10415048      -1.94061262       0.10276596
C        8.55816936       6.46227422       7.41397589       0.98821944      -0.75481752      -0.07347827
C       -4.92773816       8.48431210       7.39942606       2.22018743       1.33328437      -0.12888554
C       -2.46428702       8.53518455       7.29758962      -0.54734467      -1.36900548       0.13737970
C       -0.02044388       8.47304209       7.36488527       0.49532482       0.07611879       0.71542720
C        2.49475038       8.53040505       7.36969656      -2.37899368      -1.34191170       0.04508455
C        4.93519093       8.51429119       7.34722367      -0.11276087       0.57045683      -0.09086587
C        7.40179884       8.56395988       7.51860542      -0.33331293      -0.23724160      -1.16726849
C       -6.19143798      10.63163047       7.57967442       2.61770672      -0.14363031       0.00758913
C       -3.75777890      10.62173356       7.45997477       1.71470109       1.64561530       0.19578025
C       -1.27160349      10.60431279       7.36038873       1.93672074       0.65715828       0.86497824
C        1.23590089      10.64094907       7.29245493      -0.29498138      -0.76529760       0.77784484
C        3.70824106      10.62857301       7.31191100       0.79090784       2.05849718      -0.57191413
C        6.17508514      10.66602858       7.37377305      -1.03551823       0.46843674      -0.05481463
C        1.29961303       0.74729722       7.61502509      -3.43816734      -0.64523068      -1.00922895
C        3.70653558       0.71226093       7.58075829       0.70968335      -0.54215387       0.76558890
C        6.12850388       0.67580628       7.45634692       1.88427795       1.46017448      -0.19466105
C        8.63972249       0.73593764       7.52454351      -1.00688925      -1.63195862      -0.66824540
C       11.06080107       0.73883542       7.65018209       0.97129233      -0.42606316      -0.79502366
C       13.60995504       0.71441662       7.48945699      -3.28724435      -1.72362642       0.68176554
C       -0.03358715       2.82806790       7.62578307       0.90072403      -0.29450084       0.45015388
C        2.44595534       2.80140325       7.60065136       2.08785584       2.89505933       0.38388396
C        4.90365233       2.86767352       7.52671994       1.60133653      -0.97481782      -0.95103435
C        7.43277516       2.79647127       7.55273453      -2.92912285       2.19865701      -1.36559234
C        9.82186596       2.88602517       7.71489136       1.41603070      -1.14558047      -0.80874076
C       12.33196219       2.82928366       7.60019620      -1.11090580       0.19529483       0.50097688
C       -1.22449900       4.95074076       7.61278791      -0.52663675       0.07357880      -0.03257048
C        1.23896372       4.94735467       7.69060520      -0.14957573       0.02815769       0.31106003
C        3.69698918       5.01562066       7.65378798      -0.05412841      -2.86390065      -0.80169439
C        6.15242431       4.96838973       7.49130231       0.63310073       0.95634676      -0.75021345
C        8.63488601       5.06922761       7.55945110      -2.37404662      -3.01689671      -0.00037101
C       11.08487077       4.96905857       7.56672967      -0.43701040       0.07851558      -0.44501553
C       -2.51384136       7.11395641       7.24747555       1.56417149      -1.54992218       1.75912770
C       -0.04810437       7.05319577       7.56988070       0.01674585       0.67997965      -0.64768068
C        2.42915269       7.12300129       7.66261571       0.66775946      -0.55841995      -0.50144688
C        4.87303204       7.09959430       7.49172623       1.71540815       0.44685336       0.19114712
C        7.34213743       7.18312287       7.35635384       0.28921697      -1.60808285       1.14117437
C        9.80057429       7.11243224       7.35305938       1.10176373      -1.52052958       0.34373567
C       -3.67856874       9.22039983       7.36542675      -1.98664642       0.16096674       0.05452898
C       -1.24631774       9.19024549       7.41169066       0.66507368       0.60957179      -1.31326730
C        1.22004730       9.19355237       7.26839103       0.56477778       0.58912407       0.58023139
C        3.70035675       9.22078097       7.21534216       1.11202629       0.34285661       1.29463657
C        6.18214962       9.26199603       7.39365410      -1.30726840      -0.81863745       0.17331189
C        8.66734402       9.18691283       7.53220116      -2.72324331       2.63518457       0.05576080
C       -4.98164191      11.39302211       7.58633962       1.32391578      -1.75469666      -0.66640937
C       -2.45932038      11.32548963       7.43504493      -2.31363726       0.63364889       0.74842988
C       -0.00846679      11.31645391       7.43665538       0.27925240       1.66137436      -1.36872188
C        2.48314734      11.34857238       7.40670059      -0.53918399       0.61968934      -0.29944456
C        4.97322128      11.42029230       7.30847855      -2.33533557      -1.97158695       0.74507176
C        7.38186784      11.33642335       7.51299411       0.11305243       1.58470766      -0.20775413
72
Lattice="14.76 0.0 0.0 -7.38 12.782534959858314 0.0 0.0 0.0 15.0" Properties=species:S:1:pos:R:3:REF_forces:R:3 REF_energy=-11165.52038929843 config_type=fd_force_conv_snapshot_009 snapshot_index=9 split=validation degauss_Ry=0.0019000869 kgrid=8 lattice_temperature_K=450.0 trajectory_seed=1 pbc="T T T"
C       -0.03009734      -0.07972680       7.58578154       1.98428795       1.06454932      -1.38869010
C        2.39038321       0.00127236       7.38764585       3.05157781      -0.54130335       0.84760529
C        4.89386550       0.05998281       7.38529430      -1.00356970      -1.81325174       1.59429685
C        7.37718251      -0.00789917       7.47759034      -0.67497654       1.31897669      -0.02172659
C        9.80452214       0.01830330       7.63156822       1.04044832       1.28955119      -0.88079078
C       12.35941298      -0.03091415       7.57268996      -1.85896004       0.76356596       0.19629704
C       -1.24437310       2.14019327       7.42087664       1.20086818      -1.85586828       0.19557225
C        1.23949306       2.15189095       7.44642328      -0.59085905      -1.35293351      -0.07591979
C        3.69858510       2.17695730       7.56224000       0.22338824      -0.18841790      -0.82602371
C        6.17592244       2.11617254       7.40985694       0.24763606       0.52114538       0.57045503
C        8.62915174       2.18950930       7.33194177       0.00768246      -2.26755512       0.96161264
C       11.10242224       2.13195374       7.46387053      -2.18703409      -1.00929657      -0.43697209
C       -2.46416471       4.23529620       7.61284306       0.79288271      -0.22394643      -2.08022789
C        0.00779195       4.21508390       7.38790977      -0.26290044       2.09166518      -0.37193013
C        2.40754239       4.31419977       7.23474223       2.84675447      -0.60625301       0.87109361
C        4.86286731       4.28719245       7.52401281       1.82127512       0.98372670      -1.13976617
C        7.34540843       4.24408771       7.55416790       0.67674263       1.39063411       0.34615456
C        9.84243730       4.27116807       7.48318539      -0.27193247      -0.25239208       0.41795005
C       -3.63633596       6.39025658       7.53176102      -2.12972754      -0.23527985      -0.30736844
C       -1.20135620       6.36038552       7.62293268      -0.97377884      -0.04042417      -0.85073664
C        1.19876097       6.42670593       7.31020863       1.44310621      -0.40052234       0.81337106
C        3.70051320       6.42534593       7.32889373       0.17769408       1.37028588       0.41596850
C        6.19054375       6.42659638       7.50933028      -1.36108494      -2.14371331       0.39319058
C        8.67586993       6.39023448       7.49380892      -1.96689520      -0.58040468       0.44564108
C       -4.95908787       8.51425730       7.41216175       1.02936969      -0.21434336       0.04601863
C       -2.47614266       8.48533779       7.65071117       0.17572025       1.26870983      -0.71467283
C        0.01476972       8.51177292       7.59311564      -0.56165646       2.35198861      -0.17952445
C        2.46683221       8.53297554       7.45747297       0.95948788       1.39916066       0.12091255
C        4.93137896       8.56496191       7.55768074       0.37509336      -2.69835528      -0.00052836
C        7.37713147       8.44572469       7.54525868       0.29443785       1.74972518       0.42842163
C       -6.14195378      10.61678972       7.45829159      -1.05033935      -1.12231995      -0.18736889
C       -3.75096187      10.59388215       7.43540117       2.72402981       2.07492910       0.17847673
C       -1.28741972      10.65640708       7.60512955       1.08219326       0.73011976      -0.34793145
C        1.21598251      10.68755644       7.61946015       1.35964743      -0.23785430       0.12761773
C        3.70429182      10.66198012       7.61460252       1.00000409       0.61870229       0.70276348
C        6.20507554      10.60888263       7.82172284      -2.06283849      -2.20563627      -1.20839843
C        1.19550908       0.66716160       7.41404965      -0.68693680       1.68292843       0.89204553
C        3.63598087       0.75411935       7.55159794       0.46682415      -0.39207395      -1.66854234
C        6.13949297       0.69815334       7.45013755       0.15589627       0.85795347      -0.71074059
C        8.58308216       0.73878765       7.40054477       1.00578368      -0.21142078       0.93442322
C       11.04982886       0.71870076       7.54426941       1.95101093      -0.98943634       0.06160749
C       13.58538766       0.69162376       7.50163056      -2.70384330       0.29812275       0.45687218
C       -0.02406847       2.83519577       7.43843889       1.60982400      -0.74411016      -0.35780603
C        2.47134983       2.90300779       7.45856263      -0.90320283      -0.94175164      -0.51564579
C        4.98930416       2.85856105       7.45449961      -3.29267786       0.13556810       0.82837833
C        7.39848017       2.83971395       7.45770603      -0.68745128       0.57003594      -0.58524093
C        9.86244641       2.85915221       7.43055978       0.16236079      -0.06630361      -0.14108877
C       12.29785338       2.81364026       7.39808532       0.73957191       1.36652513       1.36825446
C       -1.21257734       4.92034860       7.49180092      -0.51118107       1.25625797       1.05893866
C        1.22130731       4.97687755       7.21825206      -2.29244829       1.35279776       0.67882703
C        3.64381017       5.06134160       7.31132931       0.67672541      -3.80295751       0.47084509
C        6.12405668       4.99840361       7.57907733      -0.21901737      -0.78747645      -0.46442351
C        8.59725910       4.96571831       7.59133529       0.83925615      -0.01723539      -1.20703420
C       11.08446036       4.95355379       7.52275205      -0.07966357       1.30181278       0.59698316
C       -2.43284710       7.08460799       7.60286718       0.40005208      -0.76101517       0.47475677
C       -0.02331071       7.12516926       7.54277914       1.47347480      -1.49490931      -0.50226552
C        2.47201940       7.14455084       7.41387193      -1.40628930      -1.41244658      -1.22960798
C        4.95550851       7.09606638       7.43163415      -0.70833712       2.22556592       0.29977572
C        7.41922369       7.07352401       7.54464906       0.60962142      -0.45518142      -0.50962710
C        9.85868641       7.14051938       7.42902041       1.23636098      -3.26416742       0.58907239
C       -3.72872803       9.18542033       7.51131484       0.90009951       0.83217739      -0.06436320
C       -1.25225304       9.22303374       7.63906002       0.29884575       0.11037797       0.22956300
C        1.27078038       9.26354949       7.50498455      -2.24592649      -0.45855522       0.71463555
C        3.70960629       9.26033535       7.49988955      -0.71840428      -0.22554668       0.56366629
C        6.18073480       9.16362462       7.75123618      -0.63898290       1.62585354      -0.81010421
C        8.57573113       9.16428431       7.41423001       0.54982116       2.42928908       0.56806365
C       -4.92622310      11.34203530       7.38182387      -1.56155025       0.00804730       0.06080042
C       -2.49346706      11.39663908       7.47216617      -0.90028488      -1.46237714      -0.13429566
C       -0.02529954      11.39068466       7.61010983       0.02367112      -1.72501662      -0.23542332
C        2.49171342      11.40640545       7.71717661      -1.88900543      -1.50112315      -1.13889354
C        4.99880579      11.32536874       7.68564581      -2.02064052       0.89060160       0.23796871
C        7.36011023      11.26646220       7.59232703       2.80886798       2.77182636       0.53478200
72
Lattice="14.76 0.0 0.0 -7.38 12.782534959858314 0.0 0.0 0.0 15.0" Properties=species:S:1:pos:R:3:REF_forces:R:3 REF_energy=-11165.617576660705 config_type=fd_force_conv_snapshot_015 snapshot_index=15 split=validation degauss_Ry=0.0019000869 kgrid=8 lattice_temperature_K=450.0 trajectory_seed=1 pbc="T T T"
C        0.01430251       0.00209595       7.63074718       0.32876079       1.19156002      -0.30240673
C        2.48356117      -0.01172923       7.58653828       0.34680685       0.33856621       0.13655617
C        5.04562689      -0.01456808       7.43782847      -5.55801001      -1.53394277       0.48809000
C        7.42621664       0.00956193       7.45999566      -0.67295900      -0.09914971      -0.28074055
C        9.83365366      -0.01032366       7.56398025       2.33491494       0.78055787      -0.23381406
C       12.34342616      -0.03424946       7.61216207      -1.60381430       3.28138404      -1.59601692
C       -1.24493015       2.15000491       7.50834489      -0.36962668       1.21947089      -0.23768409
C        1.23746432       2.14383372       7.64227145      -1.08575912       1.69172649      -0.86262671
C        3.69082595       2.11224730       7.50406410      -0.20734610       1.16082917       0.71792091
C        6.12528010       2.12215496       7.34938826       0.42771047       0.47096851       0.24697554
C        8.56449673       2.06888223       7.42736690       1.80205201       3.24652579       0.13008136
C       11.03705690       2.14300512       7.66421499       1.75746265       0.89133205      -1.42835271
C       -2.51514260       4.30209670       7.43443973       3.09286484      -1.10123305       0.09853624
C       -0.01317556       4.33454143       7.56522821      -1.50191583      -2.59620253      -0.13618928
C        2.44801439       4.27723064       7.63382906       0.82683515      -0.76962142       0.21195506
C        4.97803905       4.26705484       7.54713585      -2.07717316       0.12042944       0.58124698
C        7.41597740       4.24296718       7.42454184      -1.25266331      -0.30328604      -0.60383232
C        9.80880633       4.26097860       7.46360954       1.78474489      -1.30814926      -1.08115376
C       -3.75584165       6.40637820       7.22609132       1.62258772      -1.61780650       0.27852992
C       -1.26565799       6.40591404       7.42932805       1.12631545       0.44783269       0.19074243
C        1.26460346       6.36813558       7.68311670      -0.59399682       1.52052727      -1.20949141
C        3.70420597       6.33261586       7.43127292       0.05571581       2.61422802       1.51417202
C        6.12253028       6.37051332       7.46926501       1.24361637       2.17837178       0.94626418
C        8.55465113       6.37597977       7.36375381       0.22573412       1.09081674      -0.19241982
C       -4.92845495       8.51804966       7.43816774      -0.96329954      -1.17318974      -0.17073205
C       -2.54241904       8.54730619       7.41894947       3.11237900      -2.02548962       0.29848836
C       -0.01259885       8.51853443       7.49229971      -0.60695287      -1.57515087       0.29183744
C        2.48069733       8.53282934       7.47947064      -0.53580324      -1.27970155       0.43397573
C        4.93853756       8.56201004       7.43984675      -0.09212057      -2.01368800       0.42894922
C        7.40062087       8.51987650       7.52416247      -0.83716533       1.03725552      -0.24903062
C       -6.15752815      10.60774508       7.60140579       0.38094956       3.31338244       0.90381604
C       -3.73141997      10.61536894       7.67900811       2.72050251       1.09416663      -0.65033046
C       -1.19887140      10.66530483       7.48323436      -0.68830411      -1.45423857       0.00859134
C        1.24112028      10.63017308       7.39815930       0.57630043       0.83983079       1.75473240
C        3.69727547      10.64794503       7.35008214       1.36430807       0.98313251       1.36756977
C        6.13531323      10.66064548       7.59409577       1.59268734       0.09703549      -0.01328129
C        1.26905016       0.75958969       7.61276068      -0.93030843      -2.83659347       0.17019597
C        3.72335347       0.68736316       7.47434399       1.04324516      -0.04323310       0.27729142
C        6.19340079       0.70003348       7.38854800       0.93815749       0.90176044       0.01174403
C        8.62702154       0.72487928       7.51398389      -0.05411658      -3.09117871      -0.16885514
C       11.09497278       0.75656377       7.54913276      -0.73864529      -3.37649917       1.19088690
C       13.53280618       0.74078498       7.48964070       0.89016451      -2.00046893       1.71494175
C       -0.03794085       2.87409819       7.51806691       1.84097003       0.36402450       0.83558719
C        2.45776980       2.86252091       7.63389563       0.40404680      -0.92898842      -0.37534327
C        4.91109194       2.86981991       7.52413338       0.86040425      -1.99895917      -1.01007176
C        7.36461297       2.79470866       7.26725154      -0.24495903       1.69306449       1.56901082
C        9.79746188       2.79344017       7.56805381      -0.52876073       2.12374227      -0.40619316
C       12.29651581       2.90145757       7.52046441      -1.47886203      -1.89117107       0.61662999
C       -1.27248720       5.01483535       7.49401036       0.49113753      -0.66919876      -0.42685506
C        1.21769130       4.98191204       7.63623635       1.02350269      -0.29080000       0.25850514
C        3.70444771       4.95697604       7.61604876       0.36936545      -0.61567688      -0.99418851
C        6.18764319       4.98758693       7.53688000       0.16022806      -2.03106634      -0.88136388
C        8.62204608       4.97773775       7.35987298      -1.32292976      -0.95179591       0.62764228
C       11.06759816       4.95749356       7.29081615      -3.48513393       1.60701738       0.86116144
C       -2.50102421       7.09687930       7.32183644      -0.74915801       1.51753039      -0.03075734
C        0.03485553       7.05813357       7.53522862      -1.90018330       2.12654554       0.15433124
C        2.49418133       7.07937642       7.53806053      -0.29737328       0.73578493       0.00816505
C        4.92693174       7.09350258       7.49073136      -0.85991728       0.61912036      -0.97329136
C        7.33732209       7.12674588       7.49611109       0.94782587      -1.60299283      -0.70190036
C        9.76927863       7.06796632       7.25306376       0.85107037       2.16871446       0.90990107
C       -3.72728536       9.20805015       7.60844456      -0.70748840       0.61876580      -0.99976755
C       -1.27897187       9.22090433       7.45086106       1.56463197       0.39448127       0.16932797
C        1.21551924       9.21635128       7.56368554       0.78908313       0.51808346      -1.58561886
C        3.70247684       9.25995682       7.40349739      -0.04690052      -1.32378286      -0.23506619
C        6.17228098       9.25154404       7.54908147      -0.37691292      -0.59886186      -0.40752962
C        8.63256674       9.25649775       7.47306489      -0.99816164      -2.82726320       0.59741279
C       -4.91022280      11.33226955       7.66269342      -1.45118205       0.89504549      -0.39306999
C       -2.43179740      11.31990394       7.53823284      -0.67243038       1.50877887       0.19320760
C        0.03164799      11.39574921       7.45616244       0.08422188      -1.71905603      -0.23704800
C        2.50971711      11.33671909       7.51023453      -2.65876390       1.04520023      -1.24679709
C        4.93945664      11.36816202       7.48319995      -0.81771288      -0.87078019       0.29167880
C        7.37974759      11.35949454       7.71427300      -0.01449434       0.07162631      -1.16483237
72
Lattice="14.76 0.0 0.0 -7.38 12.782534959858314 0.0 0.0 0.0 15.0" Properties=species:S:1:pos:R:3:REF_forces:R:3 REF_energy=-11165.298414747516 config_type=fd_force_conv_snapshot_021 snapshot_index=21 split=validation degauss_Ry=0.0019000869 kgrid=8 lattice_temperature_K=450.0 trajectory_seed=1 pbc="T T T"
C       -0.05144090      -0.01069862       7.27919692       1.21343497       1.32546539       1.05203139
C        2.45720597      -0.01997755       7.43425307       0.15277186       0.45475410      -0.89671902
C        4.95506285      -0.02156794       7.40695916      -1.52424560       0.26594411       1.42341567
C        7.35324359      -0.00892274       7.60554808       1.72195263       0.37143236      -0.31445054
C        9.81721853      -0.00032893       7.60897718      -0.73223038      -0.06784756      -0.26553916
C       12.29658085       0.02231675       7.36455925      -2.34535593      -0.05935597       1.41203700
C       -1.23768178       2.18633482       7.38353325      -2.17185172      -0.23794377      -0.25600706
C        1.17898142       2.15261434       7.43978631       2.09437821      -0.35158190      -0.56013256
C        3.69734615       2.09424714       7.52889685       1.88928208       0.62870594       0.23864131
C        6.21856043       2.14014767       7.57044478      -1.41842105      -0.80500057       0.21160153
C        8.60140116       2.11987530       7.70248758      -0.02805742      -0.02545135      -0.38584468
C       11.01774500       2.12672128       7.58750824       1.40711874      -0.49533742       0.33804762
C       -2.47429334       4.31452784       7.66911534      -0.74341957      -0.97058939      -1.69860007
C        0.06553221       4.31916086       7.48613814      -3.04231644      -2.13665563      -0.36391831
C        2.49633711       4.21415590       7.49540284       2.30625768       1.23231972      -0.83348145
C        4.96210512       4.24038163       7.49607927       0.12961085       0.85164321       0.46276849
C        7.37820259       4.28059148       7.54242772      -0.07569071      -0.38287737       0.90428218
C        9.85860660       4.25735929       7.76926651      -2.85392991      -0.82749850      -0.60865854
C       -3.74120117       6.39877084       7.58844711       0.90785216      -0.32313599      -0.26084767
C       -1.22560245       6.36443154       7.50406364      -0.12952395       2.06423923      -0.08866449
C        1.22610335       6.34950258       7.42292878       3.93463682       0.27037772       0.31248802
C        3.74393805       6.40115693       7.22674757       1.60546726      -1.68367405       1.99157599
C        6.17627913       6.40410590       7.74567922      -0.39888969       1.15851620      -1.56527295
C        8.62331661       6.36833323       7.55399684      -1.19660221       0.67577076       1.19604557
C       -4.94496477       8.49834098       7.44399536       0.44425166       1.55462421       0.25590344
C       -2.50070118       8.44513646       7.39914481       2.27449684       3.46703774      -0.02620957
C        0.05254434       8.48509104       7.41811338      -0.98585583       1.79328506       0.62952715
C        2.44000012       8.45509816       7.39617307       2.33780795       3.57748410       1.44807255
C        4.86396849       8.52507593       7.59054201       2.34100640       0.79730757      -0.10711576
C        7.36670704       8.54118924       7.55714362      -0.34134146       0.86318412      -0.00234973
C       -6.14297665      10.67312298       7.43100065      -0.59804219      -1.06086725      -0.66298260
C       -3.74113595      10.65078429       7.38933887       3.71663246      -1.91782416       0.05207949
C       -1.18006813      10.65898039       7.34468546      -3.28857644      -1.23464631       1.17577319
C        1.22803110      10.66205029       7.50088852      -0.14364111      -0.12164275      -0.13474457
C        3.67346738      10.68513659       7.48777604      -0.15707049      -0.53728137       0.81817156
C        6.11375115      10.66421509       7.48313965       1.22831291      -0.07073079       0.23636871
C        1.21228041       0.73683198       7.35415782      -0.62788165      -1.44744418       0.29133324
C        3.71104374       0.67165006       7.49808586      -0.72639629       0.70194073      -0.57717281
C        6.16955262       0.69738115       7.55090885      -0.48843350       0.91533895      -0.33189137
C        8.58961578       0.69733194       7.67123874      -0.22768841       0.59309488       0.09985419
C       11.02732907       0.67318493       7.56645450       1.65985098       2.28010673      -0.88942223
C       13.47289300       0.74013565       7.33352673       2.47145774       0.81160779      -0.47785058
C       -0.02570265       2.90239548       7.38617223       0.90687385      -0.66908743       0.68002182
C        2.48906667       2.81708359       7.47209534      -1.39712023      -0.60443319       0.54980393
C        4.99444235       2.84036266       7.61839792      -2.24396217      -1.29579100      -1.23400019
C        7.41906470       2.86654696       7.55216514      -0.74219238      -0.74881683       0.67552187
C        9.81678286       2.81383864       7.74793816       0.76273009       1.26592069      -0.26176556
C       12.23878935       2.90055598       7.48132693       1.28988029      -1.16472027       0.97906760
C       -1.23053255       4.99150795       7.45253758       1.00925775      -0.65219323       1.49850140
C        1.30205862       4.92594920       7.52719030      -1.20118057       2.13777175      -0.74938427
C        3.76654981       4.94828929       7.35796369      -2.27113538       0.18112959       0.33000623
C        6.15544688       5.00037199       7.61326829       0.82515365      -0.62431707      -0.42890372
C        8.59097312       4.94671765       7.64496682       1.74083919       1.07364331      -0.08008678
C       11.00929589       5.00853806       7.71122778       2.69004188      -0.94425101       0.12289616
C       -2.50604373       7.06134897       7.46321372       1.54345817      -0.21846406       0.52925336
C        0.05869761       7.07896550       7.53947596      -2.26425923      -0.57234350      -1.22664684
C        2.54755575       7.07698609       7.30611060      -4.39268141      -0.71832226      -0.01509777
C        4.94310752       7.12848741       7.53068104      -0.22481597      -1.50276172      -0.12573440
C        7.42114029       7.14081740       7.68293756      -1.13405318      -1.71178675      -0.51530847
C        9.82119696       7.09077620       7.53236919      -0.27656380       0.60447561      -0.26204401
C       -3.68934993       9.22191131       7.42318961      -1.26638606      -1.23093929      -0.27154655
C       -1.18187244       9.21611279       7.36556958      -1.36748878      -1.05177171      -0.03901392
C        1.25908237       9.24664363       7.49747462      -0.81037109      -1.86759663      -1.04575327
C        3.68031162       9.23834260       7.60329238      -1.99670560       0.21015246      -1.90161747
C        6.09964706       9.25328445       7.52608786       0.87410180      -0.68095821       0.75519728
C        8.59381815       9.25754974       7.46294879       0.16392942      -0.84138425       0.11278658
C       -4.89713645      11.31744920       7.31037649      -3.34230144       3.34535360       1.20665265
C       -2.51678944      11.35662933       7.45366439       3.38784802      -0.64895595      -1.36589984
C        0.00069395      11.38020796       7.48943902       0.21840339      -1.02705801      -0.12699398
C        2.41791077      11.39121823       7.47248083       1.73025627      -1.23083696       0.68780738
C        4.91652901      11.40726685       7.51093888      -0.75799952      -1.17234565      -1.04418413
C        7.38038125      11.36098692       7.43574169      -1.04467572       0.46389283      -0.67567717
72
Lattice="14.76 0.0 0.0 -7.38 12.782534959858314 0.0 0.0 0.0 15.0" Properties=species:S:1:pos:R:3:REF_forces:R:3 REF_energy=-11165.712404523882 config_type=fd_force_conv_snapshot_027 snapshot_index=27 split=validation degauss_Ry=0.0019000869 kgrid=8 lattice_temperature_K=450.0 trajectory_seed=1 pbc="T T T"
C        0.00558627      -0.02836275       7.57487031      -1.87783630       1.51432294      -0.30097848
C        2.44768774       0.01275249       7.52854575      -0.44070071      -0.19009091       0.44172298
C        4.93894633      -0.02055641       7.39579808      -1.05698437       1.94183878      -0.55611573
C        7.38537563       0.03757530       7.26952326       0.67065323      -1.40800757       0.64694123
C        9.82434859      -0.00410126       7.37211188       0.27114854       1.51525214       0.53049597
C       12.26223400      -0.00324155       7.63410870       0.05267239      -1.01296168      -1.15442018
C       -1.23429269       2.09632661       7.46997543       0.03925740       1.20467213      -0.11997590
C        1.16935235       2.09129590       7.64918327       2.33255210       2.81247781       1.13636332
C        3.68492403       2.12751704       7.70660440      -0.23373230       0.50963173      -0.52277726
C        6.17377520       2.11662601       7.45668530      -2.56133914       1.78191513       0.63184295
C        8.56413597       2.11170385       7.44701284       1.96923568       1.37661080      -0.48357411
C       11.03282357       2.08277728       7.59276162       1.14321120       2.39902308      -1.37188305
C       -2.45941098       4.24874204       7.41172034       0.25356656       0.44597327       0.20059927
C       -0.03542313       4.30580707       7.61776794       1.45014024      -2.54399808      -0.09064193
C        2.41213246       4.21567208       7.84571159       1.68408491       4.01959481      -1.07205514
C        4.92855308       4.24116885       7.63708079      -0.39619208       1.76135942       0.85196203
C        7.42312746       4.26677760       7.51529590      -1.76821758      -0.11353040       0.18067965
C        9.86436821       4.19320319       7.43842910      -1.16421711       2.34067678      -0.95783929
C       -3.69337459       6.35135349       7.34559843       2.08392205       0.73063990       0.62856839
C       -1.19440272       6.38269958       7.56314774      -1.59930536       1.45195852       0.24586123
C        1.20096902       6.39411479       7.70950911       2.49353195       0.59320004      -0.99480995
C        3.64880002       6.40404470       7.57493021       0.84409034      -1.28236984       0.93655518
C        6.11220253       6.38629042       7.67058038       0.85540654       0.35944459       0.05358976
C        8.61474456       6.36655932       7.46338679       0.65677930       0.83983234      -0.59062019
C       -4.90163737       8.52492500       7.30986222       0.43781336       0.98460421       0.19158678
C       -2.46661500       8.56152159       7.42254070       1.49125320      -1.02233258       0.58049210
C        0.02530257       8.54365382       7.65570167      -0.53716567      -0.77836266      -0.36427981
C        2.44725639       8.54981975       7.48219974       2.29795610      -0.27496431       0.41946031
C        4.94524799       8.49966077       7.45763796      -1.32999181       0.92241694       0.99052906
C        7.42036321       8.50475614       7.40452138      -1.77351071      -1.00701395       0.25392472
C       -6.16723192      10.65581469       7.37776128       0.87040070      -0.55123732      -0.03715887
C       -3.69648802      10.71520965       7.35162924       0.76531560      -0.74870935      -0.72465694
C       -1.15901395      10.66014173       7.39436209      -2.15354212      -0.20040489      -0.47889213
C        1.24565253      10.70251611       7.31831062       1.76459129      -2.88131524       1.50370274
C        3.69614991      10.68416864       7.45248620      -0.27934110      -0.56404450       0.14868561
C        6.17719549      10.60365235       7.48408463      -0.87106404       1.55060455      -0.07288795
C        1.20204903       0.70372543       7.70414574       0.23176464      -0.72342178      -1.55208782
C        3.67584213       0.70908527       7.52129620       0.99728104      -0.34501736       0.32503552
C        6.15086492       0.73156783       7.36928195       0.52718722      -1.21554096      -0.13706577
C        8.63128034       0.73488764       7.31295523      -2.22051653      -1.24480217       0.16695510
C       11.01345508       0.68439642       7.61343949       1.60977103       0.44061972      -0.49640263
C       13.46638538       0.68789560       7.44168819       2.53412196      -0.33694718       1.93550563
C       -0.00949806       2.84154841       7.56094172      -0.69766216      -0.14993774       0.04193238
C        2.46027791       2.87246350       7.80374317      -1.77650784      -4.42844957      -0.64965143
C        4.89062675       2.85869523       7.60451401       1.87023844      -2.32666324      -0.07719789
C        7.37216010       2.83296921       7.49443677       0.05469508       0.46435511      -0.39035414
C        9.80764408       2.83144372       7.43971104       0.91096782      -2.59655348       1.04225632
C       12.33151612       2.84527766       7.45232409      -2.58677301      -1.76397911       0.77725348
C       -1.22302798       4.98616537       7.50358905      -1.49889606      -0.16045226      -0.07686364
C        1.18919956       4.98660313       7.72303053       0.83054397      -0.81102235       0.52765028
C        3.70024510       4.95558548       7.73397072      -1.86514817       0.30461685      -0.23754833
C        6.16438860       4.98192387       7.65740629       0.37827072      -1.01762155      -0.71754990
C        8.64592055       4.94284328       7.38695464      -0.50295920       0.56196422       1.23472267
C       11.05030431       4.92444908       7.38266096       1.59605188       0.44459953       0.18196931
C       -2.44427643       7.10269015       7.48295259      -0.52294336       0.02349525      -0.81403363
C        0.01948586       7.09588101       7.70157052      -1.17870939       1.28124858      -0.34146075
C        2.45839170       7.13825537       7.49533025      -1.60474530      -1.20573245       1.43490182
C        4.86816336       7.09633836       7.66815116       1.32637684       0.22994970      -1.49458818
C        7.36452405       7.09055313       7.57428387       1.23485097      -0.67190562      -0.74673089
C        9.90387243       7.10088505       7.34101713      -3.29125862       0.08558688       0.23308696
C       -3.65688746       9.30372674       7.36469059      -1.96608196      -1.70616940      -0.39333739
C       -1.19987098       9.25563848       7.50527890      -0.27514326      -0.45657650      -0.00883431
C        1.24685057       9.23104640       7.57542257      -0.71287203       2.47958706      -1.26616521
C        3.72113100       9.27722579       7.48962313      -0.91421306      -1.78582552      -0.78980021
C        6.18680864       9.18662930       7.40792293      -0.56152585       1.00835015       0.34863028
C        8.58268482       9.22752894       7.29077186       2.83825929       0.06518338       0.56022924
C       -4.95599739      11.38213572       7.38453687       1.29993048       0.21976247       0.20165728
C       -2.42840065      11.37656346       7.24668622       0.05310845      -0.44569122       1.66015283
C        0.05570126      11.35032471       7.37333139      -1.81613446       3.06965266      -0.96709191
C        2.47625060      11.41830066       7.33338573      -0.55160139      -2.64581736       0.06428812
C        4.90880204      11.34336913       7.55830775       1.85538389       0.53897213      -0.13732596
C        7.40976794      11.36991431       7.49920984      -1.98955511      -1.65652294      -0.12213280
72
Lattice="14.76 0.0 0.0 -7.38 12.782534959858314 0.0 0.0 0.0 15.0" Properties=species:S:1:pos:R:3:REF_forces:R:3 REF_energy=-11165.220641347061 config_type=fd_force_conv_snapshot_033 snapshot_index=33 split=validation degauss_Ry=0.0019000869 kgrid=8 lattice_temperature_K=450.0 trajectory_seed=1 pbc="T T T"
C        0.03795252       0.00236040       7.45025850      -3.40914267       0.07730382      -0.24301373
C        2.46664627       0.05633672       7.57379780      -0.12367366      -1.62992180       0.04848535
C        4.90340107       0.02334882       7.51557408       2.43176248      -1.75620770       0.21854120
C        7.36833053      -0.04294152       7.48153569       1.20792792       0.45574166      -0.03185648
C        9.78515977      -0.00117698       7.56441380       1.30741110       1.07025743       0.14568050
C       12.30080102      -0.00507136       7.53341750      -1.88141811      -1.08496311       0.06038210
C       -1.22949583       2.12795978       7.52854398       1.02985023      -1.11215227       1.33005249
C        1.23991647       2.10319909       7.73700173       0.64670804       0.57633051      -1.45870175
C        3.73848742       2.12390500       7.62708782      -1.36438520      -0.29506340       0.17891047
C        6.20011623       2.08487984       7.51351722       0.66827779       1.31453203      -0.74588371
C        8.63749135       2.14363392       7.63630289      -0.54427169      -1.37122922      -0.61271779
C       11.09138252       2.10841201       7.78426233       0.19640863       0.00757190      -1.08627540
C       -2.38477714       4.24187875       7.65741405      -2.58876844       0.70185280      -0.02738251
C        0.07105936       4.26838495       7.63048579      -2.25629009      -1.43626245      -0.23345642
C        2.49588377       4.24931167       7.56446726       0.14699305      -0.25545015       0.81431697
C        4.89586542       4.21448435       7.41321059       1.80460434       0.56463662      -0.16621513
C        7.38411260       4.27141406       7.38393159       0.42959689      -0.15213166       0.66711745
C        9.85790935       4.22224773       7.58153979       0.64802624       0.86695722       0.29461217
C       -3.73409330       6.42916625       7.58907040       1.83823669      -1.76095550      -0.77195136
C       -1.20282390       6.39505720       7.56241912      -1.95693861       0.91995511      -0.20499483
C        1.21558792       6.32315179       7.23201609       0.53460280       2.74665963       1.74737313
C        3.66490535       6.41946566       7.31503118       2.41615229      -2.74556511       0.32098218
C        6.16918812       6.42824256       7.46662985      -1.45016929      -1.33786427      -0.05949764
C        8.55826554       6.37684263       7.57780303       3.62036419       0.74024425       0.28676208
C       -4.99293908       8.53107785       7.54446630       2.14692385       2.39486818      -0.81341708
C       -2.46733965       8.52761281       7.52805406      -1.04764766       1.00262405      -0.29735502
C        0.02046380       8.54292268       7.31170981      -1.30652098      -0.69526820       1.06554717
C        2.44580880       8.47265486       7.21585171       0.03389434       2.52257462      -0.11487997
C        4.85850048       8.55243008       7.45485028       1.51563086      -0.98861796       0.28413415
C        7.37579434       8.54508503       7.62492189      -1.88226014       0.95137039      -0.23901901
C       -6.18604942      10.68048490       7.42944184       1.17819054       2.33203119      -0.17429020
C       -3.73604573      10.68211395       7.46924857       2.66395032       1.23657104       0.66671019
C       -1.20558309      10.59189074       7.46772283      -1.13090358       2.27452513      -0.28227165
C        1.20187536      10.66322160       7.29118070       2.45236756      -0.60530145       0.36943976
C        3.65565883      10.63330183       7.31245756      -0.73684860       2.74222730       1.43253512
C        6.12140296      10.66294279       7.33341914       0.95050830      -0.08104143       1.10901475
C        1.21209612       0.69037415       7.54024591       2.04742704       2.06275801       1.04472355
C        3.71265792       0.72721616       7.63004894      -0.93237688      -0.38074233      -0.43911819
C        6.18571337       0.69876170       7.50470461      -1.55236010      -1.06416211       0.21746211
C        8.58886468       0.71708078       7.58675844      -0.82425531      -0.52756697      -0.06260713
C       11.03143135       0.70032105       7.64407901       1.80849108      -0.45589593       0.13754656
C       13.50553961       0.69636874       7.56112863       1.80463545       0.44426117      -0.88938521
C        0.03421247       2.80351535       7.57868925      -0.32574103       1.93878790       0.92726784
C        2.50116095       2.83952712       7.72276264      -0.59492730      -0.48933210      -0.51778290
C        4.95587972       2.74377685       7.46236200       0.29919259       3.69997377       0.51732550
C        7.43930999       2.84049545       7.47072570      -1.92509472       0.53314395       0.25387587
C        9.86836158       2.79583350       7.65682654       0.11911870       1.73090316       0.49483374
C       12.34416415       2.82603566       7.71472888      -1.04626055       0.09585227      -0.55344384
C       -1.20576865       4.98272461       7.61799626       2.16744151      -0.45612681      -0.02223387
C        1.27924507       4.95833418       7.55283452      -0.70712022       0.00801850      -0.99560905
C        3.70853884       4.97171313       7.50806546      -0.48132208      -0.09824108      -1.29431056
C        6.12212976       4.97796867       7.30547993       1.16047333      -0.12067113       1.24079433
C        8.63860525       4.98294547       7.55463068      -1.56103757      -1.68208691      -0.90363092
C       11.09914261       4.93724660       7.58854688      -0.25729749       1.46589081       0.52478812
C       -2.47386430       7.12995023       7.51316140      -0.18245936      -1.60711123       0.90973780
C       -0.00732956       7.12371939       7.44543205       1.90051421      -1.43154936      -1.60572180
C        2.47142772       7.07051932       7.15817839      -2.61279668       0.27416187       0.60695544
C        4.90003028       7.09635453       7.38338420       0.65425834       1.76932521       0.55612704
C        7.41651317       7.11314568       7.67595130      -3.26614125       0.78752067      -1.27451075
C        9.79839373       7.13264657       7.53814244      -0.44818390      -0.87548325       0.69610638
C       -3.69443890       9.30061411       7.48228185      -1.86634450      -3.36324848       0.47984421
C       -1.24912560       9.21112053       7.50942922       1.78811946      -0.40947492      -1.04531002
C        1.23583672       9.25535399       7.23021747       0.09039973      -1.87475869      -0.12741025
C        3.66337358       9.25771492       7.35655893      -1.45920800      -2.40630008      -0.89167195
C        6.07595528       9.27593083       7.59241386       2.32232013      -1.77501583      -1.51824387
C        8.55236377       9.31047716       7.47397066       1.01554975      -3.34411253       0.96079400
C       -4.93435800      11.43117751       7.53847782      -0.57094894      -1.40931395      -0.86928664
C       -2.41419193      11.35834075       7.49229741      -2.36021562       0.35062879      -0.06472084
C        0.01975358      11.30632868       7.36407229      -2.49034070       2.01020312       0.72486546
C        2.39685497      11.41221142       7.42516442       1.88111960      -2.83598181      -1.07025640
C        4.89965565      11.31651568       7.41222643      -0.82482455       2.48496761      -0.58149817
C        7.37904505      11.39852581       7.30496879      -0.95895360      -1.24005977       0.95628685
72
Lattice="14.76 0.0 0.0 -7.38 12.782534959858314 0.0 0.0 0.0 15.0" Properties=species:S:1:pos:R:3:REF_forces:R:3 REF_energy=-11165.83474296009 config_type=fd_force_conv_snapshot_039 snapshot_index=39 split=validation degauss_Ry=0.0019000869 kgrid=8 lattice_temperature_K=450.0 trajectory_seed=1 pbc="T T T"
C        0.01525604      -0.01617925       7.44886594      -0.73303977      -0.37516098       0.56985056
C        2.45625713       0.06887763       7.53572044      -0.34137334      -3.04168883       0.45858170
C        4.87668530       0.01161921       7.44455030       1.40673102      -0.84082530       0.22420200
C        7.36192917      -0.01261738       7.31458824      -0.30516346       1.51677989       0.93887586
C        9.77743071      -0.02296901       7.44419066       2.42630403      -0.03307339      -0.32228084
C       12.25799010      -0.00214498       7.46573741       2.13326615      -0.53573537      -0.89300095
C       -1.25040050       2.09840531       7.40109629       2.58117572      -0.69937400      -0.38547624
C        1.23373336       2.11709419       7.52933682      -0.03971917       0.65765116       0.71437124
C        3.66171547       2.10571967       7.50243777       1.81339263       2.66502196      -0.08115044
C        6.10896425       2.06185707       7.35521419       0.39495410       4.67162914       0.72799063
C        8.59458125       2.11937211       7.48522002      -1.13258508      -0.47267186      -0.42886361
C       11.06161166       2.18446962       7.33988463       0.31651308      -3.05288933       0.19941836
C       -2.42908916       4.21621171       7.25376951      -0.95475036       2.93088380       0.84285158
C       -0.01024885       4.22843942       7.28977726       1.22922102       1.73952175       1.15991642
C        2.45165855       4.24928978       7.49565382       0.09465233      -0.11154782       0.22601488
C        4.91892905       4.29185241       7.49246683      -0.47263252       0.24167676       0.22910637
C        7.38113401       4.21163096       7.49841939      -0.85612233       4.10665493       0.34487107
C        9.82250754       4.22252739       7.47349848       0.23968106       2.16205453      -0.82585325
C       -3.73400748       6.41485649       7.45934857       2.60050553      -1.52908956      -0.75781697
C       -1.22303574       6.43096744       7.50015865      -0.60365388      -0.76475175      -0.85366513
C        1.25997830       6.42351244       7.41702042      -1.70918222      -1.44531505       0.47809406
C        3.66880584       6.40238071       7.60566253       0.33206054      -1.43633778      -0.08590596
C        6.18565716       6.43839712       7.65768197      -2.74103765      -1.01162496      -0.17291826
C        8.58006303       6.35408836       7.54315412       1.36061648       2.57614741      -0.53585749
C       -4.89781031       8.49411486       7.45797384      -0.31749987       1.63778063      -0.04749496
C       -2.44219320       8.55253679       7.50915882      -1.12406805       0.52680001       0.02143194
C        0.01662409       8.50318611       7.63215802      -1.16557285       1.78195138      -0.66423807
C        2.51614833       8.52613371       7.55607833      -0.85778352      -0.75422334       1.88953919
C        4.96929285       8.57077958       7.76244819      -1.50315355      -2.81815892      -0.20437776
C        7.46832791       8.52157851       7.80179379      -2.48239650      -0.04091088      -1.31988224
C       -6.14946593      10.66362558       7.56667911       1.94911371      -0.59984197      -0.10318274
C       -3.70905139      10.67334913       7.47704538       1.93585633      -0.44736449       0.64394230
C       -1.18281643      10.66086790       7.58520967      -2.20276487       0.73247027      -0.78820458
C        1.19889211      10.60191953       7.48397737       1.36775463       0.79217771       0.43330185
C        3.69122333      10.66143610       7.58090007       0.71665644      -0.24895349       0.37313726
C        6.15056298      10.65650944       7.58600659       1.74449092      -1.40690791       0.09936414
C        1.21437581       0.70309410       7.59352642       0.21739526       1.01929379      -1.07690604
C        3.66633267       0.72623504       7.47325653       0.65674896      -0.17331421       0.16400347
C        6.12450941       0.69210507       7.37290353      -0.41815985      -0.80755496      -0.32132105
C        8.57763008       0.68257505       7.42631869       0.03842205       1.40892545      -0.44314454
C       11.05683991       0.71657938       7.38398236      -1.60821011       0.51315748       0.52478350
C       13.53385197       0.65961973       7.39570862      -0.97794454       1.52536866       0.60732619
C        0.00849631       2.82746763       7.44709614      -0.92309623      -0.63668433      -0.78069979
C        2.48469815       2.82727946       7.60224182      -2.31905638       0.00776216      -1.10313413
C        4.88856903       2.87689626       7.42104070       0.85249862      -2.41343283       0.10184705
C        7.34904915       2.85672354       7.45871341       0.20128164      -3.90489558      -0.40817934
C        9.80243352       2.82150024       7.45128890       1.15417232       0.34172146      -0.20854681
C       12.34513513       2.82590514       7.28358169      -2.51071772      -0.12744624       0.21627400
C       -1.22322017       4.97786890       7.33259306      -0.16408369       0.27670392      -0.15444540
C        1.24794123       4.96509944       7.38659365      -1.47200284       0.49690271      -0.12321935
C        3.64539543       4.97315661       7.52638418       2.18290129       0.42971927       0.16081376
C        6.16535485       5.01329791       7.56242686      -0.07828932      -1.26265179      -0.40340274
C        8.60356169       4.98646268       7.48834240      -0.10627809      -3.08449693       0.42091633
C       11.05728040       4.94010331       7.35110724       0.57998637       0.53764133       0.59715259
C       -2.46519341       7.16656957       7.53598569      -0.25036374      -3.04608747      -0.54918661
C        0.00397982       7.16148877       7.46805835       0.37533684      -3.84015520       0.42018922
C        2.46373576       7.08796218       7.60176158       0.25043239       1.86329260      -0.93640117
C        4.86711590       7.10497213       7.65907705       3.50537906       1.37241630       0.72469988
C        7.40002846       7.12388800       7.68414024       0.45644794      -0.77097382       0.19558793
C        9.82860996       7.10482873       7.39258723      -1.07354638      -1.36594303       1.35752139
C       -3.68756732       9.23685185       7.42717058      -0.08987728       0.58228699       0.41293999
C       -1.23439877       9.23880452       7.57835319       2.08479777       0.77077250       0.47853835
C        1.24697283       9.15967812       7.61829337       0.36610555       2.97433416      -0.84391679
C        3.73173722       9.25976988       7.75391438      -0.67282119      -0.03244449      -1.64623622
C        6.20293533       9.20436662       7.73630517       0.36188534       2.11684631       0.23913445
C        8.64298957       9.21086794       7.59748725       1.00050237       1.79117059       0.20535375
C       -4.88498368      11.41003314       7.54998200      -2.45899432      -0.42123746      -0.50927614
C       -2.44349459      11.38359650       7.55942429      -0.65363922      -0.95630202      -0.74694044
C        0.00779000      11.41241632       7.42470320       0.13720435      -4.09425398       0.57123022
C        2.43872194      11.31813250       7.48017290      -0.27562149       0.88225965       0.01513248
C        4.95610991      11.35348517       7.52049174      -2.74698127       0.59897216       0.34438487
C        7.39883598      11.34774166       7.50210215      -0.72226170       0.35557225       0.39243442
72
Lattice="14.76 0.0 0.0 -7.38 12.782534959858314 0.0 0.0 0.0 15.0" Properties=species:S:1:pos:R:3:REF_forces:R:3 REF_energy=-11165.335728221584 config_type=fd_force_conv_snapshot_045 snapshot_index=45 split=validation degauss_Ry=0.0019000869 kgrid=8 lattice_temperature_K=450.0 trajectory_seed=1 pbc="T T T"
C        0.03137376       0.02352966       7.27792508      -2.15112452      -0.71072413       0.54377032
C        2.42357618       0.04996667       7.23976690       2.25240721      -2.83397738       0.26319689
C        4.92928306       0.02496509       7.44437178      -0.48289431       0.15416129       0.16224818
C        7.43032164      -0.02723566       7.55083307      -1.45820424       1.66187109       0.70017001
C        9.82914016       0.00730147       7.77504469       1.41381955      -1.21906671      -0.11760277
C       12.27254999      -0.03712046       7.41742986       1.54588272       0.51611168       1.45902777
C       -1.21149307       2.12816339       7.66824522      -1.44297611      -0.39262519      -1.08008958
C        1.23023101       2.14120512       7.38378443       0.21229804       0.75575880       0.47841108
C        3.67124126       2.11174793       7.34894743       3.13815714       0.21372089       1.52208613
C        6.20438050       2.09820776       7.61416278      -0.09361747       2.16332723       0.08911315
C        8.60711614       2.12700741       7.97179639       1.11792491       0.73561858      -1.34075805
C       11.06738116       2.13288810       7.81936164       0.55839064      -1.40234806       0.29599722
C       -2.49736159       4.23674590       7.71311993       1.36192697       1.88390591       0.18293605
C       -0.04116748       4.28962890       7.57819400       1.16963777      -0.72995676      -0.10616239
C        2.44997138       4.23551324       7.46580205      -1.10341952       0.95206433       0.31481204
C        4.93224381       4.22334720       7.55891919      -1.47735768       0.61310577       0.17025459
C        7.34506815       4.29176397       7.67939281       1.52724273      -0.66149548      -0.77934199
C        9.84357654       4.27859648       7.75493909      -0.72761242      -1.17732871      -0.76583547
C       -3.65163537       6.41327740       7.52452196      -1.67318858      -1.19789290       0.31178688
C       -1.22598170       6.44800023       7.69040334      -0.44366288       0.01572230      -0.04101218
C        1.13470703       6.42197764       7.40150373       2.39171755      -1.21599398       1.01248243
C        3.63606959       6.36807335       7.49041427      -0.04172283       0.32970696      -0.37561349
C        6.14259143       6.39208130       7.31975924      -1.85088960      -0.03078279       0.89213372
C        8.60046396       6.35431679       7.34036092       1.03569152       0.40746380       0.53729757
C       -4.89938465       8.53378154       7.38034493       0.14017552      -1.38277656      -0.16371808
C       -2.42291098       8.56280467       7.60910940      -0.86787304       0.68195195      -1.14314563
C        0.03643346       8.55950239       7.52781524      -1.45064211       1.64648947       0.13424527
C        2.42576165       8.45537407       7.33560376      -0.07227602       2.17541141      -0.30720389
C        4.92222854       8.48055676       7.33777952      -1.09450447       3.03758226      -1.13554005
C        7.40231720       8.52075179       7.40798149      -1.27326094      -2.41781039      -0.90248883
C       -6.14468547      10.62442656       7.28717174       0.60765195       0.68991465       0.08232955
C       -3.70127473      10.70026845       7.50922162       1.00272663      -1.45644484      -2.03969882
C       -1.24321995      10.71934310       7.44910510       0.27199315      -2.20802483       1.03103628
C        1.25077034      10.65483193       7.37874782      -0.10947732       0.69266625       1.13988599
C        3.68739399      10.57538808       7.40073218       0.46047995       2.61263291      -0.31466909
C        6.20874619      10.58872054       7.33820551      -1.89619398       2.25617028      -0.17889453
C        1.24227050       0.76710796       7.28090445      -1.40661326      -1.92460930      -0.27507898
C        3.66750797       0.70260783       7.36300633       0.65892823       0.43096754      -0.50856523
C        6.17573507       0.72787144       7.52513116       0.76957180      -2.39263106      -0.00331672
C        8.62449078       0.72700312       7.79956289      -0.93692002      -1.27778351      -0.03294457
C       11.07726754       0.66292837       7.78669330       0.04244403       1.29747764      -1.16214788
C       13.52321131       0.74159828       7.42409298       0.41529924      -2.33505121       0.10485859
C       -0.00968230       2.80142465       7.53937128       0.67410134       3.22652621       0.31873169
C        2.49271367       2.80289767       7.46809286      -2.43348255       1.98043026      -1.12597272
C        4.97731047       2.80850148       7.53430493      -1.90571580       0.08650168      -0.52898802
C        7.42906977       2.85452610       7.77538577      -2.29877346       0.08784842       0.24218018
C        9.85162261       2.83643381       7.90172328      -0.27696026       0.60590000       0.19519327
C       12.29388656       2.83946212       7.73975210       0.34050559      -0.33257477       0.18474482
C       -1.24521837       5.02328384       7.72598568      -0.50928000      -1.33946659      -0.75144938
C        1.19723233       5.02577162       7.42466523      -0.69138018      -3.10030021       0.63317118
C        3.64937363       4.92999851       7.56071984       1.67607233       0.69928710      -0.77334901
C        6.10644248       4.99769947       7.53125733       1.49473962      -1.15573555      -0.14072110
C        8.62059105       4.96269245       7.52735515      -1.40158984      -0.29144663       1.01483010
C       11.05042630       4.96179801       7.62776932       1.34324225       0.90428758       0.43284136
C       -2.46600239       7.15737021       7.62568398       1.32986840      -0.70579121       0.18306614
C        0.00809991       7.17247858       7.59255883      -2.53300250      -1.20970198      -0.38265960
C        2.36662050       7.06528660       7.44613573       2.76445603       0.15188021      -0.66344437
C        4.87521718       7.13120074       7.36872960       0.59834610      -3.59569266       0.24887173
C        7.36395110       7.04769547       7.29161529       1.10052163       2.22515352       0.53673064
C        9.85792751       7.05892978       7.42456376      -0.39371997       2.23261820      -0.51367839
C       -3.65651056       9.25584449       7.35700193      -0.75771850       0.18901131       2.24443988
C       -1.19551730       9.29399972       7.59070644      -0.51122838      -0.65404545      -0.53087495
C        1.24061628       9.26131145       7.37213162       0.45588770      -1.56043002      -0.02720047
C        3.63037899       9.18471962       7.20375245       2.19051330      -0.76883466       1.88669633
C        6.17893947       9.21286768       7.34318048      -0.68444077      -1.81430435       0.30934973
C        8.59725800       9.21331666       7.39514843       2.04609907       0.45669451      -0.44453191
C       -4.89264661      11.35038473       7.22491273      -2.32518974       1.84354602       1.32853040
C       -2.46851126      11.40420357       7.52284294       0.04592170       0.34561823      -0.49884826
C       -0.00460343      11.34302570       7.46119755       1.62357966       1.63239545      -0.45072415
C        2.48254937      11.36470179       7.57878312      -0.44951085      -0.76621882      -1.12665818
C        4.97376422      11.31306919       7.35276323      -2.06916983      -0.28563851       0.27917064
C        7.38839455      11.32740727       7.32169989       1.51737227       1.95600375      -0.73369797
72
Lattice="14.76 0.0 0.0 -7.38 12.782534959858314 0.0 0.0 0.0 15.0" Properties=species:S:1:pos:R:3:REF_forces:R:3 REF_energy=-11164.901401609315 config_type=fd_force_conv_snapshot_051 snapshot_index=51 split=validation degauss_Ry=0.0019000869 kgrid=8 lattice_temperature_K=450.0 trajectory_seed=1 pbc="T T T"
C        0.02861076      -0.03381867       7.76521581      -1.91242947       2.16411964      -0.92192072
C        2.43450750       0.04013143       7.84417380       0.49155790      -0.26399624      -1.21643081
C        4.89417641      -0.05319341       7.54696387      -0.16012471       2.16928730      -0.62991308
C        7.37479570       0.03325636       7.40348936      -0.22144346      -0.66937925      -0.73287084
C        9.81690835       0.04090296       7.51374042      -1.52985909      -2.00089213      -1.29327183
C       12.28254721      -0.01102655       7.33502591       0.34404780       1.05339819       1.68578390
C       -1.18520475       2.09136758       7.50370596      -1.15202134       1.09515959       0.53985016
C        1.23762907       2.13521682       7.58831469       0.37526253       1.41245995       1.30414220
C        3.73262285       2.12318837       7.60102103       0.52136419       0.32381939      -0.84039052
C        6.19896335       2.11128095       7.15322328      -1.51300911       0.26524452       1.06223584
C        8.64379655       2.13332888       7.06067170       0.26546769       0.40786438       1.01437990
C       11.08023319       2.13083426       7.27360555       0.58918192      -0.22124651      -0.78472948
C       -2.41183179       4.25303451       7.46612814      -1.61120391       0.25847017      -1.55754396
C       -0.00101327       4.29945371       7.51045183       0.06710631      -0.61062286       0.27191858
C        2.48217408       4.21738981       7.43795664      -0.34976619       2.20632353       0.24809140
C        4.98992067       4.25963642       7.42936355      -2.75542246      -0.07236910      -0.07290286
C        7.42488114       4.26811428       7.20572310      -0.87500991      -1.42368050       1.01630489
C        9.84506529       4.26452451       7.24490731       2.11728263      -0.80579761      -0.06003037
C       -3.66172937       6.36625908       7.50975012      -0.81438510      -0.64698931      -1.07368420
C       -1.18702811       6.45933986       7.46762750      -2.11311744      -1.54681371      -0.42086696
C        1.24625176       6.39715694       7.44986513       1.21222038       0.97599899      -0.37176840
C        3.63420720       6.46477312       7.51097263       2.63318450      -2.69629223      -0.45407944
C        6.13948054       6.37266418       7.52234748       0.10876718       0.81219015      -0.64464652
C        8.60010135       6.36251997       7.55743589       0.88542956      -0.06794294      -1.17380604
C       -4.93421403       8.48535656       7.56167325       0.52143361       0.50093523       0.53203863
C       -2.47915247       8.50450161       7.55578177       0.47536381       2.14577019       0.01287788
C        0.02067503       8.48807984       7.50857386       0.91045720       1.59445677      -0.32795166
C        2.47950573       8.51902823       7.61753268      -0.53091892       3.47480684      -0.68196763
C        4.94735722       8.51691667       7.48909664      -0.41137573       1.98036393       1.59835636
C        7.36903192       8.53521710       7.73897450       0.97725446      -3.51144146      -1.25698148
C       -6.15885783      10.64610785       7.68774210      -1.57223627      -0.75762157       0.40771371
C       -3.77258952      10.66544097       7.58947137       0.97019909      -0.80492832       0.63029540
C       -1.25450568      10.68008370       7.53276651      -1.01626658      -2.31426641      -0.83157858
C        1.16024365      10.62110772       7.58516438       1.38491263       1.69919940      -0.67605692
C        3.63700613      10.64941066       7.62076846      -0.25756386       1.28697880      -0.21904822
C        6.07811667      10.63114679       7.81264831       1.56610856       1.31456108      -1.12138227
C        1.20516613       0.77424269       7.75430368       1.21529876      -3.33805089       0.38867341
C        3.69131938       0.70578811       7.72614291       0.25961200      -0.07634120      -0.46018401
C        6.13417735       0.68854460       7.28651683      -0.08269799      -0.06063793       0.74751096
C        8.59793180       0.75882229       7.32281214       0.24667781      -1.15070776       0.07872049
C       11.00929155       0.68867839       7.31156239       3.17335220       1.37135366       0.26780276
C       13.57144305       0.68115362       7.52586382      -1.41121630      -0.33274600      -0.29898793
C        0.00947516       2.82701990       7.72759227      -0.03124199       2.03490397      -2.70842012
C        2.50975581       2.82068828       7.51905938      -1.11287809      -0.29617232       0.40193207
C        4.97401063       2.84399140       7.35585472      -0.35978526      -0.64912487       0.34479676
C        7.42283297       2.82963175       7.10655066      -0.50748203       0.61939264      -0.60732105
C        9.89320289       2.84690408       7.12286454      -1.53273101       0.09913505       0.36710211
C       12.32365551       2.83979921       7.33845398       1.13393723      -1.09378997       1.02193406
C       -1.23600799       5.03880443       7.44944244       1.82527781      -1.29298335       0.71363514
C        1.24111752       5.00821713       7.39482060       0.26832135      -2.39645789       0.81309621
C        3.67272820       4.96548602       7.50959849       1.77054545       1.11799176      -0.54676566
C        6.20143929       4.94906177       7.41376767      -0.37620613       1.18267120      -0.47452768
C        8.63439131       4.92960450       7.38690833      -0.48402380       2.13549118      -0.65937869
C       11.10366518       4.94069246       7.32642760      -0.36258417       0.75691374       1.36545375
C       -2.48721277       7.12121178       7.50401896       2.19464249      -0.71210404       0.19824825
C        0.05392248       7.10082831       7.43768309      -1.53073583      -0.08868326       0.50053054
C        2.46759556       7.18800658       7.50136968      -1.48087777      -4.47564011       0.11286911
C        4.89457927       7.15445442       7.45962209       0.60072514      -3.30039940       0.59244953
C        7.36469907       7.08297125       7.54025670       0.21064457       0.17166304       1.19450907
C        9.86889799       7.06070765       7.47975426      -1.43361216       0.42461974       1.18036132
C       -3.71007552       9.25779464       7.65538857      -0.83664648      -1.91626890      -1.36458549
C       -1.19012592       9.18489823       7.49048213      -2.12327381       2.18727577       0.71905991
C        1.24725787       9.22680656       7.55037974      -1.20683674      -0.34578406       0.54847518
C        3.68939461       9.23440363       7.60291329       1.01147378       0.17763726      -0.17849858
C        6.20243360       9.19889344       7.73789466      -4.70335192       2.39902026      -0.52900396
C        8.56773478       9.17304906       7.64033122       2.91689185       2.98364463       0.37931665
C       -4.94922835      11.39360025       7.69793885      -1.54854535       0.02420308       0.33785041
C       -2.56854021      11.33628048       7.51185698       3.74766388       0.31791305       0.57571345
C       -0.04033819      11.38340849       7.47649447       0.01788999      -0.28687546       0.79607833
C        2.38755231      11.36559979       7.55988177       0.93792429      -0.02069481       0.65751284
C        4.85808980      11.41410502       7.61400389       0.71399740      -3.07028078      -0.01967794
C        7.33108539      11.35823542       7.75931271       1.25940295      -1.82721488       0.58355249
72
Lattice="14.76 0.0 0.0 -7.38 12.782534959858314 0.0 0.0 0.0 15.0" Properties=species:S:1:pos:R:3:REF_forces:R:3 REF_energy=-11165.440203200626 config_type=fd_force_conv_snapshot_057 snapshot_index=57 split=validation degauss_Ry=0.0019000869 kgrid=8 lattice_temperature_K=450.0 trajectory_seed=1 pbc="T T T"
C        0.06517306       0.02273152       7.41301170      -1.89918135       0.56639166       0.53758270
C        2.50229094       0.00376302       7.46929051      -1.44858857       0.72123146       0.49972501
C        4.95282011      -0.01273847       7.53255718       0.57497220       1.74959019       0.20123819
C        7.38569339      -0.01759686       7.76476137       0.94734224      -0.98511920      -0.18666826
C        9.87130158       0.05896427       7.78607353      -1.50569098      -2.50511400      -0.54603006
C       12.29206031       0.00786710       7.47602374       1.52261860       0.16177355       0.45619598
C       -1.22835502       2.15399407       7.48901823       1.09248307      -0.89807836       0.37912382
C        1.20840332       2.16074887       7.35186331       1.15147884      -1.80593540       0.16989464
C        3.69247693       2.13863200       7.33196337      -2.85145188      -0.63217436       0.66480166
C        6.15119775       2.14546580       7.56558632      -1.01923774      -0.80427192      -0.69367746
C        8.64403947       2.13672214       7.67859184      -1.17947429       0.18468208      -0.13673924
C       11.09261939       2.11324972       7.67015192       0.24240823       3.07438581       0.73774771
C       -2.45338274       4.29823323       7.61255065      -2.17827999      -1.69824989       0.73486422
C       -0.02766232       4.28023494       7.47265787      -0.31473568      -1.08934530      -0.80441719
C        2.36248202       4.28440855       7.31691152       1.86420740       0.32385693       1.04002203
C        4.88999494       4.25932663       7.45324327      -1.54363403      -0.52398774      -0.78927648
C        7.30345718       4.22992236       7.54731701       1.57726997      -0.11648126      -0.73611326
C        9.81353999       4.28205593       7.65491840       0.11025919      -1.69946911      -0.13941344
C       -3.74030355       6.40155126       7.51934586       0.09642280      -1.46245119       0.05035891
C       -1.19930799       6.35647799       7.55306835      -3.74743119       0.88213855      -0.00179977
C        1.20057083       6.38941221       7.58283659       1.24227400       0.53227209       0.75394181
C        3.71349325       6.42988651       7.47808548      -1.14626978      -2.38930303      -0.16059187
C        6.10563336       6.38595330       7.33997504       1.48956167       1.94279240      -0.30953125
C        8.55663619       6.32643683       7.45361655       0.21175503       1.06795783      -0.62848354
C       -4.89500016       8.49009077       7.45478265      -0.77204649       1.63604076      -1.12466146
C       -2.46085011       8.47125112       7.64178729      -0.56633355       2.50603085      -2.13827029
C        0.02203038       8.47584769       7.61954358      -0.37668281       0.69747987       0.02471293
C        2.48792674       8.48005158       7.46979138      -0.89952127      -0.44160754       0.25930604
C        4.88132339       8.56204348       7.22905556       1.84378976       0.38619666       0.13939030
C        7.43286399       8.54315453       7.12425398      -0.55649522      -1.16811927       1.24236913
C       -6.12348915      10.66298250       7.40301842       0.41898003       0.19592552      -0.52770375
C       -3.66384664      10.68457735       7.50444444      -0.51064371      -0.26074303      -0.44061535
C       -1.21796810      10.61437352       7.58809873      -0.15928858      -0.58988640       0.10220032
C        1.26232810      10.58668416       7.66268331      -0.00584052       1.50174433       0.24115636
C        3.64917065      10.67056160       7.52075476       3.20188810      -0.67512541      -1.47184215
C        6.20110005      10.66099790       7.36377946      -0.39099846       0.65315533      -1.01523608
C        1.25145505       0.72089056       7.49402834       1.28865696       1.27351779      -1.21522754
C        3.70619784       0.71740479       7.49386170       1.01913696      -0.35026010      -0.80212094
C        6.22073447       0.74462618       7.62233804      -2.79487424      -2.11500283      -0.04629477
C        8.60701941       0.71790303       7.78114765       0.95286163      -0.05959380       0.01837130
C       11.06361609       0.73897286       7.65196734       1.50597405      -1.20198353      -0.17872638
C       13.56703139       0.69271691       7.47574594      -1.25847478       1.87001038      -0.43621722
C        0.02278971       2.86478240       7.32541503      -2.56997702       0.05012237       1.39391252
C        2.41294676       2.86223067       7.30657985       1.35053313       0.15882193      -0.14511126
C        4.85466723       2.82501081       7.38046442       3.92773315       1.54122028       0.98862799
C        7.36599570       2.81017242       7.56891496       0.58540959       1.22333294       0.64997694
C        9.88426310       2.86634946       7.66016773      -1.29454401      -1.31323156       0.41788808
C       12.32335521       2.86327822       7.73382955      -0.25672954      -0.26474855      -1.95401732
C       -1.23913652       4.96053329       7.51129577      -0.18211664       0.66562313       0.39512482
C        1.12979832       5.02609957       7.47029944       3.01720601      -2.08212716      -0.54154683
C        3.64038905       4.95723503       7.44614172       0.56611886       1.19889589      -0.48485529
C        6.11372863       4.97391387       7.42385399      -0.59524226      -0.15683266       0.57140968
C        8.54654745       4.88812319       7.53195550       0.22743079       2.61478286       0.42267342
C       11.02231725       4.97348842       7.66672490       1.71032816       1.17233048      -0.93193594
C       -2.51492632       7.08938447       7.47310186       2.39535900      -0.79679644       1.47089624
C       -0.02473883       7.04785858       7.70138512       1.21417441       2.34053486      -1.21968994
C        2.48612593       7.06437230       7.57856997      -1.38138971       1.00032908      -0.85103566
C        4.90392250       7.17154242       7.32488311       0.26829847      -2.17863326       0.03761498
C        7.37934814       7.11014875       7.27819085      -0.81930259      -1.31233091      -0.01326021
C        9.78451284       7.06579734       7.44259025       0.82268951       0.28231098       0.51106949
C       -3.69250799       9.28274173       7.47568877       1.20857995      -3.27170692       1.34404649
C       -1.21207179       9.19070816       7.56175041      -0.12293781      -0.62179482       0.95320899
C        1.28640200       9.18013073       7.54330065      -2.09356343       0.13380458       0.64001957
C        3.63099679       9.23367298       7.31882597       2.36626903       1.28049448       0.89488403
C        6.19479327       9.21943922       7.20156469      -1.29733083       1.86652242       0.12143012
C        8.67300417       9.23878056       7.27151578      -1.27552531       0.11817484       0.51968654
C       -4.90724954      11.37836795       7.47289294       0.91545491      -0.19328808       0.04023442
C       -2.41803979      11.36972514       7.51600868      -0.61893832      -0.29679735       0.41490432
C       -0.00138991      11.25696425       7.74313740       1.42386022       3.09556373      -0.56022255
C        2.50237401      11.38181303       7.69407569      -2.57285408       0.47810049       0.12587093
C        4.95009983      11.38732722       7.38349756      -1.27545280      -1.47192339       1.04626595
C        7.43516700      11.43029310       7.37887529      -0.87270697      -3.71562613       0.01858445
72
Lattice="14.76 0.0 0.0 -7.38 12.782534959858314 0.0 0.0 0.0 15.0" Properties=species:S:1:pos:R:3:REF_forces:R:3 REF_energy=-11164.864720119638 config_type=fd_force_conv_snapshot_063 snapshot_index=63 split=validation degauss_Ry=0.0019000869 kgrid=8 lattice_temperature_K=450.0 trajectory_seed=1 pbc="T T T"
C        0.04214000       0.00762282       7.50699269      -3.27331617       1.37382552       0.59197671
C        2.45351660       0.00441983       7.66353256      -0.56208095       2.15359329      -0.82691203
C        4.89032970      -0.00454530       7.58027374       1.69429219      -0.27858520      -1.15144695
C        7.36667557       0.07019822       7.38100121       2.38399910      -2.43366073      -0.17512118
C        9.88317422       0.00785870       7.24784646      -2.87867112      -1.11007893       0.20051596
C       12.26172572       0.03215276       7.42459644       1.76676259      -1.17979774      -0.37537515
C       -1.18773897       2.21204192       7.52751904      -2.46111960      -3.89766229      -0.18669140
C        1.23052278       2.13847634       7.52303372       0.74426160      -0.44575653       0.02598125
C        3.77315036       2.11252492       7.48133052      -2.81175662       1.18591619       0.60780853
C        6.17072993       2.08727135       7.40735542       0.23972040       2.07559887       0.65111671
C        8.59351309       2.20376866       7.22143479       0.86024741      -2.29567553       0.30273583
C       11.06517759       2.14597040       7.30369383       0.79607525       1.68462921       1.06571198
C       -2.40114709       4.28375752       7.47051662      -3.47971225      -0.89770221       0.73968607
C        0.01792890       4.26180107       7.39415394      -0.92785380      -0.16472775       2.24599951
C        2.45074886       4.21386253       7.58423052       1.71294657       1.29227939       1.08176209
C        4.90686425       4.26726131       7.70300108       3.40137408      -2.40160756      -1.08149161
C        7.43690156       4.34576955       7.43994536      -2.41057222      -3.59571580       0.14147855
C        9.86569538       4.26041892       7.38113983      -0.38374563       0.01727550      -0.16913565
C       -3.66070230       6.35856861       7.53059735      -0.87871667       1.72344644       0.10160460
C       -1.24619675       6.43043085       7.44631487      -0.48262795      -1.82615430       0.26053554
C        1.22301312       6.28843189       7.59455541       0.20961613       2.86291900      -0.39798132
C        3.68978537       6.35506723       7.68595703       1.26888723       0.16141051       0.53290535
C        6.19797052       6.34739452       7.81953292      -0.54884465       2.60435781      -0.87962658
C        8.70271109       6.39614460       7.65104048      -3.15904529      -0.14314385      -0.24978396
C       -4.94030653       8.53559511       7.66609713       0.04187941      -0.95753204      -0.01621646
C       -2.49600875       8.58360317       7.42036371       0.49194691      -0.97948643       0.74825504
C       -0.00053830       8.48170616       7.30895113      -0.76871434       0.17537263      -0.04820021
C        2.43742955       8.48841861       7.50675276      -0.60350579      -2.50763728      -0.85220371
C        4.90271999       8.49928454       7.67876190       0.20692675      -1.70243256      -0.26683886
C        7.36934591       8.52456800       7.63709338       0.85802726      -0.03890696       0.69324192
C       -6.23748302      10.72151913       7.61827323       3.37227588      -3.32127882       1.05918060
C       -3.76421347      10.66436641       7.55631613       1.81772983       0.12318952       0.03310655
C       -1.17807415      10.67159476       7.38014711      -2.37938217       0.38598069      -0.37096673
C        1.18787753      10.62024852       7.27642921       0.42178536       0.94922480      -0.32430173
C        3.62332448      10.56586454       7.30161015       0.61676060       0.93749800       1.06001364
C        6.11563072      10.66521678       7.50611730      -0.86221019      -0.43995226       1.03292630
C        1.21605374       0.72507798       7.57324358       1.73820201       0.28488877       0.06636454
C        3.68799978       0.72871150       7.53134237       0.04403246      -1.75188979       0.78440989
C        6.14622017       0.71177575       7.52650605      -0.61514389      -0.78165367      -0.83741807
C        8.65123974       0.74998539       7.28041008      -1.35684287       0.13592008      -0.30311969
C       11.06733022       0.74641672       7.30619193       0.39715471      -0.50524131      -0.01640107
C       13.54027553       0.72914393       7.45178781      -0.20234273       0.52818018       0.54744031
C        0.01906390       2.85099422       7.49331367       0.78802435       1.16176093      -0.44937484
C        2.47353104       2.82796307       7.54091245       1.12833196      -0.78911270      -0.36021232
C        4.99127304       2.80191680       7.51251795      -2.32618425       2.19559149       0.36694116
C        7.35133121       2.84286788       7.31491293       1.94768238       2.33319899       0.11004244
C        9.83801240       2.87348522       7.24482737       0.44520297      -0.69049187       0.18203976
C       12.31881013       2.88796202       7.56926458      -0.30792097      -1.50965485      -1.97041144
C       -1.22721908       4.96811671       7.51047511       1.53768835       2.00113099      -1.10222987
C        1.22255955       4.92186068       7.65367686       0.59689368      -1.01418553      -1.70581973
C        3.73588923       4.95575874       7.70612729      -3.44455807      -0.97815409      -0.38618818
C        6.16488596       4.96667891       7.67519943       0.89335962      -0.11674660       0.10466267
C        8.67407217       4.99250298       7.45576876      -0.94405946       0.36246744       0.44175178
C       11.05993503       4.93587603       7.46724958       3.00503416       1.91186280       0.01045051
C       -2.47652875       7.16692138       7.47853514       0.63332159      -1.99817936      -0.33317229
C       -0.00278437       7.02508732       7.40744891       0.94347685       2.42092734       0.37707979
C        2.46010404       7.00074838       7.60571183      -1.43604545       2.66163505      -0.03096380
C        4.92834429       7.06423928       7.75780948       0.63716590       0.37514401       0.19505520
C        7.44841274       7.11869689       7.72215425      -1.30687605      -1.65012424       0.12642654
C        9.86175917       7.09093071       7.63764762       1.91818257       1.17264159      -0.18777435
C       -3.72986109       9.22309101       7.60244827       0.09674238       2.61722952      -0.77340891
C       -1.25532747       9.26664050       7.34891864       1.76577734      -1.58218952      -0.19161403
C        1.22140258       9.20683800       7.25099321      -0.50154612      -1.09297261       1.36248901
C        3.66269966       9.12948033       7.49709482       0.09448161       2.65713947      -0.24503153
C        6.11637101       9.19820780       7.63103901       0.71110594       2.28326893      -0.42804420
C        8.60894389       9.25431645       7.65192564      -1.62008244       0.80321237      -0.24635128
C       -5.00740050      11.40997292       7.68010126       2.45751774      -1.53918885      -0.66755351
C       -2.43855916      11.36608670       7.41435798      -2.41733602      -0.26518281       1.60416886
C        0.01325245      11.39816751       7.32206665      -0.33932391       0.27307430       0.29569640
C        2.39827906      11.30300479       7.27781163       2.29727785       1.70521989      -0.31586182
C        4.82440224      11.34494715       7.42100914       2.12119379       0.17416241      -0.26556333
C        7.36903301      11.40799213       7.65268974      -3.41322712      -0.88271139      -1.56275353
72
Lattice="14.76 0.0 0.0 -7.38 12.782534959858314 0.0 0.0 0.0 15.0" Properties=species:S:1:pos:R:3:REF_forces:R:3 REF_energy=-11165.645103968736 config_type=fd_force_conv_snapshot_069 snapshot_index=69 split=validation degauss_Ry=0.0019000869 kgrid=8 lattice_temperature_K=450.0 trajectory_seed=1 pbc="T T T"
C        0.05422410       0.00559711       7.61566507      -1.22372503       0.88323024       0.85357283
C        2.49644462      -0.02027426       7.42794484      -1.52997427       1.60114935       0.70196670
C        4.96957714       0.01104013       7.39625629      -2.03971116      -1.70487691       0.15919859
C        7.36197825       0.03006766       7.74800292       0.52700467      -1.17513041      -1.59121435
C        9.82785288       0.03021400       7.62770499       0.63308376      -0.83673133       0.41569673
C       12.27519831      -0.01512283       7.69786405       1.68407334       0.39590104       0.42582585
C       -1.27691924       2.17985145       7.61846037       2.22457245      -2.13462420       0.67172436
C        1.24268297       2.17204856       7.51669892      -0.75322755      -2.23351680       0.75445808
C        3.66887838       2.10711377       7.42602635       0.83301223       0.52584690       0.25647962
C        6.06554049       2.11663182       7.61831745       1.64129944       0.62176191      -0.14643975
C        8.58587313       2.15199990       7.53470074      -0.07390610      -0.29290187       0.48277990
C       11.07333577       2.18177973       7.61804438       0.09893116      -0.52265565       0.19544138
C       -2.45912241       4.26884129       7.45977327      -1.47773460       1.80117398       0.27046154
C        0.00309248       4.25196243       7.49718274      -0.55760260      -0.74130946      -0.03996831
C        2.45772233       4.24518738       7.43611832       0.24610265       0.68709441      -0.22211400
C        4.89638383       4.27316677       7.49293784      -1.18463475      -0.48088679      -0.14493334
C        7.30993451       4.24947083       7.54578805       1.31614257      -0.33516567      -0.18709918
C        9.84122008       4.26774525       7.47336294      -0.63075563       0.64919352       0.40290344
C       -3.69056834       6.39348701       7.46324473       1.70318692      -0.69686229       0.35363081
C       -1.20173382       6.38005122       7.59439205       0.39410383      -1.62013515      -0.43774317
C        1.27716234       6.34194208       7.46433100      -3.43869261       1.56365727       1.23427736
C        3.69195185       6.40270096       7.41697706      -1.51541746      -1.03564395      -0.07160008
C        6.15939444       6.38840874       7.33266601      -2.00594075       1.31718129      -0.23095243
C        8.62591674       6.35978122       7.31483934      -1.12195691       0.41392138       0.73073477
C       -4.92636544       8.45030187       7.35339921       2.42064478       2.09893601      -0.26247055
C       -2.40399683       8.49327443       7.41875228      -2.31234194       0.28584317      -0.01441155
C        0.00663521       8.54743388       7.56641619      -0.26727312      -0.10726874       0.48443543
C        2.42837243       8.50609587       7.65938421       0.79233995      -1.05064325      -0.53277731
C        4.88789782       8.57298904       7.40883231       0.95605880      -2.44608481      -0.35090802
C        7.41011677       8.49659490       7.27038693      -0.30889259       2.22430300      -0.15664755
C       -6.15681365      10.67350859       7.35927970       0.19488602      -3.42443687       0.06756936
C       -3.72220080      10.67892366       7.24510551       1.02951701      -3.14772267       0.76810601
C       -1.21054242      10.69437817       7.44001699      -0.25442454      -2.12113260       0.13068763
C        1.27870543      10.69039545       7.72858155      -2.21025192      -1.52989791      -0.77674055
C        3.72014543      10.65551751       7.62923666      -1.66614170      -1.34395213      -0.03539535
C        6.21740667      10.64598282       7.45900523      -2.07782545       0.21638893       0.03543700
C        1.26713801       0.73883066       7.69066881       0.78101964      -0.53853093      -2.35406375
C        3.72708787       0.70839122       7.36145213      -0.62082860      -1.13787693       0.32653602
C        6.13399342       0.71462424       7.60522030       0.38449099      -0.08016597       0.07817208
C        8.59204232       0.71439617       7.62028103       0.30625978       1.27754028       0.50915659
C       11.06118304       0.75510964       7.72737029       0.09517761      -0.74510261      -1.05846121
C       13.54882980       0.68903645       7.75205927      -1.36710029       1.46875965      -1.33549989
C       -0.00633751       2.84237495       7.54052250      -0.16884794       0.10048077      -0.05031803
C        2.46957506       2.81754435       7.39876931      -0.59674867       1.53065279       0.54068268
C        4.87231608       2.84032832       7.56995544      -0.12968310       0.35802971      -0.69993218
C        7.29765617       2.81721646       7.56745311       1.60656615       0.97739381       0.28912184
C        9.85422180       2.87374394       7.51994102      -1.70223099      -1.27727263       0.11034763
C       12.29341753       2.93314606       7.58734097      -0.64138251      -4.75395175      -0.01974916
C       -1.24658423       4.88601987       7.48840315       2.16731552       4.70693990       0.42076232
C        1.22234041       4.95948384       7.49272526       0.75291182      -1.33405210      -0.54559040
C        3.67917148       5.00149748       7.40457820      -0.08878096      -1.92357623       0.32506277
C        6.09733227       4.97182513       7.46563531       1.62876814       0.71780341      -0.02259537
C        8.58045849       4.94698119       7.52122427      -0.17643784       0.39420385      -1.18170524
C       11.06204352       4.98489168       7.46414574       0.09899210       0.10163211      -0.13845750
C       -2.40594824       7.06400155       7.56875734      -1.65035512       1.11127655      -0.85219934
C        0.02053252       7.12095300       7.60517025       0.54314914      -1.15633102      -0.86336924
C        2.44393858       7.02835748       7.50610603       1.24540895       3.84174286       0.15408673
C        4.85213489       7.10705438       7.34567369       4.39799846       1.55406705       0.26620662
C        7.38864905       7.13961108       7.23070156       0.15275464      -4.16395839       0.72688660
C        9.85440360       7.06649698       7.38086749      -0.84133669      -0.77573242      -0.23606712
C       -3.66995109       9.18146521       7.31314707      -0.48036177       1.48772128       0.06788998
C       -1.24895750       9.25264743       7.42088076       2.72344257       0.05797658       0.69437655
C        1.24370362       9.25555059       7.71448611      -0.64687130      -0.28866752      -0.57845759
C        3.65828738       9.21964537       7.58877959       0.52101092       0.98968137      -0.04030024
C        6.16865342       9.22570591       7.30875758      -0.14767002       0.62284820       0.71305510
C        8.67044185       9.18095739       7.33376642      -2.90244560       2.23873177      -0.33914676
C       -4.98842994      11.35171893       7.35545823       4.20490681       1.30744504      -0.46310916
C       -2.44903848      11.33248398       7.34265055      -0.79656838       2.59085052      -0.10080216
C        0.01628427      11.37994779       7.62975611       0.04694989       0.85263694       0.56574708
C        2.47623036      11.34972897       7.63325571       1.27554433       2.61312604       0.74623981
C        4.93199113      11.32414864       7.61811598       1.44554927       1.41112015      -0.25237974
C        7.42580757      11.38611399       7.45022692      -1.46509557      -0.44144556       0.40390231
72
Lattice="14.76 0.0 0.0 -7.38 12.782534959858314 0.0 0.0 0.0 15.0" Properties=species:S:1:pos:R:3:REF_forces:R:3 REF_energy=-11165.471400780114 config_type=fd_force_conv_snapshot_075 snapshot_index=75 split=validation degauss_Ry=0.0019000869 kgrid=8 lattice_temperature_K=450.0 trajectory_seed=1 pbc="T T T"
C        0.03116395       0.01248768       7.55752493      -0.65447868      -0.37457502      -0.10277188
C        2.49413026       0.04866589       7.62553358       0.54438096      -1.92950057       0.04020048
C        4.93341673      -0.07211529       7.55903262      -0.31900371       2.31695990      -0.56345649
C        7.42399094      -0.02739781       7.50349529      -1.28857803      -0.52574637      -0.28199294
C        9.88547782       0.00727969       7.42210092      -2.32325756       0.04988557      -0.09973001
C       12.30983078      -0.03291257       7.36162614       0.23461316       0.30349507       0.30338117
C       -1.33176478       2.13606342       7.47963863       3.18480980      -0.60222872      -0.36520181
C        1.27647290       2.12960657       7.42739101      -2.09381848      -1.08062052       1.33884412
C        3.70143866       2.13728155       7.43228765       0.96045924      -0.89955109       0.37879137
C        6.14904662       2.01918714       7.49343030      -0.47091426       4.23273206      -0.86004583
C        8.60756073       2.11035139       7.55989099      -0.50765841       1.46428027      -0.85534149
C       11.07637370       2.15204745       7.48369315      -2.39379217      -0.08076915      -0.71531072
C       -2.48045174       4.31586080       7.43680357      -1.30843697      -1.28943497      -0.73162360
C       -0.02255016       4.25492650       7.41413270      -0.12236008      -0.27711401      -0.78348224
C        2.49464474       4.28875855       7.55411282      -0.89763048      -2.20528635      -1.38536001
C        4.87516177       4.24004656       7.36926462       1.10151716      -0.50743626       0.47930119
C        7.34429057       4.26823613       7.55416030       0.07911979      -1.98265298      -1.16157119
C        9.83194323       4.31945853       7.40169113      -1.25635799      -2.96886516       1.08990529
C       -3.68949326       6.42499054       7.54260099      -0.81392513      -0.60485305      -0.69307737
C       -1.24387045       6.40290107       7.42715734       1.01030625      -0.16532733      -1.14605432
C        1.29862235       6.35403757       7.40942166      -1.68882808       1.31850104      -0.79847923
C        3.72236446       6.40554310       7.56565250      -1.59956504       0.26550702      -1.01091791
C        6.19128466       6.39113430       7.59265681      -3.72050172      -0.75056003      -0.54305324
C        8.61047944       6.40695589       7.60734669      -0.13774300       0.11993296       0.29864212
C       -4.95848507       8.54654086       7.70027543      -0.80409143       0.40839840      -0.43552688
C       -2.48319043       8.50316650       7.36230022      -0.45331120       2.01258859       0.77477777
C        0.02959928       8.47105710       7.31650433      -0.38424005       1.84107904       0.49964916
C        2.47447562       8.54854725       7.55277323       0.45716220      -1.34095114      -0.89256695
C        4.91077705       8.59140335       7.61295403       0.63435491      -3.09880692      -0.47526893
C        7.38306790       8.52047093       7.61956758      -0.98583603       1.62318782       0.47783489
C       -6.09531517      10.69821284       7.73129250      -2.98494587      -0.46128188      -0.44448460
C       -3.66848425      10.64168524       7.69431597      -1.01618584      -0.76784453      -0.47279168
C       -1.23597745      10.63784057       7.50014034       1.27414822      -1.07546520      -0.49836541
C        1.20904243      10.65854550       7.45079066       0.31316576      -0.89813878      -0.15644751
C        3.67322857      10.64177507       7.56205525      -1.09769419       1.93777412      -1.68670641
C        6.16770686      10.62303140       7.43302284      -0.30994032       2.38655092       0.65001679
C        1.26798371       0.68381316       7.57505759      -0.50689762       2.43160796      -0.58817816
C        3.70901415       0.75854912       7.47934065       0.83605847      -3.74441580       0.90944778
C        6.16704045       0.64370177       7.44946183      -0.09987836      -1.12342913       1.01665841
C        8.62136871       0.70119925       7.50263195       1.10944541      -0.14433222       0.01744031
C       11.08480217       0.72408870       7.35725292       1.08769928      -0.32763696       0.88182102
C       13.55418523       0.67993555       7.46095988      -2.22914516       1.54748760      -0.19367323
C       -0.03908471       2.79842447       7.44685747       0.64791183       1.82189476      -0.10013084
C        2.50919425       2.79651679       7.53577374      -2.16979741       3.73084089      -0.87447512
C        4.91453515       2.79750579       7.42008504       1.12158693       0.84884225      -0.08242494
C        7.34832286       2.82280313       7.49469327       0.85414130      -0.75593775       0.76689785
C        9.82300600       2.85601945       7.47894729       0.25524652       0.15590630      -0.00625755
C       12.22869413       2.90722513       7.46211245       2.42910550      -1.40661583       0.06885594
C       -1.29683739       5.00449624       7.31502511       3.33711398      -0.77905763       1.62065528
C        1.25801918       4.95319217       7.38003690      -0.85145424      -0.80241970       1.35280084
C        3.68730353       5.01630236       7.43720700       0.38948742      -2.05586000       0.79638609
C        6.10026037       4.91457807       7.40614595       1.71935145       3.09335181       1.49199368
C        8.58637199       4.97242363       7.54243963       0.11169952       1.37718441      -0.18538117
C       11.04787747       4.97726178       7.41104329       0.18203822       2.88188757       0.69105288
C       -2.45744204       7.11372437       7.44845048      -0.37844299      -0.15470199      -0.03466181
C        0.03369352       7.05450504       7.35272982      -0.17990574       0.73720444       0.20421244
C        2.49536245       7.10873634       7.43417793      -0.31854631       0.42916391       1.26946265
C        4.89145393       7.10273768       7.63144807       3.80416464       1.93345287      -0.22034997
C        7.37238278       7.12771689       7.65931592       1.21773822      -1.46838170      -0.43084490
C        9.83420651       7.15767532       7.63081776      -0.13183409      -2.49298456      -0.24921112
C       -3.76683351       9.22204469       7.53670883       3.37054090       0.70169031       0.57028765
C       -1.24179991       9.23945249       7.31966760       0.62042596      -2.06500130       0.54419044
C        1.27318631       9.23536646       7.44149647      -2.16942409      -0.66742958      -0.13966644
C        3.69917625       9.26867780       7.55880413      -0.75713820      -1.16043399       0.77025340
C        6.15665461       9.24632068       7.51245618       0.08234626      -1.19672639       0.61038143
C        8.56359469       9.27449905       7.73177887       1.88187448      -0.47661362      -0.19600265
C       -4.87953296      11.38378290       7.74104247       0.54798333       0.80076519      -0.15416643
C       -2.42939798      11.30243270       7.64726916      -1.65758815       1.47361029      -0.44691944
C       -0.00897469      11.33181178       7.46704239       0.18021376       1.00377667       0.12437249
C        2.40058825      11.37669362       7.42666960       3.22865251      -0.33209268       0.79656144
C        4.89587168      11.31820195       7.40264268       1.14288209       1.08660887       0.42360596
C        7.37974357      11.39303109       7.58577098       1.13140058      -1.29506903      -0.19671022
72
Lattice="14.76 0.0 0.0 -7.38 12.782534959858314 0.0 0.0 0.0 15.0" Properties=species:S:1:pos:R:3:REF_forces:R:3 REF_energy=-11165.719755407119 config_type=fd_force_conv_snapshot_081 snapshot_index=81 split=validation degauss_Ry=0.0019000869 kgrid=8 lattice_temperature_K=450.0 trajectory_seed=1 pbc="T T T"
C        0.01916752      -0.02800337       7.44009948      -0.99542162       0.15399134      -0.07202586
C        2.52493596      -0.01790136       7.38506953      -2.60403822       0.77489553      -0.19415197
C        4.93287539      -0.03028751       7.42359782       0.41289037       3.14616047       0.74175478
C        7.41521961       0.02859993       7.61353789      -1.59405825      -1.37366817      -1.22707904
C        9.83909321      -0.01234531       7.40938507      -0.09766824      -0.02899047       0.07765271
C       12.25718844      -0.06491876       7.44007060       1.28061712       1.01155632      -0.12776660
C       -1.21090756       2.05332208       7.58755271      -1.75138225       1.07263030      -0.14378046
C        1.26506411       2.13076072       7.67236269      -0.82012792      -2.47095124      -1.49662989
C        3.69594593       2.12126897       7.47318464       0.48382402      -0.08076992      -0.32951130
C        6.14136454       2.13414901       7.46219226      -1.30583167      -0.05234406       0.05518744
C        8.63304535       2.10221498       7.51909056      -0.53787684       3.04861898      -0.46586615
C       11.06591187       2.10376853       7.45421839       0.07672120       1.70319258      -0.19100057
C       -2.51762741       4.27174509       7.68224614       3.13100355      -1.21859568      -0.27174504
C        0.00864905       4.20178173       7.74682395      -0.35296104       1.93034774       0.32763233
C        2.55606367       4.26019015       7.56623392      -2.73302404       0.31313054      -0.65664304
C        4.95863700       4.27105846       7.37337758      -1.06453364       0.61043954      -0.36555790
C        7.36939869       4.24692740       7.41503299       1.85637196      -0.91340368       0.17784243
C        9.89685873       4.33583582       7.51735397      -1.97246730      -2.67338396      -0.76671788
C       -3.68964549       6.44818864       7.58436816       0.21828512      -0.20860260       0.49297946
C       -1.25101001       6.38918609       7.70147682       0.65535697      -0.47023523       0.74973831
C        1.24227883       6.39890464       7.54337326       0.89062139      -1.24493586      -0.00711604
C        3.74288277       6.38736690       7.37942839      -1.18265912       2.45947897      -0.74849030
C        6.19289612       6.43553690       7.34057113      -1.53479458      -1.30011482       0.58646477
C        8.60340680       6.37135358       7.54911447       0.33652295       0.15433304      -1.43298866
C       -4.95383215       8.54221643       7.47284674      -0.31750707       0.65102209       0.44990629
C       -2.48642122       8.57616105       7.67897516      -0.62190923      -0.62278084       0.15677533
C       -0.02704265       8.50886421       7.66114393      -1.04864859      -0.43790721      -1.05240780
C        2.42361080       8.46869340       7.53008966      -0.56431035       2.46181636      -0.85140256
C        4.89982698       8.54379028       7.36012064      -0.32623314       0.20668404       0.59245570
C        7.35472774       8.55499133       7.45281192       0.33103287       0.12639826      -0.71081129
C       -6.16504749      10.67952008       7.36581494      -2.09034415      -0.21888238      -0.19334670
C       -3.67773177      10.70524256       7.48548033      -2.89006265      -2.52297622      -0.00334475
C       -1.25860118      10.72400993       7.62622938       1.64832678      -2.91860344      -0.63635729
C        1.25739282      10.63307924       7.46499933      -1.44585241       0.16501623       0.16570040
C        3.70928527      10.59480619       7.51045092      -2.39854460       0.52502107      -0.72001096
C        6.12129698      10.67403420       7.33397691      -0.22168848      -2.07253849       0.56489399
C        1.25545315       0.67704245       7.39523436       0.76286225       1.42392552       1.62993079
C        3.73496490       0.70856817       7.44238381      -0.58881605      -0.55263703      -0.44552641
C        6.14480562       0.71603670       7.55251853       0.91386057      -0.46119343      -0.39816695
C        8.62458252       0.71099979       7.48302491       0.44104704      -0.23382306       0.44755347
C       11.05155620       0.67643932       7.38602443       0.63639714       0.78447520       0.54225208
C       13.52491484       0.62985650       7.53825273      -0.51721725       1.19419026      -0.66275995
C       -0.00505446       2.76242375       7.70318880       1.19639601       1.68904534       0.09005006
C        2.49485789       2.80801272       7.57814033      -0.50854492       2.04971686       0.35328449
C        4.87381994       2.88174035       7.38392640       2.76356746      -1.87209117       0.55646720
C        7.36438556       2.80894926       7.46881541       1.00518101       0.63205480       0.08706398
C        9.84642414       2.91230962       7.50465619       0.83787290      -3.04320090      -0.14325724
C       12.30497770       2.83435200       7.48206619      -0.24200637      -0.87127641       1.36060980
C       -1.26162823       4.96027649       7.83639910       0.89292125      -0.63346505      -1.54656097
C        1.26781390       4.98712774       7.64945064      -0.00079447      -2.40872566      -0.20995886
C        3.73696957       5.00298601       7.30840126       0.03556170      -1.44642782       1.58658174
C        6.17534384       4.96414545       7.43481360       0.04856840       1.85012367      -1.03869919
C        8.63957809       4.92554140       7.39173464      -1.51784458       2.80982083       1.45398378
C       11.09077507       5.02303490       7.57283286      -0.47054942       0.87405963       0.30882857
C       -2.46595400       7.15700197       7.70858892      -0.08954587      -0.64763055      -0.64005351
C        0.01409100       7.03699718       7.60726729      -1.70114727       2.87207341       0.67199741
C        2.48291573       7.12292146       7.42596619      -0.22680935      -3.47698637       0.68806294
C        4.94179559       7.16823081       7.30837556       0.56877147      -3.09811657       0.30871390
C        7.39398879       7.12169551       7.45733622       0.24317391       0.10048591       0.06418476
C        9.81787400       7.11880016       7.52769677       0.19858635      -0.03560901       0.26763898
C       -3.74298266       9.26579991       7.60040342       1.41326573       0.40143636      -0.69026432
C       -1.26901993       9.26156708       7.67949703       1.07705183       0.81081332       0.04214835
C        1.16293366       9.20323954       7.47936808       2.34971087       0.41841053       1.08311037
C        3.63091925       9.16589961       7.51087715       1.65362402       2.16759063      -0.53579090
C        6.12239059       9.25733816       7.38274001       0.40963535      -0.32019979      -0.19149885
C        8.57612756       9.29132215       7.38591218       0.47201237      -2.03140521       0.60058990
C       -4.95651087      11.35486272       7.37196988       2.81284805       1.21039052       0.23996851
C       -2.48060070      11.39178182       7.48965831       0.92803429      -0.84028896       0.39524258
C        0.01726444      11.35306942       7.52107643      -0.17430588       1.52027402       0.81082052
C        2.48309610      11.37499798       7.44196558      -0.11976250      -2.36656779       0.37376847
C        4.89885053      11.30807304       7.39903231      -0.62999047       1.09451784       0.25928855
C        7.29912341      11.35356535       7.36770222       4.27675551       0.75119073      -0.19383572
72
Lattice="14.76 0.0 0.0 -7.38 12.782534959858314 0.0 0.0 0.0 15.0" Properties=species:S:1:pos:R:3:REF_forces:R:3 REF_energy=-11165.47649094158 config_type=fd_force_conv_snapshot_087 snapshot_index=87 split=validation degauss_Ry=0.0019000869 kgrid=8 lattice_temperature_K=450.0 trajectory_seed=1 pbc="T T T"
C       -0.03135867       0.02795353       7.53842859       1.72281704      -0.78269574       0.72107154
C        2.46554029      -0.06957797       7.50943200      -1.33303163       0.55674025       0.15823674
C        4.88406666      -0.00868967       7.51901465       1.64974680      -0.52851725      -0.86321163
C        7.38916805       0.01613445       7.38390197       1.02241588      -1.22675045       0.43678106
C        9.89257583      -0.04453531       7.58777757      -1.74146216       2.21773666      -1.16038976
C       12.30057234      -0.00377601       7.71304094       1.32458041      -0.83827579      -1.13835927
C       -1.19626679       2.12532641       7.49572220      -2.94137724       2.09445200       0.14039560
C        1.23144352       2.15635997       7.68558892      -0.42396746      -1.89094687      -1.21316654
C        3.63809589       2.12087451       7.59326145       2.02897552      -0.59853122       0.26477966
C        6.10711101       2.08180329       7.63846754      -1.76030475       1.55239866       0.03597230
C        8.62759884       2.10471494       7.52552578      -4.10697735      -0.47021852       1.01531758
C       11.03225490       2.08248922       7.50026902       0.81214438       1.35868610       0.75632316
C       -2.47045696       4.32232613       7.37321788      -0.91157280      -2.16075895       1.30587024
C       -0.01950694       4.25977738       7.42235537      -0.61419824       2.04576045      -0.24148084
C        2.41742160       4.27894964       7.51045701       1.17524946       1.03853850       0.51650171
C        4.86918200       4.30283507       7.65908309      -0.01714977      -1.18871201      -0.13736787
C        7.32002531       4.24400574       7.69764505       0.98498114      -1.47243993      -0.43331264
C        9.83935093       4.19159537       7.48674954      -2.08444758       1.97551714       1.22361988
C       -3.70228534       6.37725119       7.36939747       0.06867982      -0.65660704       0.89475470
C       -1.19116678       6.43831748       7.30845869      -2.18061070      -0.33928329       0.16988718
C        1.20961171       6.43933186       7.38023451       2.21305493      -1.59089219       0.00995017
C        3.70501064       6.44803153       7.50582271       1.57636623      -0.14492974       0.62182773
C        6.14397454       6.44677753       7.56019940       0.38009518      -2.62447438       0.15287497
C        8.61624648       6.36084777       7.50147026      -0.44377009      -0.32431175       0.27495017
C       -4.92087847       8.46950168       7.42573456      -0.28569301       2.08335461       0.59222816
C       -2.48427031       8.50989349       7.44676450       2.77559405       0.59323192      -1.25134871
C        0.04627222       8.55243686       7.31295961      -0.99629579      -0.32047695      -0.10623953
C        2.51596514       8.51718644       7.51671144      -1.42725587       0.17873872      -0.32409938
C        4.91938157       8.57178768       7.56218453       1.60481420       0.44259433       0.35615744
C        7.29386897       8.50165025       7.49634401       3.22878055       1.99229050       0.32165220
C       -6.10850215      10.59636951       7.47231216      -2.75146091       0.74631591       0.38261306
C       -3.63961064      10.65946214       7.45913685      -1.07563875      -2.59990543      -0.50810912
C       -1.20072526      10.69015357       7.24402088       1.04325442      -1.46343901       0.87634791
C        1.30928411      10.64523481       7.34903586      -0.75762363       0.11154911       0.16509413
C        3.73546114      10.63520211       7.58222591      -0.72014337       0.68135108      -0.34028216
C        6.17183149      10.74055674       7.53138554       1.15004107      -4.27400212       0.74458145
C        1.22776325       0.67730257       7.61292605       0.12710840       1.46115458      -0.38341447
C        3.66195557       0.67019931       7.51619313      -0.07789054       0.98825698       0.62016731
C        6.13498791       0.69145897       7.54353036      -0.35316030      -0.97828316      -0.60205594
C        8.64961157       0.69834606       7.45297386      -0.45682255      -0.49145583       0.50306410
C       11.09790359       0.65957409       7.62145513      -0.79677896       1.67385809       0.17987129
C       13.51743889       0.75256879       7.60935214       0.05321644      -1.96909530      -0.01270511
C        0.00235128       2.86875834       7.49188602       0.40132966      -1.34946509       0.74092714
C        2.46303816       2.82565730       7.64878178      -1.90314290       2.36155028      -0.51368327
C        4.85070052       2.87058830       7.63402799       0.86217599      -1.53657918       0.15091553
C        7.29060914       2.76373511       7.68148030       3.61976307       2.40393569      -0.72218560
C        9.77763901       2.82037659       7.57987750       3.50950825      -1.28998956      -1.06588424
C       12.25087186       2.84012283       7.45630614       1.92589176       0.52820846      -0.25794567
C       -1.22664771       5.04740294       7.41903237      -0.45571492      -2.46782863      -0.97069557
C        1.17248440       5.00671813       7.37903905       2.02272260      -0.82307543       0.79044247
C        3.67507001       5.05779753       7.59001199      -1.32388236      -2.58937573      -0.61795925
C        6.10453875       4.95260981       7.64650042       0.83591989       2.60466094       0.09628627
C        8.60583621       4.91421546       7.60135965      -1.21552501       1.08597715      -0.56253886
C       11.00362040       4.94573315       7.48732255       3.07356691       0.94961433      -1.55100487
C       -2.47946371       7.10318772       7.33797366       1.04530539      -0.29000321       0.31915721
C        0.01887730       7.11583253       7.27753876      -0.06060090       2.18869450       0.62725687
C        2.50730617       7.10778751       7.50020105      -2.61232540       0.96671422      -0.57467627
C        4.96439826       7.18993102       7.54399922      -1.75831883      -2.20909672      -0.05379288
C        7.38181896       7.10812233       7.50015322      -0.33561664      -1.20487782       0.30826370
C        9.85128068       7.07426383       7.45150222      -0.85269736      -0.16233251      -0.41929782
C       -3.66493908       9.21612113       7.46800249      -1.68395918       0.32816944      -0.27985378
C       -1.18689016       9.26687061       7.30904818      -1.38962958      -0.93295872       0.21140716
C        1.27581693       9.22324012       7.40019055       0.85022808       0.54338723      -0.26410449
C        3.71534448       9.23311951       7.57184954      -0.97134066       0.68596955      -0.17535129
C        6.13891837       9.29625583       7.59664753       0.05032523      -0.73889443      -1.03946667
C        8.57988133       9.19461639       7.48460419       0.43107733      -0.77351613      -0.43380475
C       -4.89960950      11.26903567       7.45001618       0.62083040       2.77639315       0.39236371
C       -2.44372992      11.35569912       7.36436855       0.42031572       1.30456232       0.48309486
C        0.08481999      11.34201636       7.29538704      -1.98704417       1.74298194      -0.10545225
C        2.51691844      11.38878557       7.45899607       0.31252479      -3.17518359       0.82105428
C        4.95855105      11.31738681       7.61671461      -1.98085089       4.02986225       0.47009407
C        7.38464073      11.38712204       7.53641304       1.86488129       0.18497262      -0.52891320
72
Lattice="14.76 0.0 0.0 -7.38 12.782534959858314 0.0 0.0 0.0 15.0" Properties=species:S:1:pos:R:3:REF_forces:R:3 REF_energy=-11164.989953983146 config_type=fd_force_conv_snapshot_093 snapshot_index=93 split=validation degauss_Ry=0.0019000869 kgrid=8 lattice_temperature_K=450.0 trajectory_seed=1 pbc="T T T"
C       -0.01587694       0.03202466       7.22665156       0.55650577      -0.64998619       1.01826612
C        2.47906260       0.06464301       7.54898829      -0.27790617      -2.34365129      -0.73792512
C        4.98477754       0.00241871       7.49053939      -2.91558548       1.47201621      -0.03310681
C        7.40149581       0.08005626       7.46590377       0.21161722      -3.71871094      -0.61622864
C        9.86433883      -0.05231117       7.46552235      -1.81538807      -0.11592821       1.19953584
C       12.26326869      -0.03090921       7.33067216       1.01336252      -0.74823087      -0.13075731
C       -1.30713085       2.07268768       7.58395090       2.49170235       1.47154930       0.79392143
C        1.21866576       2.14037163       7.73983667      -0.87414191      -0.83542469      -0.38949873
C        3.65630977       2.11992907       7.58801132       2.45037213       0.85182448      -0.12949361
C        6.18522731       2.09299611       7.47159211      -0.78606517       2.77718865      -1.12715697
C        8.71159996       2.13681939       7.48359515      -2.61898790       0.60351299      -0.73584767
C       11.06662379       2.07521388       7.48172113      -0.03234628       1.34116197       0.91578787
C       -2.43602316       4.25575822       7.65605354       0.53249269      -0.74104850      -0.48271665
C        0.03596304       4.22259714       7.83054186      -1.88971017       0.27829389      -0.21874817
C        2.48785764       4.25021473       7.72346323       0.17448123       0.57440527      -0.30025574
C        4.95949476       4.25307227       7.40747895      -1.69167378      -1.59052992       1.15940015
C        7.39554813       4.24993781       7.31848101       0.59029418       0.62863961       1.00214968
C        9.84728715       4.30757548       7.41387402       3.05663234       0.20421373       1.04420650
C       -3.64742983       6.45961814       7.47316298       0.59818052      -1.91700809       0.62692340
C       -1.17491491       6.37172838       7.60540197       0.09791506      -0.62774589       0.27708676
C        1.24181582       6.37873634       7.75968223       0.69544227      -0.63766109      -0.69944573
C        3.70466385       6.40032084       7.57857643      -1.16395408      -0.98901571       0.09079825
C        6.10574124       6.40984191       7.40077461      -0.11367027      -0.39021144      -0.00882043
C        8.54945410       6.41618951       7.37190902       1.37290404      -0.10892530       1.17093412
C       -4.94703501       8.51737880       7.41087562       0.51793099       0.33206389       1.28240506
C       -2.48680733       8.51302618       7.54591225       3.35400047      -0.38780335      -0.22203995
C       -0.00153087       8.51185785       7.55548424      -0.42607062      -0.46805313       0.37554124
C        2.44425941       8.54939823       7.52460935      -0.14342385      -1.21869236       0.65048807
C        4.86689747       8.50586808       7.40896685       1.06783056       1.13277946      -0.17948074
C        7.36209950       8.55626435       7.38734511      -1.38031704       1.36338170      -0.03627929
C       -6.12198099      10.65734193       7.40962429      -3.10365216       3.49168176      -0.31003108
C       -3.67997402      10.65894900       7.44563460      -1.97696416       0.17793757       1.04629218
C       -1.26967954      10.63502870       7.57366629       1.64136398       1.66251413      -0.43186177
C        1.19167936      10.66704085       7.60837394       0.55345181      -0.31360182      -0.94951251
C        3.66306532      10.62366577       7.31986473       0.40456488       0.20528356       1.05379440
C        6.08563677      10.60231049       7.23088643       1.70372197       2.50288768      -0.52866818
C        1.24720914       0.70868554       7.49287034      -1.59701887       1.97220170       0.22879733
C        3.71770735       0.74720241       7.54643413       0.44636408      -2.07009903       0.14509558
C        6.17751042       0.71962046       7.32809767       0.11313574      -0.23058964       1.88526062
C        8.64040264       0.70657221       7.49499394       1.30145257       0.70139000      -0.07029139
C       11.05292553       0.65665063       7.54242595       0.73210877       0.56567226      -1.61335258
C       13.48826989       0.70825899       7.27971199       0.04815625      -0.70819674       0.80312598
C       -0.06829492       2.82071868       7.86955373       1.83852851      -1.67093603      -1.78775591
C        2.47352793       2.83454879       7.69239664      -1.84882758       0.52739342       0.38310723
C        4.91004080       2.79215328       7.53154486       1.63576360       1.68521568      -0.78462329
C        7.44046184       2.85442085       7.37861404      -0.59029520      -1.77472041       0.65212124
C        9.89944791       2.88088147       7.46127131      -0.77921986      -0.75907399      -0.15392629
C       12.26315038       2.77245330       7.63073047       0.14498554       2.09964023      -0.48785963
C       -1.18394367       4.93569027       7.65698445      -0.48080169       0.59448584       0.77751008
C        1.23145079       4.94346285       7.78399748       1.74811695       0.28426142       0.40600264
C        3.73385154       4.96741853       7.55946126      -0.86320109       0.01304372       0.22908118
C        6.15694643       4.94997037       7.35991669       0.62155725       1.63901990      -0.22603082
C        8.62760129       4.98670747       7.45991222      -1.48408522       0.52393040      -1.60626765
C       11.17762901       5.04742147       7.51969850      -3.83581184      -1.77611755      -0.39823920
C       -2.37140435       7.09848899       7.55975077      -2.71500832       0.85120432      -0.40295023
C        0.04792434       7.08232430       7.66208727      -1.18694180       0.78036349      -0.28146946
C        2.46429460       7.08111546       7.63197013      -0.14449831       1.71815151      -0.00007071
C        4.87834838       7.13495400       7.51046224       1.20601759      -2.22496043      -0.57405457
C        7.29264492       7.16684824       7.37685273       2.77072541      -1.99398795      -0.00573999
C        9.82790188       7.08738754       7.47539803      -0.83558025       1.40527860      -1.08225188
C       -3.68128904       9.18731883       7.45209372      -1.68174238       2.40496362      -0.03643099
C       -1.22547371       9.22335001       7.54372201      -1.47835269       0.18599592       0.30746100
C        1.17403086       9.24968373       7.55231100       2.26709798      -0.42221602       0.27967457
C        3.70745444       9.24708609       7.45802247      -3.24431670      -1.46539613      -0.53676406
C        6.05865400       9.22115122       7.26095913       3.26074939      -0.72694677       0.98362899
C        8.60741417       9.30112912       7.52026668      -0.43401635      -3.86345017      -1.65134346
C       -4.95681352      11.41233579       7.46459217       3.11540750      -0.97304222      -0.17665278
C       -2.49363124      11.40004439       7.59668510       1.58007942      -2.19809780      -1.17274032
C       -0.00864636      11.39224616       7.50240383      -0.95823575       0.34861022       0.93633201
C        2.46293830      11.30753517       7.53413361      -1.03168497       1.41275614      -0.96766039
C        4.88228843      11.30208012       7.23409850      -0.16821957       2.42481228       0.18762420
C        7.34301945      11.40554096       7.23794660       0.65270256      -2.54966736       0.37199646
72
Lattice="14.76 0.0 0.0 -7.38 12.782534959858314 0.0 0.0 0.0 15.0" Properties=species:S:1:pos:R:3:REF_forces:R:3 REF_energy=-11166.00915242018 config_type=fd_force_conv_snapshot_099 snapshot_index=99 split=validation degauss_Ry=0.0019000869 kgrid=8 lattice_temperature_K=450.0 trajectory_seed=1 pbc="T T T"
C        0.04138969       0.02034406       7.57996237      -0.87267638       0.04900214       0.00871270
C        2.47107839       0.02776327       7.48826421       0.39333996      -1.51284276      -0.97694850
C        4.91803243      -0.02206287       7.30364526      -0.75485249       1.04847607       1.41502282
C        7.40644552       0.03146234       7.37310806      -1.10354627      -1.45667238       0.67660431
C        9.90351873       0.02990588       7.41080334      -1.45529273      -1.26663417       0.63751480
C       12.32250462      -0.06194275       7.53852406      -0.82843644       3.42335187       0.60465661
C       -1.23714960       2.12028344       7.44474213       0.32325966      -0.86488439       0.27689830
C        1.23736385       2.17961631       7.40699076       1.48932616      -1.15514317      -0.13856138
C        3.65298220       2.12023914       7.37633779       2.90848615       1.51618956       0.02375288
C        6.12588741       2.11254779       7.43729466      -0.76082902      -1.34181735       0.30894581
C        8.59039881       2.10641550       7.41780871       0.33871996       0.70672581       0.13661865
C       11.08112886       2.16537177       7.31181849       0.14946285      -1.82563108       1.26460095
C       -2.45361972       4.24599681       7.31829462      -1.36923456      -0.47313826       1.25217506
C        0.02884214       4.23428331       7.43538631      -2.21174290       1.46949627      -0.71176697
C        2.46988830       4.29641365       7.38612386      -1.34216110       1.71776302       0.33800185
C        4.87741960       4.30977546       7.53930882      -0.39039656      -2.51808933      -0.45974616
C        7.32048858       4.22993043       7.71582493       1.33784756      -0.81941212      -1.68517686
C        9.77228030       4.21270149       7.47923191       3.00426720       1.11618222       0.10299994
C       -3.66141474       6.31964040       7.46152166      -0.98975053       1.78474591       0.32546181
C       -1.24299981       6.35373371       7.37965634       1.43091918      -0.09029020      -0.71676648
C        1.24943904       6.43103382       7.33830970      -1.46357862      -0.01987206       0.56880927
C        3.70503291       6.44626479       7.54570893      -0.08176339       1.46809039       0.35948753
C        6.14433051       6.36966981       7.65951505      -1.39651474       1.39143501       0.36602482
C        8.57360236       6.40129830       7.58973929       1.44060119      -2.06351006       0.50685005
C       -4.96073230       8.47347173       7.48902028       1.36529717      -0.27174529       0.31925105
C       -2.47328923       8.45512028       7.48275817       0.15669228       1.47833598      -0.05982983
C       -0.00889908       8.50065239       7.48393720      -1.68329790       1.29032869      -0.33180498
C        2.42392236       8.56022942       7.59287344       1.39840193       0.17543203      -0.23248660
C        4.91476069       8.58208572       7.71319418       0.60090049       0.85955655       0.71160448
C        7.29946539       8.48231231       7.64610578       1.89164878       2.37871008       1.51411082
C       -6.12751195      10.63488890       7.60013559      -0.52587364      -0.30866171       0.16815709
C       -3.63427398      10.59957327       7.35120861      -2.05310352       1.17244978       1.10185372
C       -1.18904444      10.64517938       7.51005797      -1.11437550       0.82576557      -0.23333070
C        1.26544552      10.69290944       7.50705050       0.51842002      -1.30746381      -0.26651310
C        3.73258197      10.67200158       7.66927311      -0.45612784      -0.25810765      -0.03749954
C        6.17464981      10.71155984       7.76005609       0.59137275      -1.56662792       1.06982600
C        1.27202121       0.75116569       7.45024774      -1.35437101      -0.22900507       0.72837604
C        3.68774512       0.72707632       7.39873366       0.06612492      -1.05979175      -0.45945305
C        6.11641518       0.67717788       7.40834406       1.86076007       0.91906422      -0.94910628
C        8.63118208       0.71880460       7.41954861       0.53000592      -0.70954425      -0.68956987
C       11.10361231       0.74518700       7.47779390       0.31411502      -1.09792070      -1.05533089
C       13.51027365       0.67883595       7.52357110       2.20585302       0.85132311      -0.14128829
C        0.01077669       2.82285535       7.46287859      -0.51070311       0.69414746      -0.31893943
C        2.49428620       2.89873823       7.33131072      -2.06861910      -1.09884064       0.67613868
C        4.93557507       2.82834389       7.44629601      -2.85375379       1.68485856       0.00732533
C        7.32407897       2.77358847       7.52423780       2.24947281       2.91191548       0.48857028
C        9.82989607       2.81137900       7.35852756      -1.05671157       0.61736969       0.35613404
C       12.31362447       2.83211409       7.40808105      -0.15064556       0.63187251      -0.97657080
C       -1.25398430       4.92585335       7.33228206       2.08774811       0.82998655       0.51071545
C        1.19338353       5.03035584       7.41349892       2.25578744      -2.29991040      -0.53167585
C        3.65060732       5.05639008       7.49256840       1.60809416      -1.87041327      -0.25478398
C        6.09450441       4.95065934       7.62190138       1.44052688       0.91298408       0.66945973
C        8.61065326       4.94116183       7.62054787      -3.41821918       0.64069654       0.22267116
C       11.05487253       4.94704382       7.49290723      -0.04762943      -2.00714968      -1.37989410
C       -2.42396445       7.06100773       7.43221062      -1.99631094      -0.79783465       0.16718393
C       -0.02533297       7.10314467       7.29746599       1.26727052      -0.17912002       1.29237297
C        2.46588952       7.13563117       7.51903212      -0.20566126       0.63510002      -0.49048729
C        4.95185258       7.19483340       7.65606175      -1.01758658      -3.38864583      -0.28209193
C        7.33294951       7.09136429       7.70331949       0.98098436      -0.83204626      -0.88162305
C        9.84958970       7.02480366       7.51080191      -0.91296171       1.84050543      -0.01119895
C       -3.68107076       9.17864023       7.44393329      -1.51104067       0.14935178      -0.17681554
C       -1.28994305       9.22137753       7.54590230       2.90278935      -0.37857052      -0.53048697
C        1.19773110       9.25740144       7.52958349       0.71451548      -0.20916130       0.15485343
C        3.68954044       9.28717455       7.68054269      -0.93172562      -1.80462311       0.01384333
C        6.15381736       9.30021469       7.83845502      -0.70699629      -1.67825725      -1.60900047
C        8.56864531       9.16891027       7.63189425       0.62274947       1.22640875      -0.93243319
C       -4.90069093      11.35602281       7.42813607       0.21821055      -0.72404322       0.54714592
C       -2.44987442      11.37279113       7.43916547       1.21515529      -2.05527353      -0.89395586
C        0.06432672      11.38645177       7.44304986      -1.95023266       0.04111862       0.13884523
C        2.52907057      11.34770918       7.48473976      -1.18401075       2.41620242       0.38138613
C        4.95472714      11.36250527       7.75599971      -0.78425537       0.15422274      -0.98610497
C        7.39926770      11.38373408       7.73283736       1.63586156       0.51153152      -1.01172164
72
Lattice="14.76 0.0 0.0 -7.38 12.782534959858314 0.0 0.0 0.0 15.0" Properties=species:S:1:pos:R:3:REF_forces:R:3 REF_energy=-11165.580947416882 config_type=fd_force_conv_snapshot_105 snapshot_index=105 split=validation degauss_Ry=0.0019000869 kgrid=8 lattice_temperature_K=450.0 trajectory_seed=1 pbc="T T T"
C       -0.05510039      -0.02758745       7.37131459       1.86190781       0.84856792       0.34623452
C        2.51276291      -0.00862928       7.36780869      -1.21477502       0.70145685       1.61975745
C        4.97503868       0.02681931       7.61046882      -2.37800097       1.01468123      -0.70148256
C        7.43658172      -0.01684467       7.57445985      -1.05749267       2.89992694      -0.54779127
C        9.85333871      -0.06241996       7.58023071       0.26087210       3.47048765      -0.71903265
C       12.33852740       0.02679713       7.40101584      -2.98206186      -1.27144394       0.31900191
C       -1.26653966       2.13350727       7.49257594       0.08272576      -0.89606545       0.00249063
C        1.22763984       2.09930968       7.50133133      -0.97095525       0.38622880       0.22613469
C        3.60925113       2.08447283       7.65615888       2.03293373       3.51090924      -0.26188820
C        6.13319560       2.10968170       7.64714766      -0.66158444       1.22422306       0.31158994
C        8.59491184       2.11316297       7.54364016       0.77114969       2.30448825       0.92574369
C       11.02895321       2.10181735       7.58163963       1.14634846      -0.10469815      -0.53834966
C       -2.45109038       4.21903050       7.39938584      -0.68924771       1.14096791       0.71346673
C       -0.04169645       4.23080393       7.63867769       1.33393614       0.14702956      -1.47766287
C        2.46625258       4.26625330       7.69504994      -2.27464391       1.11933439      -1.01307507
C        4.89098978       4.28488321       7.75478815       1.08713955      -2.47154208      -1.63682546
C        7.39080681       4.25043945       7.54012038      -0.14229462       0.09845962       1.19232312
C        9.90805055       4.26905191       7.49348678      -0.84612048       0.66701204      -0.03286178
C       -3.63975508       6.42631951       7.46107906      -1.05701393      -0.54401380      -0.08539868
C       -1.29129244       6.37041717       7.47589497       2.93159574       0.97580590       0.16101122
C        1.17337925       6.37297892       7.48166923       1.32991339       0.34014024       0.39587095
C        3.64574368       6.36951342       7.51218355       1.02190064       0.73202907      -0.45750827
C        6.14162276       6.41390615       7.33896033      -0.64689315      -1.40269541       0.72214883
C        8.65857215       6.38171889       7.38701625      -2.62268155      -1.09770036      -0.23636331
C       -4.92850803       8.53467639       7.38501626       1.08320756      -0.66979500       0.23210402
C       -2.39594744       8.57352838       7.57894963      -1.51835829      -0.80166482      -0.06040755
C        0.04314100       8.53018403       7.57739166      -0.74752768      -0.78269497       0.12772032
C        2.46107034       8.49826181       7.47312726       0.87278796       0.73767958       0.16585852
C        4.85805786       8.53929585       7.22159855       2.57783148      -2.14281600       2.05970869
C        7.36799116       8.55203532       7.32911735       0.21227568      -1.45569485      -0.86230995
C       -6.17558329      10.70395777       7.32284478       0.82279132      -0.98985106       0.56351074
C       -3.63470904      10.65935174       7.53561084      -1.67249798       1.41865014       0.15516556
C       -1.18570246      10.68945665       7.68484433      -0.24511663       0.00322802      -0.28570947
C        1.24124061      10.65505933       7.47664947       1.06857361      -0.58288066       1.89126029
C        3.70789089      10.68715229       7.41709282      -0.15613435      -1.18558452       0.71399252
C        6.09426331      10.63390605       7.37504174       1.00777808      -0.86186643      -0.21923848
C        1.25514825       0.64949099       7.41129832      -1.46449805       1.63304234      -0.42214634
C        3.69719539       0.73545294       7.55518836       0.35569412      -2.50021373      -0.34082595
C        6.15913433       0.72225252       7.55053049       2.40907815      -1.10593149       0.94461045
C        8.65900838       0.72767694       7.46137222      -1.10763253      -2.08275066       1.47567900
C       11.06432473       0.67079052       7.52751064       0.48730247       0.68869029       0.16422587
C       13.50234803       0.72005361       7.43163487       1.91178772       0.59543021      -0.17304398
C       -0.04133512       2.79474918       7.51900898       1.27435083       1.10279577       0.57184985
C        2.42030134       2.89473978       7.63708849      -0.11041628      -3.88556808      -0.06213945
C        4.86804622       2.77739777       7.66816350       0.53045895       2.52343645       0.97392874
C        7.35000972       2.83514047       7.75189433       1.20303948      -0.18784223      -2.40671274
C        9.85495582       2.86600460       7.57587381      -1.12649980      -1.51233214      -0.35327523
C       12.26501389       2.81265588       7.51738614      -0.02079431       0.17202943      -0.35835033
C       -1.25153965       4.94226188       7.48041301       0.17843405       0.23700609       0.19772118
C        1.19692502       4.96946118       7.56585163       0.09884066      -1.10124771       0.81716215
C        3.66975728       4.96328209       7.61240839       0.48409810       0.60286558       0.99559131
C        6.14124664       4.96689758       7.56667314       0.19483177       0.69925110      -0.26169588
C        8.66447810       4.94223460       7.46776201      -1.25382700       0.87491658      -0.16228417
C       11.13159748       5.01635577       7.40470934      -0.70477486      -1.67770241       0.39419717
C       -2.44004720       7.15510646       7.48352766      -0.17783498      -0.38081509       0.15761685
C       -0.01613045       7.10202835       7.50338547      -1.29904447      -0.28060917       0.04962435
C        2.42474028       7.08280715       7.48818600      -0.00625061      -0.03401415      -0.08732880
C        4.88201494       7.09521277       7.36424559      -0.17231970       0.26419628      -0.53957428
C        7.37036368       7.10133309       7.26588684       1.49188955       0.65286711       0.85292568
C        9.85390373       7.05106967       7.47005172       0.73081988       3.60724899      -0.75002319
C       -3.67184075       9.25124132       7.51935385       0.48289508      -0.28626945      -0.17072331
C       -1.16921449       9.24987230       7.68007106      -0.58349926       1.21067283      -0.57424201
C        1.26745236       9.22422773       7.54020577      -0.75984634       0.64433311      -0.52643312
C        3.70810498       9.24259488       7.43388732      -2.36628548       0.85897780      -0.98761215
C        6.11133481       9.20314911       7.39147566       0.08079126       1.07855721      -1.45817956
C        8.62120804       9.26455311       7.23700348      -0.64293623       0.15321229       1.45676134
C       -4.90047098      11.40150484       7.50017119      -0.00911533      -2.58101039      -1.60784579
C       -2.41850694      11.43154437       7.59138878       0.26058259      -3.26273942       0.48904105
C        0.05267360      11.39451414       7.64298964      -0.81143887      -1.75257499      -0.69677178
C        2.47289301      11.35706754       7.59606266      -0.15377639      -1.72650786      -1.54211117
C        4.94128874      11.39055164       7.33813131      -1.78169427      -0.31676634       0.53054945
C        7.29026768      11.34357312       7.36581936       2.75532167       0.59506640      -0.29935406
72
Lattice="14.76 0.0 0.0 -7.38 12.782534959858314 0.0 0.0 0.0 15.0" Properties=species:S:1:pos:R:3:REF_forces:R:3 REF_energy=-11166.024427394455 config_type=fd_force_conv_snapshot_111 snapshot_index=111 split=validation degauss_Ry=0.0019000869 kgrid=8 lattice_temperature_K=450.0 trajectory_seed=1 pbc="T T T"
C        0.01068294       0.04456743       7.55654327       0.07870275      -1.21669924      -0.23712693
C        2.43744635       0.03236538       7.49507029       1.94409646      -1.69984475      -0.10379903
C        4.92613992      -0.00868681       7.47189034      -0.70057496       1.11836688      -0.68027224
C        7.35765194      -0.00181259       7.24406538       0.07737349       0.88010558       0.42267599
C        9.80318648       0.01254323       7.36432240       1.16320718      -0.81120670       0.00275442
C       12.25906103      -0.04298065       7.46834869       0.46713011       2.11234122       1.31611608
C       -1.18944785       2.15175722       7.63094978      -2.85800176      -2.08470881      -0.70056570
C        1.23445739       2.12707539       7.42918437       0.69614135       0.79686843      -1.39747376
C        3.70974066       2.13469630       7.33987175      -0.36629915      -0.52520001      -0.05322955
C        6.12295494       2.15048667       7.29232186       1.08937178      -0.93537324      -0.98382620
C        8.61751984       2.13511814       7.29318028      -0.15171411      -1.46115433       0.30161997
C       11.06193161       2.09013856       7.58957491       0.46537481       0.98517551      -0.24962995
C       -2.44177828       4.23161104       7.68522565      -1.01565697       0.12162758      -1.13467102
C       -0.01499309       4.25405478       7.52243731       2.33173629      -0.49107839      -0.81477848
C        2.46788566       4.24085407       7.36470221      -0.62063191       0.70377778      -0.18717528
C        4.91261171       4.28327082       7.34689723       0.60046109      -0.89068541       0.73828764
C        7.39256266       4.23118215       7.28031202       0.52732863       1.65470337       0.71904294
C        9.82141146       4.21801600       7.54941365       1.27259759       1.46610627      -0.51880954
C       -3.65210804       6.31560753       7.62802443      -0.68396152       2.74808736      -0.37721374
C       -1.21709418       6.29932350       7.49381676      -0.13670247       3.84193235       0.04394915
C        1.24105164       6.41177833       7.47695424      -0.83953769      -0.04917183      -0.16828693
C        3.73130873       6.44508150       7.52661282      -1.09774278      -2.34877936      -0.22882561
C        6.17176797       6.33978103       7.51726828      -0.00844685       3.00068462       0.10378258
C        8.64436123       6.41257012       7.59587758      -0.12395545       0.30322999      -0.38111308
C       -4.92130431       8.52383607       7.58240786       1.50263111       0.70015381       1.61068814
C       -2.48895701       8.50536265       7.59978748       1.74583124      -0.32825120      -0.39527112
C       -0.04248451       8.53552324       7.42032821      -0.14123712       0.68646140       0.84249626
C        2.44860126       8.49027244       7.49638610      -0.58877440       1.91593105       0.91908916
C        4.94751778       8.54681522       7.74892632      -1.80396311       0.36294824      -0.96834610
C        7.34813106       8.51396030       7.60196194       0.30276848       2.27487634       1.36568412
C       -6.16602498      10.64428922       7.62076267       0.86046930       0.76019936       0.26527717
C       -3.65680140      10.66816673       7.68107521      -0.05917343       0.49928355      -1.13787873
C       -1.22874330      10.66649356       7.41701920       0.71735758      -0.01757478       0.80767761
C        1.24843337      10.66839649       7.38088199      -0.63029848      -0.65232384       0.24090285
C        3.67735167      10.59379097       7.67550933      -2.05084918       2.93151217      -1.81989521
C        6.12005928      10.74889859       7.69505939       0.36469607      -1.99599726       0.08629008
C        1.24300066       0.73890891       7.38448495      -1.20294229      -0.60766172       1.45205211
C        3.69383209       0.72877248       7.49237800      -0.11865975      -0.81420409      -0.52953104
C        6.11155789       0.71493509       7.25729550       0.92737917       0.30581704       0.85217774
C        8.58507059       0.70033914       7.28387992       0.07896578       1.06609790      -0.25020253
C       11.05192024       0.69465003       7.47764801      -0.19374574      -0.01447094      -0.22150208
C       13.52150818       0.66402272       7.62084105      -0.48201602       2.65241224      -0.99477653
C        0.01189644       2.84360824       7.47955891       0.31451122      -0.16936808       0.89679564
C        2.47807740       2.79961325       7.25416942      -0.86097375       1.99662076       1.46941811
C        4.91362546       2.86553818       7.31168844       0.26760684      -0.06680523      -0.04894712
C        7.39453182       2.82134417       7.19620284      -0.68252376       0.73761504       0.77159192
C        9.84247686       2.79847503       7.53925612      -0.86619206       0.84883094      -0.79963314
C       12.27477469       2.84775875       7.61185696       1.92533358      -2.05159531       0.83539847
C       -1.21117863       4.90743713       7.57341321      -1.19450368       1.15495677       0.32759274
C        1.21011523       4.99079130       7.40374276       1.01890967      -0.90365663       0.60327773
C        3.69914835       4.95967884       7.46253894      -0.43956274       1.95003468      -0.67582989
C        6.16760866       4.94461825       7.45049507      -0.18205699      -0.02816926      -1.19634818
C        8.62902232       5.01262824       7.39521989      -0.47022854      -2.44067855       0.84838357
C       11.09186229       4.93137222       7.58503608      -1.07110821      -0.98075296       0.93081879
C       -2.44507472       7.05636817       7.52062463       0.05034297      -0.44229762       0.78236098
C       -0.02546299       7.13928644       7.46226894       0.86234954      -2.90651900      -0.05558159
C        2.48281094       7.10355677       7.53581778      -0.54905857      -0.52462486      -0.48221451
C        4.93998297       7.15041355       7.51441237       1.45114965      -1.79421297       1.20904918
C        7.39676970       7.12631249       7.58694000      -0.74850855      -2.11160615      -0.30842748
C        9.89428574       7.10554460       7.68565239      -0.84138862      -0.73628887      -0.99243579
C       -3.63887086       9.27198781       7.65342964      -3.35377833      -1.88915764      -0.17331241
C       -1.28704041       9.25423249       7.53121081       1.74976220      -0.71164665      -0.85368621
C        1.20243840       9.22730278       7.45828257       0.80292878       0.19516576      -0.59664274
C        3.65765885       9.21734579       7.69083701       0.98631605      -1.18223000      -0.11358954
C        6.11865849       9.30904129       7.74934937       1.65107143      -0.97073105      -0.62421731
C        8.59767662       9.22182679       7.67967808      -0.22996769      -0.11748913      -1.22301490
C       -4.90066691      11.34867694       7.58828964      -1.23782085       1.22470334       0.33555519
C       -2.43112216      11.37347268       7.49102347      -0.86398476       0.02694259       0.75492860
C        0.03298809      11.39569730       7.39494986      -1.66066833      -1.64074151      -1.02937046
C        2.46010692      11.37727726       7.36433572       0.55267894      -1.41575687       1.52326961
C        4.83817488      11.36552442       7.60357651       2.52506370      -0.95518642       0.42164678
C        7.38374431      11.41855455       7.62664393      -0.24443478      -1.03967004      -0.09319889
72
Lattice="14.76 0.0 0.0 -7.38 12.782534959858314 0.0 0.0 0.0 15.0" Properties=species:S:1:pos:R:3:REF_forces:R:3 REF_energy=-11165.759437904268 config_type=fd_force_conv_snapshot_117 snapshot_index=117 split=validation degauss_Ry=0.0019000869 kgrid=8 lattice_temperature_K=450.0 trajectory_seed=1 pbc="T T T"
C       -0.05000027       0.02151760       7.50247161       1.92151420      -1.74250655      -0.85876748
C        2.47690648      -0.02945332       7.44238580      -0.35343155       0.12094006      -0.73752300
C        4.91298787       0.04741197       7.57132662       1.00105696      -0.98091134       0.37372836
C        7.40509323       0.04868745       7.81633378       0.81842584      -0.74957093      -1.38561686
C        9.85011311      -0.04237571       7.57232609       1.25491354       2.03037934       0.24040046
C       12.29065077       0.01289411       7.45251599       0.26720010      -0.55651914      -1.16236849
C       -1.25898836       2.14186365       7.56188847       0.52297087      -1.53415926      -0.67159657
C        1.17263177       2.09526099       7.41381350       2.54291076       0.79886181       0.53395951
C        3.64643617       2.14384771       7.50049760       1.63705712      -0.47148016      -0.08971839
C        6.13832718       2.16774596       7.73322836       0.97164817      -0.26481463      -0.53720732
C        8.62356927       2.17856273       7.64229982       0.61553804      -1.23878013       0.45311862
C       11.07954703       2.10262451       7.56446142      -0.45831534       0.49909432      -0.27731713
C       -2.42671855       4.25522119       7.63124959      -1.67759802       0.13751417      -0.96227444
C       -0.03075305       4.22006533       7.59693458       2.35456100       1.06958046      -0.16023706
C        2.45408689       4.26321430       7.49735729       0.38255110      -0.00555770       0.04177374
C        4.94166561       4.18660198       7.56112857      -0.59327357       5.69372081      -0.95769376
C        7.35672340       4.26452974       7.59579811       1.79836248       2.95410883      -1.15968862
C        9.89358218       4.26078495       7.54679026      -1.64782722       0.64532710      -0.55429385
C       -3.68608401       6.40818790       7.37650196      -2.59444364      -0.49626173       0.60472192
C       -1.25802839       6.35861390       7.50336125      -0.36439062       1.01232508       0.63150639
C        1.21065273       6.37123623       7.53837475      -0.55445120       1.26071267      -0.15560059
C        3.69496331       6.42574662       7.36804357      -0.57903274      -2.87268611       0.93555065
C        6.16566180       6.38980902       7.32974397      -0.04567051       0.86100640       0.69435186
C        8.56751032       6.36286223       7.36658473       2.23435550       0.95173780       0.32602102
C       -4.92778126       8.50434508       7.43512372      -0.35730723      -0.23224929      -0.44140853
C       -2.40965487       8.56606640       7.49445629      -2.13569275      -3.00644800      -0.14777518
C        0.00164065       8.50762743       7.66074958       0.04922326       0.06417371      -1.03386166
C        2.47080661       8.56757510       7.41202702      -0.29746249      -1.43527926       0.98819064
C        4.84311085       8.47522310       7.33070218       5.79024748      -0.09270241       0.22279175
C        7.41115624       8.56252758       7.37229891      -0.83083090      -2.13548115      -0.05873942
C       -6.11585650      10.68159966       7.48174882      -1.19915069      -0.74299662      -0.69193194
C       -3.66735288      10.61626308       7.36105532      -0.44406860      -0.20716921       0.92768307
C       -1.26142721      10.68246294       7.54723704       1.20605796       0.66851562       0.13148082
C        1.14624123      10.64656618       7.59259099       4.09272932       0.72311248       0.45230050
C        3.73813082      10.62668834       7.33894570      -1.16316141       2.49260327       1.61336312
C        6.15893093      10.62016612       7.31744533       0.25258543      -0.03060795       0.97400664
C        1.22634119       0.68699836       7.42585083      -0.68464775      -0.23454863       0.43666151
C        3.68413117       0.72073957       7.46053452      -0.26496889       0.19911394       0.42571863
C        6.18043833       0.75430516       7.77471430      -1.30143174      -0.35936412      -0.52441891
C        8.69587486       0.72324850       7.72634684      -3.75530160       0.86370580      -0.03725786
C       11.06838485       0.70636334       7.45435545       0.01246728      -0.85493628       0.83780682
C       13.50549536       0.71417645       7.41489913      -0.04912093       1.09289265       1.29895783
C       -0.02414374       2.81298220       7.54009053      -0.33753622       0.21428191      -0.04357866
C        2.45139667       2.83408485       7.44908538      -2.04578102       0.31933718       0.04898723
C        4.90828594       2.85048302       7.57347517      -0.27727676      -3.09405217       0.66612629
C        7.37853754       2.90741958       7.66089910      -0.23261464      -3.33377489       0.62240005
C        9.87739620       2.83623730       7.58675156      -0.88342436       0.84865688       0.09973001
C       12.28664495       2.81802813       7.59885615       0.39637463       1.44386134       0.23321268
C       -1.19739235       4.95880442       7.59697012      -2.07721867      -0.61874138      -0.13367448
C        1.20203754       4.97081894       7.54937332       0.77860486      -1.19047399      -0.15783077
C        3.72735990       4.94400003       7.49764157      -1.77231515       1.07932545      -0.48457838
C        6.14795872       4.99905500       7.45956133       0.09484337      -2.17615960       0.72170737
C        8.62673952       4.98352259       7.47748881      -0.59944036      -2.32301459       0.41363702
C       11.08856177       4.99156914       7.46825552       1.26363961      -0.96241174       0.66182329
C       -2.50586715       7.08914820       7.46588519       3.35339498       1.83635901      -0.00061912
C       -0.05671931       7.07538259       7.57867942       1.71768512       0.77955565       0.05066179
C        2.43281444       7.12460687       7.41665984       0.85095647      -0.16619148       0.14197272
C        4.92877386       7.08304339       7.37586432      -1.03734705       0.05939351      -0.76864080
C        7.41202246       7.11065765       7.34977045      -2.05722834       0.49057188      -0.13214982
C        9.78728494       7.08866994       7.39324786       1.76827517       0.07384671      -0.26001515
C       -3.69144028       9.17021448       7.44545746       1.55165279       2.36753170      -0.37485296
C       -1.19696620       9.27085143       7.54926681      -0.54006073      -0.56607695       0.35074372
C        1.23767690       9.22739788       7.60880551      -0.99062008       0.28961909      -0.62474670
C        3.74533952       9.23173369       7.40176576      -4.13475169       0.48668695      -0.82996650
C        6.13033156       9.15391411       7.35633336      -0.03501997       2.82497183      -0.54054102
C        8.63251573       9.27768912       7.40884881      -0.39452498      -0.86650676       0.33927326
C       -4.87741284      11.31181746       7.36443786      -0.59328745       2.42163774       0.88082832
C       -2.48736255      11.38715397       7.52543599       0.70323888      -0.07986592      -0.62476856
C       -0.01784632      11.40008739       7.58154140      -0.93777697       0.39921622       1.41060207
C        2.48225886      11.36655361       7.62337615      -0.94964132      -3.07445600      -1.84526428
C        4.95409579      11.38624677       7.31611778      -0.86221765      -1.50175436       0.33489184
C        7.37797105      11.36054156       7.49355784      -0.09537919       0.12423031      -0.69416726
