72
Lattice="14.76 0.0 0.0 -7.38 12.782534959858314 0.0 0.0 0.0 15.0" Properties=species:S:1:pos:R:3:REF_forces:R:3 REF_energy=-11163.940664517548 config_type=fd_force_conv_snapshot_000 split=validation degauss_Ry=0.0038001738 kgrid=8 lattice_temperature_K=600.0 pbc="T T T"
C       -0.05773115      -0.04473408       7.46933721       1.52989534       1.84568106       0.05435004
C        2.51094656       0.02796544       7.46612883      -0.46495315       0.35996576      -0.48816687
C        5.00475517      -0.00528471       7.41191438      -4.65643906      -0.35332588       1.88000014
C        7.38317139       0.00530096       7.54981501       1.64895259       2.32719803       1.38519468
C        9.78942120       0.01237122       7.65215516       2.86608531      -0.38462341       0.01584417
C       12.24793275      -0.00601942       7.36141983      -1.61615328       0.05180284       1.03535188
C       -1.18735367       2.07086582       7.54136659      -2.40995156       1.69673294       0.02318235
C        1.22492938       2.10194845       7.31527100       2.08292060       0.86309851       1.22647817
C        3.72456185       2.16636773       7.41103688       0.39857678      -0.59004272       0.59747630
C        6.17737098       2.13071615       7.49070729       0.11481287      -1.37319894       0.98204057
C        8.64797811       2.12547038       7.56051167       0.56340172      -1.47765695       0.13575682
C       11.10079635       2.20618638       7.58200771      -0.43047595      -2.70417832      -0.16215691
C       -2.43900814       4.28360263       7.57089913      -1.19470602      -0.34750465      -0.00517974
C        0.05391224       4.27644426       7.35946167      -3.21668145      -1.00210725       1.59265237
C        2.45239632       4.30258758       7.41454960       0.65774578      -1.07468024       0.32947376
C        4.95226240       4.23308997       7.58988742      -0.65741951       3.06235382      -0.06929817
C        7.42859164       4.19263540       7.56488049      -1.85715049       1.15880596      -0.17970828
C        9.82641713       4.27469939       7.48484476       1.06755160      -2.18191605       0.62180536
C       -3.73232395       6.39752178       7.52927373       1.90593949       0.82960114      -0.77166956
C       -1.21107417       6.40248348       7.46221077      -1.16450559       0.58691523       0.31988149
C        1.20699797       6.39770657       7.32940809       0.87717144      -0.22444496       0.66866808
C        3.71199696       6.34407330       7.49525239       0.02322992       0.50769877      -0.72591755
C        6.21833036       6.35139636       7.51815989      -3.11901579       1.72822715      -0.61038812
C        8.61462298       6.34134847       7.44174156       0.96013014       1.90195145       0.89878207
C       -4.94354493       8.58869980       7.55220111       2.45642399      -3.49417162      -0.71038835
C       -2.41210756       8.51367918       7.55930614      -3.09518629       0.88673569       0.35324438
C       -0.00516430       8.50127685       7.65440860       1.22459510       1.67056399      -0.55998241
C        2.48401574       8.50613700       7.43551739      -1.49296196      -1.26053243       0.68218643
C        4.86125157       8.53692713       7.32480803       2.20408641      -1.55452908      -0.11018283
C        7.35122474       8.47817990       7.39808168       1.29959520       1.23680938      -0.16989181
C       -6.11847806      10.69445724       7.50238495      -2.88708171      -1.26217948      -0.70063538
C       -3.79481113      10.65132224       7.55568037       2.81999263       0.20275617       0.81882411
C       -1.34382795      10.75021453       7.66409100       3.09781190      -3.42904840       0.59422951
C        1.18123927      10.61799248       7.71449960       1.12266937       1.97494430       0.50523566
C        3.62523102      10.68388743       7.46557335       1.43940614      -1.65741743       0.02718736
C        6.15397306      10.63195508       7.27457573      -1.99374035       0.93854393       1.34096194
C        1.26222399       0.67577053       7.44145841      -2.08343894       1.31449449      -0.29318007
C        3.75575765       0.70980409       7.39347338      -0.31792796       1.87441494      -0.02636306
C        6.17897729       0.68255306       7.57122926      -0.21440532       2.20452993      -1.64227569
C        8.61949583       0.72752711       7.65021422      -0.83210334      -0.65132548      -0.63511647
C       11.05357375       0.77881053       7.51372133      -0.80111255      -2.16313697       0.31805395
C       13.44139843       0.65102258       7.45036832       4.14624400       1.68972128      -0.05953646
C        0.01409455       2.81959801       7.45305831       0.63352059       0.32109042      -0.85245645
C        2.50727578       2.89699268       7.39090377      -2.16205890      -2.63685115      -0.58602666
C        4.97024538       2.87809724       7.57435190      -0.37934262      -2.90422454      -1.14998117
C        7.43231390       2.75573169       7.52899875      -1.71787975       3.48212137       0.05439580
C        9.85075676       2.81988208       7.54375199       0.32524738       2.82487876       0.06081147
C       12.34235064       2.85082304       7.63182802       0.75861222       0.57065763      -0.81750025
C       -1.23829177       4.99876458       7.55239000       2.23371452      -0.89786136      -1.51981790
C        1.23691856       5.00583187       7.34845107      -0.41920911      -1.17431563      -0.31096464
C        3.67857285       4.93869989       7.57070188       1.98474817       0.55404136      -0.56239616
C        6.17225232       4.98472615       7.53343102       1.11915493      -3.80201649       0.70969364
C        8.62530460       4.93565539       7.57339783      -0.88258978       0.55627899      -1.08697243
C       11.02708322       4.98086935       7.47756526       2.08186337      -0.10304313       0.68399700
C       -2.45573631       7.12028506       7.49138541      -0.10385868      -1.53693245       0.49256886
C        0.01464271       7.12108793       7.45188252      -1.14620833      -0.34803327       0.08610316
C        2.44912682       7.00063810       7.37149641       1.66733957       4.20026494       0.47712656
C        4.95665120       7.07678406       7.40933249      -1.21822236       0.58221268       0.65765348
C        7.39755585       7.05237714       7.47174592       0.89472307       1.47230520      -0.36972335
C        9.83974481       7.13004849       7.46797474      -1.40042101      -0.58518591       0.47000280
C       -3.68697284       9.25201356       7.62482141      -0.59706723      -0.42859647      -0.75435447
C       -1.23984664       9.22263135       7.62939563       1.20467882       2.74512339       0.47844553
C        1.28113618       9.22357156       7.70693819      -2.64513422      -1.49652165      -1.23276966
C        3.65305352       9.25287942       7.35580353       0.34936227      -0.34839271       0.38180651
C        6.11776345       9.22149342       7.31994870       0.61909619      -0.69473496      -0.11036666
C        8.63507204       9.23017903       7.40687391      -3.18933931       2.02149129       0.92880279
C       -4.93802155      11.42106060       7.47964301      -0.48803549      -1.66442034       0.48270688
C       -2.59246694      11.37424584       7.68483165       3.44201653       0.86574391      -2.02177643
C       -0.01412685      11.45486795       7.67337046      -1.88619265      -5.51066058      -0.05371780
C        2.43100954      11.32350293       7.73510143      -1.27948866       2.48280197      -1.42350129
C        4.86169173      11.36347017       7.35076034       1.26920348      -0.53863146      -0.37251068
C        7.35051407      11.36535302       7.49602958       0.92993870      -1.73611633      -1.22610253
72
Lattice="14.76 0.0 0.0 -7.38 12.782534959858314 0.0 0.0 0.0 15.0" Properties=species:S:1:pos:R:3:REF_forces:R:3 REF_energy=-11164.847298167175 config_type=fd_force_conv_snapshot_004 split=train degauss_Ry=0.0038001738 kgrid=8 lattice_temperature_K=600.0 pbc="T T T"
C        0.07044757       0.00710075       7.37167524      -3.24114781      -1.40361458       0.28614296
C        2.46654696      -0.01098273       7.36946961       1.29131959      -0.16841677       1.87995412
C        4.94034245       0.01215052       7.60195172      -0.27958356       0.31352572       0.54450283
C        7.44965496       0.09982779       7.46698806      -2.50944811      -4.33967144       1.84092658
C        9.88275052       0.00557688       7.46701991      -1.77040662      -0.19904272       0.38419686
C       12.29056893      -0.07450018       7.25859320       0.39333996       3.88379582       1.04450886
C       -1.25446165       2.11293886       7.23302059       1.61514155      -0.84904923       1.24176364
C        1.23755299       2.12840923       7.30233270      -0.92074084      -0.09107182       0.31470406
C        3.68768351       2.15637669       7.33510179       0.31151049      -1.32880988       1.11552839
C        6.17614210       2.17599708       7.48933261      -1.86716520      -1.63279449      -0.15753252
C        8.59257943       2.16093956       7.42504263       0.69928170       1.28069605       0.56077740
C       11.07422874       2.16251134       7.43260455      -1.90566155      -0.71128258      -1.33594675
C       -2.44185577       4.21025500       7.51506529      -1.54093823       1.03926921       0.36025758
C       -0.03668630       4.29414887       7.48061878       1.62261215      -1.34738121       0.42898548
C        2.40595996       4.24508923       7.38301268       2.64119400       0.79722659      -0.42939711
C        4.88894328       4.30836588       7.21996182       0.31352006      -2.89391236       0.39228144
C        7.34733679       4.28851499       7.34628542       0.74095979       1.64254694       0.56027192
C        9.81774051       4.24949368       7.47281722       0.44984741       1.27572148       0.10717669
C       -3.74925767       6.38575442       7.65057772       0.42436083      -1.05816785       0.28094573
C       -1.26949253       6.37389898       7.74575964      -0.56102448      -0.41888284       0.35954152
C        1.17494897       6.36534019       7.54068904       3.13845410       1.02686903      -0.04189844
C        3.65646087       6.32803524       7.47685459       0.88311172       4.60745440      -0.83335676
C        6.08486989       6.44193730       7.36273465       2.29355026      -2.27207769       0.36375968
C        8.56750935       6.44549114       7.70858195       0.20691493      -1.34457434      -1.82841225
C       -4.88063890       8.61106331       7.67145621      -3.25680378      -3.58661949      -1.29364413
C       -2.48069557       8.53742813       7.76728130       1.84400933      -1.18130955      -0.07161319
C        0.00042921       8.45893996       7.65265455      -0.08010812       1.18762006       0.22828465
C        2.39758907       8.47312522       7.55264411       3.20411699       0.55199117      -0.58707773
C        4.95796373       8.51830825       7.55978145      -2.44121746      -0.12710403       0.17374050
C        7.36145122       8.50521019       7.59377590       0.87244369       0.80732331      -0.62646934
C       -6.16335497      10.62291310       7.48267949       2.69300045       0.72468677       0.07295865
C       -3.70205423      10.65079849       7.71492946       2.42715507       1.83463997      -1.08472580
C       -1.16636165      10.64847737       7.60786180      -1.61946049      -0.03765458       1.02414881
C        1.29647411      10.63318524       7.56487618      -2.32902480      -0.67362954      -0.13884343
C        3.74820410      10.59553667       7.47393213      -0.14601063      -0.00022600       0.78497116
C        6.23401710      10.67262653       7.54143669      -1.49271025      -1.28879786      -0.28244802
C        1.25299791       0.69909871       7.35111542       0.36181309       1.16472284      -0.66930880
C        3.67984458       0.74436208       7.58113620       0.51587591      -1.12030447      -2.04406558
C        6.17309092       0.71970222       7.58050059       0.80275729       1.55302010      -0.87858812
C        8.64427403       0.79439200       7.53489782       0.67515806      -3.05464642      -0.97650241
C       11.03113269       0.76753268       7.35618067       2.67023179      -3.35130519      -0.05045404
C       13.51876159       0.66179701       7.30084565       1.27853530       0.73899804      -0.69544150
C       -0.00333655       2.85680536       7.35332824      -0.75556726      -0.42722890      -0.53685791
C        2.44304948       2.82784620       7.31502584       0.14124972       1.17183889      -0.09132147
C        4.92479132       2.82847440       7.33040110      -0.04901628       2.31568360      -0.04377123
C        7.37074110       2.88424687       7.47884361       0.35806905       0.23788284      -1.02491114
C        9.80598129       2.84850796       7.36504328       1.24300394       0.44280798       0.95657585
C       12.29990617       2.80371778       7.36115091       0.41246897       1.37116006       0.13751288
C       -1.26449530       4.95682669       7.66448944       0.68896129      -0.00991289      -1.03213517
C        1.24840026       5.00001602       7.48993908      -2.96034118      -2.62302016      -0.15340487
C        3.68323521       4.99068444       7.33917005      -2.19881179      -3.06389622       0.00275494
C        6.08072817       4.99910180       7.21856398       2.50570381       0.68373269       0.91995794
C        8.62640858       5.03004249       7.52439262      -2.18585601      -1.44612366      -0.32384278
C       11.07249014       4.91983045       7.56851222      -0.62695991       1.31422041      -0.05231989
C       -2.51661960       7.07227736       7.76172475       0.81598870       1.77366600      -0.26690725
C       -0.01623059       7.02731047       7.73414675      -1.21966218       2.14832973      -0.79223119
C        2.45186550       7.07467720       7.43865075      -1.99304281      -0.76824562       1.39378885
C        4.90882150       7.11295185       7.46788938      -1.69353500      -0.20846710      -0.01435627
C        7.33099548       7.10809966       7.56406013      -0.10417647      -0.01469205       0.13092289
C        9.78434044       7.13549710       7.64204806       1.93388944       1.12471185       0.97108175
C       -3.67423897       9.26083309       7.67251869       0.39727452       0.00679363       0.91276065
C       -1.18824194       9.22188348       7.74016718      -1.63105771      -0.90302182      -0.59605319
C        1.21905210       9.20892863       7.51430785      -0.36345937      -0.59845948       0.99490894
C        3.67800372       9.17364852       7.58617913       0.66914117       0.91007333      -0.60343817
C        6.16765622       9.23211390       7.57720929       0.20439216       0.84669641      -0.04633179
C        8.59515078       9.24187877       7.48421185       0.96042607      -1.15435359       1.72927411
C       -4.90069139      11.33451633       7.51177470      -0.93301811       0.98267486      -0.03894861
C       -2.41476854      11.38315483       7.68699147      -1.14678657      -0.91057984      -0.43347642
C        0.03185450      11.33154639       7.58227409       2.33690060       3.34515511      -0.80793574
C        2.51899073      11.29078598       7.54182706       0.49588892       3.16577078      -0.80319849
C        5.00529054      11.35000727       7.42475762      -2.26661410      -1.83167626      -0.01548498
C        7.44722816      11.34774293       7.51632271      -1.44421796       2.16871832      -0.79721553
72
Lattice="14.76 0.0 0.0 -7.38 12.782534959858314 0.0 0.0 0.0 15.0" Properties=species:S:1:pos:R:3:REF_forces:R:3 REF_energy=-11163.990871561635 config_type=fd_force_conv_snapshot_008 split=train degauss_Ry=0.0038001738 kgrid=8 lattice_temperature_K=600.0 pbc="T T T"
C        0.01104981       0.03187359       7.49215288       1.34730922       0.74309124       0.94501797
C        2.50632299      -0.00278526       7.41751180      -0.46670022      -0.84503265       1.84754511
C        4.90786850       0.00149016       7.52536554       2.75958842       0.95598526       0.19408204
C        7.42958590      -0.03180445       7.33762086      -0.90722352       1.95643004       1.27679955
C        9.89355261       0.01087009       7.35740389      -1.85908088      -1.74083507       0.55225059
C       12.33304747       0.01396074       7.39186841       0.11104980      -0.73693370       0.25888181
C       -1.30657627       2.18711628       7.52664050       2.03299441      -1.56105171      -0.44634479
C        1.20715701       2.08116595       7.40274601      -0.72843775       3.62968778       2.02978516
C        3.67103302       2.17091243       7.45306425       0.81854823       0.27038055       0.21047462
C        6.16925337       2.07640767       7.33432866      -0.47829332       2.89683288       2.27614081
C        8.58668739       2.09437413       7.46824423      -0.60823816       2.97962626      -0.21507047
C       10.95691547       2.06937908       7.39710344       3.63608700       3.04603425       0.20798862
C       -2.47003955       4.19634706       7.41311870      -3.82108430       3.18107630       0.63363449
C       -0.09570425       4.28910075       7.52151229       1.31635880      -0.86844203       0.26409369
C        2.35822652       4.25461749       7.61335085       0.14191898       0.15303052      -1.95535584
C        4.85639242       4.29136490       7.46388919       1.39465377      -1.09690434      -0.37049905
C        7.34241168       4.25877354       7.45014279       0.05807916       0.51225759       0.36307062
C        9.83835870       4.20834978       7.51912004      -1.95710650       2.10556071      -0.71485564
C       -3.73420412       6.40312049       7.53610360       0.57925874      -1.03700638       0.44652040
C       -1.30315833       6.36397597       7.45313822       1.44175664       0.13010142       1.75525125
C        1.29578742       6.38394855       7.57620065      -5.16673670      -1.18196338      -0.56281345
C        3.64764281       6.41322861       7.57423278      -1.15433173      -1.74415462      -0.87051048
C        6.06165026       6.44492362       7.44791080       3.46815874      -2.79155829       0.31856714
C        8.62708062       6.39168117       7.73629739      -2.03623426      -0.89841595      -2.28910200
C       -4.88165431       8.55304610       7.69630906      -0.28371429       0.86735188      -1.56484923
C       -2.43469390       8.52725279       7.75612742       0.16405001      -0.58295959      -0.87511996
C        0.04197051       8.40636923       7.59413376      -2.62064472       3.91147786      -0.11295807
C        2.44416954       8.54843074       7.45904720      -0.65908610      -0.52863347       0.34934967
C        4.96363254       8.49655519       7.43623045      -1.34116197       2.08042278       0.50299340
C        7.46433268       8.54593208       7.52360886      -2.15768546      -0.79626268      -0.60452883
C       -6.11624590      10.65836038       7.52868206       0.65022659       1.73015574      -0.06079759
C       -3.57541041      10.65033128       7.68272499      -2.52931759       0.15529437      -0.70283110
C       -1.16399685      10.59925155       7.55548161      -0.11340519       2.60794604       0.07640779
C        1.27538431      10.65645633       7.36325242      -1.51335261      -0.43603801       0.71974845
C        3.77756322      10.64739303       7.39970050      -2.30295484      -1.24343023      -0.19952558
C        6.22527788      10.75079688       7.48633657      -0.04854140      -4.68346033       0.03577561
C        1.28479973       0.72414419       7.59372965      -1.66372177      -2.02406394      -2.46407354
C        3.70301347       0.75727277       7.47601161      -0.22821497      -1.47467319      -0.37194350
C        6.18889451       0.69726898       7.49975802      -0.85468740      -1.49956249      -1.64098602
C        8.65198006       0.73760786       7.38265085      -0.53850496      -3.33106598      -0.38107760
C       11.08502677       0.69473365       7.45894301       0.28565907      -0.37162442      -1.05054890
C       13.54050133       0.74388345       7.40762164      -0.44331938       0.25575997       0.86346360
C       -0.04409944       2.88090678       7.58342154      -0.40431986      -1.92218269      -1.34718658
C        2.39046740       2.85001308       7.45885736       1.57142431      -0.50381769       0.21632516
C        4.96121406       2.85731876       7.46833845      -2.72267741      -0.56517450      -0.80324117
C        7.35597093       2.84154899       7.51565704       0.37960230      -1.19594504      -1.66034335
C        9.78368233       2.82706816       7.38215402       0.39310650      -1.56665209       0.94496886
C       12.22229602       2.85383949       7.44562682      -0.55573238      -3.60041243      -0.03785589
C       -1.32684932       4.93275162       7.52267869       1.50689220       1.89107106      -1.09169066
C        1.12292605       4.98041908       7.48712214       3.12008896      -0.05608990       1.41109315
C        3.59418990       4.96234915       7.50721022       0.90124288       0.88554938       1.07565315
C        6.11011355       4.98615631       7.38011474      -0.87926817       1.12941748       0.92167286
C        8.58010545       4.95868128       7.55037588       1.34983919       0.09714502       0.70153424
C       11.03031315       4.93379406       7.45995320       1.00846096       1.23739713       0.16932334
C       -2.49834427       7.11696185       7.60212411       0.60706188      -0.86570997      -0.46145131
C        0.00551645       7.02491587       7.59659583      -0.39322966       0.01790979      -0.73272738
C        2.43731777       7.12041181       7.52917930       1.56200045       0.86440128       0.34783760
C        4.83888319       7.09934447       7.50548729       2.57410518       0.92950959      -0.41331795
C        7.37966258       7.07686781       7.54759128      -0.48448377       2.05867099       0.50485719
C        9.82361228       7.13961188       7.63439740       0.59474064      -0.79877850       0.82194980
C       -3.62961612       9.24418816       7.72003817      -0.64469820      -0.23858423       0.48383971
C       -1.20459171       9.21078307       7.62913028       1.07617919      -1.94639888       0.38217083
C        1.17368993       9.24365219       7.50252335       3.35833330      -1.32493471      -0.53696204
C        3.69043029       9.19574037       7.41057261       1.86316508       1.88993746       0.15347146
C        6.21551914       9.25957514       7.49008315      -0.28851094      -0.15430810      -0.30700926
C        8.66630996       9.29600008       7.43514730       0.09681258      -3.16014547       2.32020309
C       -4.86405643      11.29736940       7.52948488       1.20476546       3.25171813       0.16648227
C       -2.37078312      11.38153178       7.63544268      -1.07843662      -1.10790404      -0.38632676
C        0.03699859      11.36956857       7.39918324       0.67986858      -1.66082106      -0.07723594
C        2.50358235      11.34198889       7.37990408       1.26769655       0.87678552      -0.45338216
C        4.99741066      11.34157711       7.39448545      -1.47965084       2.94078743       0.19202798
C        7.43323995      11.41870840       7.58770060       0.09170379      -0.09687223      -1.17873047
72
Lattice="14.76 0.0 0.0 -7.38 12.782534959858314 0.0 0.0 0.0 15.0" Properties=species:S:1:pos:R:3:REF_forces:R:3 REF_energy=-11164.270934389746 config_type=fd_force_conv_snapshot_013 split=train degauss_Ry=0.0038001738 kgrid=8 lattice_temperature_K=600.0 pbc="T T T"
C       -0.02242882      -0.05196471       7.61384152       1.81207083       5.48102167      -0.38107168
C        2.47669190       0.04696170       7.75680597      -0.34396475      -0.62083785      -1.08032021
C        4.99092139       0.04371976       7.55514833      -2.07177719      -1.83389358      -0.13919695
C        7.40333082      -0.01984764       7.56764054      -0.04499148       1.31300273      -0.39423856
C        9.82070022      -0.10133075       7.44467410       0.72385656       3.51426659       0.33549939
C       12.30883745      -0.03448981       7.41112799      -1.38443929      -0.62921065       0.22563847
C       -1.23870601       2.10284128       7.63874477      -1.04200692       0.18938360      -1.11065717
C        1.20580256       2.17164413       7.61585807       1.99151455      -0.88810480       1.12071996
C        3.66074561       2.13754598       7.82908116       1.48531190      -1.48629663      -1.79123461
C        6.17474900       2.21231185       7.66983562      -2.24105039      -2.33492985      -0.63351005
C        8.60732349       2.16971011       7.48882928      -0.87130161      -2.09844853      -0.01198545
C       11.08101590       2.10311857       7.46389954      -1.45424423       1.51111395       0.31953490
C       -2.46555133       4.27862989       7.59338304      -2.66352738      -1.02723336      -0.79494653
C       -0.06006473       4.22953649       7.65919544       1.36198174       1.72044288      -0.69554023
C        2.40240624       4.25905217       7.65577013       1.04351281       0.19965979       0.45707864
C        4.82349404       4.27521149       7.80566674       1.86778432       0.89803003      -1.23691916
C        7.36640238       4.31793774       7.48357070      -2.69019975       0.12476869       0.99161047
C        9.78498199       4.29942467       7.46971480      -0.02074469      -1.86237523      -0.20127418
C       -3.78619286       6.37358107       7.36091199       3.61639646       0.07693255      -0.27758787
C       -1.32171573       6.37508154       7.27174567       3.07393638      -0.00235205      -0.02011657
C        1.16112129       6.39577721       7.40733770       1.58085306      -1.11803598       0.58899165
C        3.66309086       6.42117251       7.59918263       0.07488929      -1.40400333       0.76152862
C        6.08452856       6.40995311       7.53003149       1.96911407      -0.39849554       0.71947257
C        8.59520666       6.44415528       7.32121843      -0.22407704      -1.18480342       1.34837083
C       -4.90881068       8.56947747       7.32190363       1.05217280      -1.83450370       0.68929399
C       -2.43178831       8.49861947       7.13091828      -0.89922533      -0.64452543      -0.09998326
C        0.02158402       8.52182045       7.15031621      -0.85322778      -1.75072379      -0.67590163
C        2.46270586       8.50377013       7.44588936       0.49745935      -1.17278814      -0.64022089
C        4.88686716       8.57678535       7.55517096       3.14986594      -2.43217077       0.09232369
C        7.34529275       8.48891076       7.53672992       3.20097973      -1.59411301       0.22432309
C       -6.04009167      10.65233953       7.67869710      -1.10456469      -0.06592617      -0.48805272
C       -3.64431291      10.69376596       7.30858503      -0.01409247      -0.99847223       1.44235545
C       -1.18405327      10.69443701       7.37681542       0.53074126      -3.07431639      -1.04794154
C        1.29410048      10.57117392       7.34537509      -0.02930055       2.09254064       0.08512717
C        3.76021489      10.59410918       7.51313027       1.47931454       2.48810538      -1.24594476
C        6.30773101      10.58516566       7.53701123      -2.37267879       3.14035800      -0.23858809
C        1.25107587       0.78717973       7.69599319      -1.86462186      -3.13715878      -0.06033222
C        3.70021272       0.67625584       7.63798197       1.49887652       3.15355316       1.34253648
C        6.19469802       0.73764892       7.55797656      -0.31863502       1.02448254       0.91065183
C        8.59212042       0.69442830       7.51589318       1.75037875       0.23682251      -0.21689621
C       11.02390719       0.70951278       7.45796755       1.52606851      -2.96925186      -0.47246720
C       13.48006984       0.69042094       7.46257626       2.47714811      -0.43528725       1.20296235
C       -0.02380992       2.80862320       7.67230887      -0.80121385       1.72741623      -0.13362820
C        2.47763933       2.84621485       7.71411645      -2.67626179       0.35675959       0.05021724
C        4.87311395       2.86645297       7.73652119       1.32713275      -0.22158436       0.96094544
C        7.35362785       2.89774435       7.52531176       1.93310602       0.42495527       0.26421145
C        9.82295868       2.83244219       7.46504590       0.57211313       1.43367026       0.08131628
C       12.29530504       2.84704803       7.54766444       0.38755344      -0.62423402       0.63369337
C       -1.28218117       4.97951191       7.52376422       1.37732351      -0.43320260       0.21455290
C        1.22213196       4.98003782       7.60562028      -3.75891477      -0.78107312      -0.56498475
C        3.59289672       4.97705897       7.68490034       2.44365332       1.22630179       0.27450229
C        6.09109011       5.02572317       7.67212319      -0.36269138      -2.37761196      -0.82818447
C        8.54899952       5.03304772       7.41947645       2.26556020      -0.63058799      -0.46092706
C       11.00727310       4.96321962       7.48295824       0.97826567       0.35921165      -0.01155608
C       -2.50800868       7.05539539       7.20418074      -1.17087087       1.22356100       0.24869921
C       -0.03288082       7.09192498       7.16520866      -1.07683328      -0.16637969       1.04026397
C        2.42210460       7.06278200       7.55034642       0.01780000       2.41773634      -1.10555765
C        4.92461627       7.14772375       7.61179253      -2.92523251       0.31179665      -0.45119030
C        7.35320897       7.05108375       7.46594441      -0.47404560       2.89783741      -0.47932588
C        9.84625560       7.13000136       7.36177171      -2.43474959       0.84777550      -0.81811320
C       -3.63162256       9.22833178       7.21621703      -2.00951150       1.99093553       0.26471590
C       -1.21623344       9.18978563       7.11992988       1.02438355       3.06650460       1.10023958
C        1.27005310       9.17104982       7.19911365      -0.69120458       1.27781539       1.23540453
C        3.69999924       9.24264265       7.47467460      -1.23746244      -2.12526307       0.66834541
C        6.19833750       9.20701739       7.56309931      -2.25801633       0.44974893       0.08066425
C        8.62291450       9.18555051       7.58447555       0.18701099       2.47739391      -0.84506762
C       -4.85009081      11.42216904       7.64469406      -0.17991886      -2.54649770      -0.87684439
C       -2.40963539      11.35249399       7.41781132       0.48315374       2.46793508      -0.10221292
C        0.08101365      11.37028929       7.47903349      -0.96411483      -2.28259016      -0.76116635
C        2.55739877      11.27648600       7.41022452      -2.76043328       0.77893396       0.34216189
C        5.04239455      11.29265063       7.44466192      -1.26230058       0.76717965       0.57337272
C        7.50291526      11.40106487       7.59485975      -1.20883783      -4.48067074       0.50235988
72
Lattice="14.76 0.0 0.0 -7.38 12.782534959858314 0.0 0.0 0.0 15.0" Properties=species:S:1:pos:R:3:REF_forces:R:3 REF_energy=-11163.665943964375 config_type=fd_force_conv_snapshot_017 split=train degauss_Ry=0.0038001738 kgrid=8 lattice_temperature_K=600.0 pbc="T T T"
C        0.00645319       0.05420978       7.59639532      -0.25912580      -3.49341906       0.63139480
C        2.48852239      -0.01680036       7.65008188      -1.15504830       0.59066879       0.21825992
C        4.87409685       0.01568223       7.52451758       0.98705370       0.22185766       0.34695777
C        7.38589524       0.04083743       7.50461519      -1.23153347       0.03781193       0.31711961
C        9.83732653      -0.04511823       7.63525081       0.59748761       1.68561523       0.03657728
C       12.29605375       0.02258122       7.68964109       0.96826074      -0.24950654      -0.87835569
C       -1.23988508       2.15529396       7.67200190      -1.26946085      -2.14075449       0.60604527
C        1.19821276       2.13451343       7.80370720      -1.83283840      -2.02915087      -0.74011776
C        3.61431915       2.13888695       7.88082889       0.70943884       0.57692110      -1.19203490
C        6.09207324       2.15085838       7.74561224       0.00989720      -0.88018657      -1.09428310
C        8.52593055       2.13394688       7.58076931       3.90165599      -0.25825189       0.71059455
C       10.97997849       2.10360733       7.65023994       3.82821783       0.27124367      -0.89643003
C       -2.40598201       4.25526212       7.36519777      -1.51152712      -2.23806303       0.13003457
C       -0.01801139       4.25634773       7.53599402       1.53769941      -0.96236931       0.76273832
C        2.41699911       4.26756640       7.72329935       1.20322691      -1.28800878      -0.40323922
C        4.94213093       4.27105699       7.78456010      -1.84154210       0.14399463       0.04108314
C        7.40944566       4.29543428       7.60038258       2.21227538      -1.39851994      -0.00466630
C        9.88177047       4.25690025       7.39272994       2.33773364      -1.65281927      -0.39797489
C       -3.73003989       6.36067998       7.21035831       2.02040115      -0.25535477      -0.16847051
C       -1.20766989       6.36883260       7.29664988      -2.95931686      -1.66570744       0.34296794
C        1.29214586       6.37856018       7.54247310      -1.95329870       0.48351806      -0.61735735
C        3.67371759       6.41833675       7.51472783       1.72455125      -1.20969350       1.07837800
C        6.22294103       6.40122466       7.42239967      -3.83400024      -2.00997275       1.35541668
C        8.68766988       6.38257690       7.26418131      -1.79423226      -0.30222701       0.72967548
C       -4.87684282       8.50688801       7.18015822      -1.66097635       1.89731190       0.74726594
C       -2.36020402       8.48791718       7.29858871      -3.59535867       2.35605995      -0.13828113
C        0.01053220       8.42578275       7.38882970       0.29078868       2.38055973      -0.33438251
C        2.44556077       8.57926391       7.46212082       0.38975867      -1.43805425      -1.02564673
C        4.92562165       8.57749961       7.36314779      -2.14369814      -2.32769400      -0.08535600
C        7.37421841       8.42414275       7.26983341       0.10680260       4.76829465       0.32864972
C       -6.19500558      10.69110697       7.42539659       2.41153793      -3.18635298      -0.83425793
C       -3.73498697      10.63151916       7.30600962       2.77561668       3.25013999       0.17041992
C       -1.19577726      10.65952955       7.46716630      -1.04651715       0.66563675      -1.28647769
C        1.21567571      10.66208196       7.47231190      -0.97476846      -0.84225946      -0.65889481
C        3.72322256      10.69827054       7.45216296      -1.20204138      -0.50264681      -0.29821017
C        6.14817349      10.67386995       7.42015908       1.59506175      -0.29355133      -0.19153356
C        1.24811659       0.64884688       7.71972067      -0.29868248       3.62632375       0.16526537
C        3.67061429       0.74962340       7.82550753       0.03427949      -2.17862735      -1.66867141
C        6.08324276       0.70133826       7.47088004       2.50966177       2.75843142       1.90428499
C        8.65635557       0.68966677       7.68026907      -3.33641927       1.76751207      -1.38044174
C       11.05775815       0.68052913       7.64757867      -0.81529450       0.83500406       0.73787935
C       13.53068153       0.69001779       7.70806378      -0.06170288       2.76336023      -0.29328831
C       -0.06005191       2.86205838       7.75461244       2.42412296      -0.58345324      -0.87226063
C        2.36721128       2.80667441       7.66664033       2.78148316       2.38558444       2.31496267
C        4.85806588       2.85717950       7.81970454       0.75014660      -0.19628213       0.40106741
C        7.34238828       2.86943025       7.67393248      -0.43488256      -0.53357204      -0.21259886
C        9.83185763       2.84698953       7.51985411      -2.82052639      -0.78748082       0.36156061
C       12.29355242       2.81698098       7.56435651      -1.43273412       0.85183836       0.01070093
C       -1.18840123       4.91694188       7.35277864      -1.47055994       2.94138804      -0.15661515
C        1.21392781       4.95281702       7.60507725       0.88812074       1.48659745      -0.05360956
C        3.66522843       4.98391875       7.75898910       0.56283479       0.23559892      -1.03067170
C        6.19302554       4.92656822       7.66778934      -0.71805846       3.65940305      -1.05321770
C        8.75324601       4.97894216       7.40522214      -5.75471586       0.67825907       0.26485782
C       11.12365650       4.92321973       7.23779206      -0.90432820       1.71377730       0.66887017
C       -2.52471774       7.08803069       7.28107232       4.07952131      -0.60384055      -0.44405111
C       -0.02048215       7.02692103       7.40972685       2.83990171       0.96243770       0.09376942
C        2.51405218       7.16661496       7.49587549      -2.81391172      -1.74955754       0.28567784
C        4.90739845       7.10372849       7.44178645       2.66846595       0.96335147      -0.45244165
C        7.42521052       7.07047521       7.36441098       0.36176501      -1.65824095      -0.94230699
C        9.84845281       7.10976048       7.18942316       0.99142792      -0.50541872      -0.21164884
C       -3.67080856       9.27879294       7.24076394       1.10344806      -3.71252358      -0.05326554
C       -1.14506882       9.22877337       7.37388002      -1.83469319      -1.34239044       0.11112308
C        1.20335850       9.17417706       7.33008682       0.19204032       2.91490979       1.66951010
C        3.64000362       9.27829006       7.38933776       3.24946251       0.92543130       0.35571726
C        6.13767469       9.23645194       7.28851077       1.16688591      -0.04001536       0.58012006
C        8.58487126       9.17517060       7.29936376       1.30498346       1.83973358      -0.43028311
C       -4.94004640      11.38034536       7.39084209       0.33700915      -1.09649631       0.60548374
C       -2.39854465      11.40595207       7.35641073      -3.91372655      -2.53666195       0.79974807
C       -0.04112323      11.43627267       7.47748823       3.12440816      -2.47738105       0.18959983
C        2.44654857      11.36137393       7.51244821       0.53366280      -1.37019744       0.11610279
C        4.96997234      11.42126348       7.48004127      -2.10157653      -1.83257358       0.51017629
C        7.39849131      11.37783541       7.50725904      -2.53399983       1.19070024      -0.19871439
72
Lattice="14.76 0.0 0.0 -7.38 12.782534959858314 0.0 0.0 0.0 15.0" Properties=species:S:1:pos:R:3:REF_forces:R:3 REF_energy=-11163.225696154977 config_type=fd_force_conv_snapshot_021 split=train degauss_Ry=0.0038001738 kgrid=8 lattice_temperature_K=600.0 pbc="T T T"
C       -0.02853583       0.03963612       7.53880644      -0.01150774       0.17578324       0.04017940
C        2.44923550       0.05976123       7.57679540      -1.24704648      -3.34077215       0.09281040
C        4.83108333       0.03957138       7.80681405       0.81643735      -1.87489856      -1.75324707
C        7.31351136      -0.02198442       7.63795152       1.82257944       1.57303280      -0.01210347
C        9.80143884       0.02636562       7.57778326       0.55801629      -2.17035740      -0.17585806
C       12.19918990      -0.03549117       7.49745815       3.13496254       0.89479764       0.82597666
C       -1.17943573       2.13515805       7.69300615      -1.93337316       0.05244125      -1.01171624
C        1.29028645       2.10218161       7.53762819      -1.14029788       1.48159023       0.91332655
C        3.75192795       2.19684390       7.65385098      -1.17173630      -0.83508145      -0.83512670
C        6.16220717       2.03385631       7.40565857       0.35016162       1.51900055       1.57985625
C        8.62196811       2.13325693       7.62492895      -4.70175193      -1.34591671      -1.06852476
C       10.99750264       2.16784961       7.59221303       3.48518073      -1.44878681      -0.36094637
C       -2.40929446       4.31155323       7.40481259       0.86730920      -3.02774008       1.89210593
C       -0.00308939       4.23582825       7.65251367       0.60823379       0.09823825      -0.63157015
C        2.42832586       4.24916652       7.50027402       0.69742742       0.08418589      -0.56412369
C        4.96617181       4.26510156       7.32554812      -1.28202994      -1.45304687       0.66570797
C        7.39343851       4.23690061       7.41095465      -2.16759166      -0.87064392      -0.23419562
C        9.86776053       4.22169142       7.50777812      -1.97307562       0.45206730      -0.19996266
C       -3.68119878       6.30894355       7.41135466       1.72886324       0.86575523       0.36742093
C       -1.18293411       6.44914710       7.37787252       2.23937377      -1.97100486       1.45596147
C        1.37004088       6.43546171       7.51812593      -3.85148580      -1.55554004      -0.50163765
C        3.73953292       6.37265022       7.41731627       0.77065706       2.38421764      -0.24393084
C        6.17524881       6.39039826       7.21289057       1.22817716       1.28395827       1.85164962
C        8.62770011       6.34618424       7.45992131       1.30571931      -0.53695304      -0.49514639
C       -4.89124982       8.47369540       7.39226474      -1.24489653       0.09877716      -0.05803160
C       -2.48533874       8.49226778       7.42796491       0.83274689       0.17609203      -0.75062894
C        0.00250387       8.54104627       7.44453387       1.24103113       2.38915082      -0.26383889
C        2.43016092       8.56770752       7.48939056       1.14791117       1.63128165      -0.25503132
C        4.95190818       8.50490000       7.44090509       0.30759393       2.85924875       0.48311568
C        7.45027059       8.48290391       7.46093161      -1.05916852       3.24791702      -0.36685888
C       -6.14371458      10.62687691       7.39437793      -3.18744904       3.19916993       1.02651911
C       -3.71937931      10.66184307       7.44325796      -1.50156178      -2.35637337       0.56281577
C       -1.23578834      10.64808635       7.55940885      -2.64243868      -0.19251032      -0.67205731
C        1.18102687      10.74068680       7.49980965      -0.24197397      -0.99054192      -0.20129655
C        3.58330297      10.60098338       7.56843605       2.81588298       0.92848474      -0.59977126
C        6.09381228      10.70440252       7.53303157       0.61104503      -1.96412381      -0.36084482
C        1.23709651       0.70538715       7.55590251      -1.00282408       0.82130265      -0.21729987
C        3.61058644       0.79860002       7.65858065       3.42410777      -1.64673964       0.87824487
C        6.11299433       0.66105131       7.67750452      -1.29436352       0.45345389      -0.21472799
C        8.59523848       0.69560320       7.62117565      -1.57936979       1.04763995       0.10738701
C       11.02912126       0.70711756       7.55334630      -0.86836721       1.99687555       0.21732429
C       13.50397180       0.71487127       7.58322075      -1.30465462       0.06730454       0.02142372
C        0.06399782       2.84218204       7.64840508      -1.03722724      -1.70313062      -0.05922202
C        2.49728399       2.83917734       7.56415615       0.31689798       0.71034258      -0.00380703
C        5.03446950       2.79625594       7.50865606      -3.91178716       2.75744926      -0.77011507
C        7.31413631       2.81848114       7.44523712       3.95693702      -0.66495387       0.37183551
C        9.76289930       2.84167627       7.54285134       3.71854331      -0.18514925       0.56807316
C       12.33033607       2.87069394       7.58253154      -0.98596767      -0.33690219      -0.16536924
C       -1.14905222       4.98590986       7.53533748      -3.28207901       1.85196381      -1.13132576
C        1.17770457       4.90684080       7.51770911       4.64443047       4.37844573       0.44901771
C        3.67440158       4.96397533       7.33788625       0.98537400      -0.35229744       0.90781642
C        6.15651822       4.98299702       7.31533989       1.06674890      -0.06845099      -0.61638033
C        8.60974355       4.88926670       7.47141249       1.51842411       2.90863681       0.01150286
C       11.09048577       4.88642093       7.46602584      -0.06887265       2.69623850      -0.74012136
C       -2.43551313       7.07591571       7.42311054      -0.64998336      -0.28388913      -0.55335154
C        0.11173140       7.16742370       7.45968921      -1.38908913      -2.22245514      -0.20719955
C        2.56204461       7.19062582       7.47875543      -1.98376627      -3.88102649       0.09517170
C        4.98989904       7.14434199       7.39942960      -1.24927434      -3.94127746      -1.13617640
C        7.44242214       7.10073833       7.37228400      -1.14384574      -1.74471332      -0.27611617
C        9.90709297       7.03873192       7.42536871      -2.93755812       0.11418423       0.19990893
C       -3.72543191       9.16488634       7.35051795       2.40022996       3.08486357       0.66450727
C       -1.24406462       9.21060546       7.40056181      -0.46356579       0.86705055       0.94821128
C        1.21267377       9.37061251       7.45682071      -0.47878440      -4.70166785       0.29778080
C        3.68356957       9.20782830       7.49434566      -0.30727820       0.35679404       0.22839366
C        6.19795078       9.23665553       7.48087079      -0.63577673      -0.06832809      -0.03171276
C        8.66979095       9.26973341       7.42813755      -1.38116499      -4.31363156      -0.15077720
C       -4.98172173      11.33023985       7.53287654       3.11644365       2.92960622      -0.81626175
C       -2.53666233      11.35121658       7.62490753       2.09660684       1.36590961       0.36373628
C       -0.06198125      11.40296982       7.53693686       0.47732942      -1.55609797       0.52518150
C        2.41138387      11.34876552       7.52325589       0.18109308       2.50864721       0.44915347
C        4.82624491      11.31949237       7.54332814      -0.10313852       1.30835238      -0.08176494
C        7.27904261      11.45840057       7.48695089       2.94364752      -4.01524938      -0.27393793
72
Lattice="14.76 0.0 0.0 -7.38 12.782534959858314 0.0 0.0 0.0 15.0" Properties=species:S:1:pos:R:3:REF_forces:R:3 REF_energy=-11164.34327898306 config_type=fd_force_conv_snapshot_025 split=train degauss_Ry=0.0038001738 kgrid=8 lattice_temperature_K=600.0 pbc="T T T"
C       -0.01000384      -0.01760894       7.55806883       0.63911557       0.22720736      -0.02672687
C        2.41768086      -0.01789365       7.41355783      -0.53506868       1.27091789       0.85733743
C        4.83022539       0.04805580       7.34237127       1.48321028       1.09089002       1.10725638
C        7.29462536      -0.04510242       7.59056178       1.31095974       0.20234505      -1.28666410
C        9.80613863       0.01903102       7.58614332      -1.14963638      -2.06668049      -0.53217953
C       12.30300306       0.03138824       7.43138426      -1.94739673      -1.54917861       0.21607731
C       -1.20397835       2.12744554       7.44247354       1.54485428      -1.07681194      -0.13816209
C        1.29726992       2.09977440       7.22802191      -2.03877476       1.42552835       0.21313211
C        3.72843908       2.14074672       7.23839397      -1.52822978       1.14864599       0.39893519
C        6.15437507       2.10886973       7.27073592       2.82720303      -0.44045440       0.54067857
C        8.64343319       2.14709775       7.46585757      -2.21953386      -2.45642836       0.18993999
C       11.02084748       2.10715068       7.50793876       3.29150673       1.06991727       0.08884524
C       -2.41697533       4.26497015       7.53791861       0.19518350      -0.57583121       0.87662354
C        0.05461465       4.26805405       7.34378997      -0.64379729       1.28510395       0.26183086
C        2.49321362       4.25845825       7.30231402      -0.78581500      -0.61964923      -0.75079683
C        5.00193445       4.21818099       7.38318552       0.25529332       1.75431459       0.34207062
C        7.47315152       4.25406319       7.43031198      -0.40620113      -0.39754783       0.30772942
C        9.91090583       4.29963418       7.55764555      -0.53220550      -1.78230877       1.12574826
C       -3.68261352       6.40782062       7.71640257       0.23678755       0.18415398      -0.02610852
C       -1.21807471       6.40366182       7.62585442       0.68525093       2.51171042      -0.42848308
C        1.22012456       6.42894741       7.32470883       1.18841865      -0.45101675       0.80685022
C        3.65186262       6.32409278       7.46085963       2.33684378       1.83525652      -0.34639059
C        6.17492423       6.40653148       7.40480795       0.62262554      -1.52058255       0.14635825
C        8.64363423       6.35841443       7.61628691      -2.92023377       2.33710809      -0.88212467
C       -4.93684954       8.50311228       7.70146619       0.10658200       0.43661703      -0.34909616
C       -2.53896754       8.54300491       7.67049822       2.94250184       0.00337354       0.67254891
C       -0.00347865       8.56121435       7.61516203       0.72733320      -2.26700414      -0.36318915
C        2.47266030       8.52210308       7.52325487       0.10122510       0.45956206       0.01038829
C        4.96974112       8.51791556       7.42074939      -1.18718503      -0.36813595       0.53095466
C        7.38110318       8.53228156       7.52533443       0.72407921      -1.53555974      -0.22899247
C       -6.16971933      10.57460613       7.70372695      -0.68325730       3.08466893      -0.59608636
C       -3.70600057      10.69034791       7.64876247       0.15204578       1.01217801      -1.08760389
C       -1.31093042      10.65734123       7.56384928       3.07461463       0.10813803      -0.22818772
C        1.16207375      10.64214364       7.63677383       3.39984941      -0.57389362       0.12184175
C        3.59593728      10.60914403       7.58163694       2.63603689       3.37794259       0.14831769
C        6.06992715      10.68225633       7.52490974       1.50318646      -1.27003086       1.35828860
C        1.21445994       0.72472139       7.42029821       0.29393340      -2.15477471      -0.22471005
C        3.58792926       0.78089329       7.42478349       2.71059271      -2.86357797      -1.65437350
C        6.11344552       0.69379821       7.38668173      -0.99127391       0.34052076      -0.22438583
C        8.51403448       0.66070700       7.56292221       3.04609904       2.28010905       0.02771212
C       11.01346089       0.74026230       7.35520274       1.20428030      -1.99314514       1.76760540
C       13.55836311       0.66952485       7.46661353      -1.60257426       2.16152129      -0.18024822
C        0.06536465       2.84141555       7.31044863      -1.29139570       0.27857620       0.30403089
C        2.48873239       2.83563884       7.14150024       0.75848263       0.58236027       1.10087747
C        4.99073840       2.82019985       7.29838311      -1.94958140       0.63186017      -0.40570388
C        7.41711282       2.82131894       7.30976901      -0.11020931       0.81701020       0.84448218
C        9.85657736       2.82891991       7.59520090      -0.36797320       2.18236805      -0.98582600
C       12.34278199       2.77499096       7.56768924      -1.82798776       2.97473216      -1.00461948
C       -1.22007585       5.04616114       7.53585284       1.38648692      -4.75380288      -0.75250970
C        1.28743773       5.02293174       7.29234396      -1.44267041      -1.96861553       0.04444563
C        3.71397842       4.90417320       7.43144952       1.44428969       1.19188475      -0.49241485
C        6.28284023       4.97261514       7.47616224      -3.54845609      -0.63978483      -1.04536247
C        8.68822624       4.98316118       7.61274027      -0.48415852      -1.58849798      -1.03247481
C       11.12895347       5.00327845       7.63099539      -0.41978684      -0.97711305      -0.29491222
C       -2.44255904       7.12411346       7.73693714      -1.81540786       0.29541024      -0.47064352
C        0.02923635       7.11626604       7.47979331      -2.21651872       1.03228763       0.70756013
C        2.44823108       7.10857055       7.43818823       1.03902187      -0.47107212      -0.19120060
C        4.95064802       7.05993757       7.39941948      -2.53541342       1.20939833       0.38822758
C        7.36346406       7.12509115       7.39432678       2.20483897      -0.95964986       1.60504663
C        9.79659292       7.09051130       7.68906662       3.45088864       0.23175127       0.28143064
C       -3.75708824       9.29565916       7.67918137       1.75092717      -2.30291319       0.35155619
C       -1.22946642       9.21574313       7.68066916      -3.49573665       1.76823146      -0.66037833
C        1.23552295       9.23648497       7.59905882      -0.32759917      -0.32997615      -0.08483021
C        3.70315351       9.26677892       7.51562622      -0.09687917      -4.18796915      -0.23795020
C        6.19776948       9.22854359       7.53042711      -3.07035843       1.24702386      -0.77864625
C        8.61670892       9.17225809       7.64344458      -0.71912238       1.85663422       0.39160549
C       -4.93510519      11.35389257       7.57587806      -1.44227729      -0.38771259       0.62629039
C       -2.46891352      11.46812762       7.47140502      -2.04851873      -4.15967442       0.92682972
C       -0.00470360      11.31153094       7.53098932      -4.46252183       1.63147448       0.89802077
C        2.41367463      11.33147199       7.68210900      -0.96579376       1.86086368      -0.77855035
C        4.84805658      11.36720264       7.53874798      -0.20116285       0.73610684      -0.58387105
C        7.29616544      11.36697229       7.69997095       2.73616413      -1.44631083      -1.23307125
72
Lattice="14.76 0.0 0.0 -7.38 12.782534959858314 0.0 0.0 0.0 15.0" Properties=species:S:1:pos:R:3:REF_forces:R:3 REF_energy=-11163.772488233104 config_type=fd_force_conv_snapshot_029 split=validation degauss_Ry=0.0038001738 kgrid=8 lattice_temperature_K=600.0 pbc="T T T"
C        0.02746141      -0.01689830       7.18270624      -0.77209637       0.73656012       0.84752970
C        2.36925217      -0.03887855       7.31038791       3.81009592       1.31831592      -0.25838970
C        4.93639355       0.02356546       7.41925497      -0.85359082      -1.60401099       0.21118861
C        7.45696161      -0.03441810       7.48114564      -1.49734286       1.41458214      -0.57539540
C        9.83976532      -0.01969182       7.63927964       2.87831065       0.25052444      -2.15089466
C       12.42875186      -0.05004098       7.29388646      -5.47537373       0.32546052       1.37124619
C       -1.18824722       2.16773155       7.36251917      -0.78902014      -0.85039443      -0.80126733
C        1.21964696       2.11050933       7.17190369      -0.16840546       2.59415953       0.60455891
C        3.56233371       2.06579796       7.20541426       4.84102550       0.75194534       1.75007202
C        6.17529827       2.14410082       7.33400110      -2.46544933      -0.23245395       0.89513317
C        8.58830401       2.10175119       7.53106672       3.36948880       2.73476211      -0.27675663
C       11.13158843       2.10186973       7.32938718      -2.20089182      -0.95579963       1.36462200
C       -2.50803965       4.27787447       7.48797004       0.64038569       0.62802691       0.14869487
C       -0.01840482       4.30731217       7.41094058       2.26267774      -1.83103734      -0.28829703
C        2.43035861       4.28166921       7.30636050       0.94896821      -1.44249043       0.28894160
C        4.88707225       4.27435826       7.37765516      -1.73129885      -1.09886969      -0.32759942
C        7.36561763       4.26692293       7.47645818       1.51038684       0.52971436       0.36140686
C        9.89242174       4.27677973       7.52086054      -1.53662752       0.67246252       0.84819871
C       -3.65506604       6.49442881       7.59950373      -0.36292767      -1.66286200       0.89876819
C       -1.20685991       6.35888519       7.71928348      -0.81475328       0.14398461       0.40898847
C        1.19171671       6.37839879       7.53821798       1.41215321       2.68283533       0.37789380
C        3.62459471       6.40515394       7.47185471      -0.23780930      -0.37377001       0.02435863
C        6.18744330       6.41119073       7.59337412      -4.20556835      -2.13577786      -1.11957144
C        8.63103020       6.38511560       7.68724525       0.20068951      -0.12865517       0.22641777
C       -4.97593199       8.56178321       7.82637102       0.71485410      -1.48710370      -1.83344801
C       -2.49657130       8.53025986       7.91043758      -0.25790222       0.26144005      -1.24337855
C       -0.03843657       8.49964836       7.69882737      -0.18018085       1.21791871       0.73517044
C        2.45037914       8.55295134       7.57060413      -0.22197465      -2.96380626       0.60361326
C        4.91865719       8.55919462       7.62825123      -1.57247615      -3.10104866       0.38919123
C        7.35411677       8.51584433       7.64551289      -0.06290924       0.01965865       0.47186916
C       -6.11277639      10.70013155       7.44178861      -2.49543045      -4.12329357       0.15470739
C       -3.65479227      10.63507399       7.48248855      -0.65376031       1.97747452       0.66081388
C       -1.19634616      10.66021900       7.54552881       0.33820111      -0.40774302       0.39097120
C        1.29805443      10.59365488       7.54341867      -2.39624526       1.69214352      -0.27404849
C        3.72572623      10.64867749       7.59087115      -3.38942488      -0.72355702      -0.26111224
C        6.17206543      10.63801142       7.51904704      -0.56360664       0.21110942       0.27401995
C        1.21700465       0.74291473       7.19303226      -0.44429871      -3.04297670      -0.11981341
C        3.63749377       0.65549905       7.36978708      -0.15859670       0.44759821      -1.04634257
C        6.16505710       0.70092187       7.41416244       1.54533739       0.70485739      -0.24233316
C        8.68761810       0.72371278       7.52931449      -3.31114327      -1.15196066       0.48718471
C       11.10507765       0.64003382       7.42206576       1.67763813       1.37464982      -0.21062837
C       13.57916871       0.71904629       7.26352915       0.42751249      -0.00246415      -0.30837606
C        0.02516120       2.86937119       7.28068371      -0.70416859       0.48790385       0.30203572
C        2.43224062       2.81502384       7.25433655      -1.94867560       1.65868653      -0.81474274
C        4.82580030       2.82316448       7.35346984       2.31826576      -0.15957269      -1.03968007
C        7.40339737       2.86738263       7.45907946      -1.36458909      -1.26713400      -0.36336013
C        9.88759704       2.83589207       7.48680111      -0.49676156      -0.47862988      -0.40952480
C       12.31585110       2.84687385       7.39462551       0.18811733       0.48213326      -0.20042598
C       -1.25115033       4.92152830       7.57099563      -0.00690007       2.13455941      -0.21098730
C        1.27893945       5.03020080       7.39006565      -4.47995597      -2.76857623       0.16963162
C        3.61382407       4.99951178       7.41862872       2.50742311      -1.03670068      -0.55441315
C        6.12106091       4.94630032       7.34775039       1.42159636       1.95396975       2.02383974
C        8.65302254       4.97524615       7.68648756      -1.91406649      -0.89285800      -1.77046009
C       11.04179949       5.11685457       7.53618006       2.06372629      -5.05016032      -0.59586370
C       -2.39607619       7.09348778       7.79100718      -1.60864077       1.73305928       0.02514899
C       -0.00890635       7.09824074       7.76508588      -0.28572027      -0.73751143      -1.11980516
C        2.39812043       7.10430493       7.49856135       0.98193104       1.37130301       0.29689557
C        4.83845322       7.07391509       7.56079145       4.28175837       2.38516124       0.36235611
C        7.38377872       7.09450337       7.69805150       0.53644576       0.57998945      -0.30293457
C        9.85605893       7.08935538       7.69184898      -1.00418162       3.49632080       0.85474936
C       -3.74637288       9.28429547       7.74838311       1.12364304      -2.36732807       0.57327399
C       -1.32303332       9.24900125       7.75442792       3.95142226      -0.38977281      -0.32695793
C        1.22975830       9.20030583       7.65506911      -1.07597813       0.44225288      -0.75785965
C        3.67939962       9.21722764       7.65086440       0.63550317       1.70383098      -0.65545236
C        6.13074531       9.24814158       7.68615694       1.25757155      -0.84912122      -0.97319289
C        8.56831752       9.21504258       7.59909756       0.91612725       2.18810264       0.64734798
C       -4.92453281      11.34960654       7.34728269       1.52034986       0.08775869       0.55544776
C       -2.39333015      11.35630239       7.52712052      -2.08041944       1.19608568      -0.83083425
C        0.07674789      11.35033260       7.43444770      -0.87884883      -1.15633154       1.23090407
C        2.45213112      11.36198159       7.50080844       2.21127445      -1.35266663       1.45759052
C        4.90244793      11.30227110       7.48610337       4.59455544       2.45366211      -0.64717135
C        7.40379430      11.35438990       7.38006707      -0.41942457       0.78147498      -0.38346384
72
Lattice="14.76 0.0 0.0 -7.38 12.782534959858314 0.0 0.0 0.0 15.0" Properties=species:S:1:pos:R:3:REF_forces:R:3 REF_energy=-11164.560767329174 config_type=fd_force_conv_snapshot_034 split=train degauss_Ry=0.0038001738 kgrid=8 lattice_temperature_K=600.0 pbc="T T T"
C       -0.03431694      -0.05294560       7.32414466       3.15873007       0.36501129      -0.41280347
C        2.42218895      -0.06299671       7.42080163       1.81557267       0.91387034      -0.89062242
C        4.89781492       0.04626508       7.53569783       0.13767126      -2.13571332      -1.15062086
C        7.33352127       0.02337239       7.43009372       2.57389229      -0.99488554       0.54962267
C        9.84710049      -0.00171202       7.44811271       1.44760538       1.52345036       0.65725907
C       12.32405734       0.00015086       7.41646027      -0.12757068       0.95937989      -0.10673858
C       -1.16347746       2.09787439       7.26553925      -0.98324693       2.21339715       0.81274525
C        1.26549588       2.05987077       7.31959040      -0.94937856       1.98879612       0.15183393
C        3.68286879       2.17840142       7.65920746       1.23677107      -1.23270821      -1.96002933
C        6.23144491       2.06919788       7.49389923      -3.17354760       4.17153903       0.22023427
C        8.63514552       2.11403527       7.44777851      -0.30826113       2.16545019       0.39918459
C       11.14474113       2.17566986       7.51204728      -2.79017375      -1.22307660      -1.37582610
C       -2.42669785       4.25508381       7.27602110      -1.33260508       2.54872505       0.18677496
C       -0.03775057       4.32074825       7.42061598       0.67527376      -1.83360639      -0.46304000
C        2.40587847       4.28112263       7.49250655       0.85689212      -0.38650237       0.35888538
C        4.91643858       4.25007139       7.57273158       1.70076417      -0.53168099       0.03492047
C        7.38315081       4.29227010       7.63598169      -1.65479748      -2.23999238      -1.72131629
C        9.86413573       4.26904248       7.41003927      -3.21282017      -1.50214774       0.26018381
C       -3.79383001       6.36277204       7.45282408       2.10628988       0.92623786      -0.18447665
C       -1.29263161       6.47941865       7.57356646      -1.41876558      -2.10230467      -0.54078836
C        1.20304227       6.39539431       7.80749147      -0.59306454       0.25447982      -1.64621076
C        3.73682119       6.34054129       7.65417523      -2.71211866       0.21877363       0.12729018
C        6.06764443       6.37814575       7.50648811       1.92674871      -0.06880632       0.05717388
C        8.49231383       6.41081115       7.61219233       4.03143885      -1.43408010      -1.23141109
C       -4.93510535       8.54024324       7.47838133       2.25578590      -0.97897221      -0.17443598
C       -2.51106750       8.54142664       7.56781519       0.60266041       0.32986508      -0.07270437
C       -0.03233900       8.51825106       7.80378597       0.05480049       2.76240635      -1.36040128
C        2.47305781       8.51959620       7.78460634       0.40688016      -1.83824646      -0.65381585
C        4.90266325       8.50025368       7.61762085       3.11042573       0.19795720      -0.36818146
C        7.33622050       8.46884161       7.45805926       1.77360815       1.22903025      -0.11190649
C       -6.12367788      10.58071042       7.23905528       0.17318077       0.21100812       1.47748726
C       -3.59144221      10.68713454       7.39667861      -3.03186387      -0.88961069       0.48631208
C       -1.17248303      10.68145721       7.49270258      -1.53497636      -1.39747453       0.72630528
C        1.26976465      10.68797704       7.55385290      -0.74338177      -1.85473700       0.87279568
C        3.72902218      10.67350099       7.64761507       0.45468571      -1.91962933      -0.70495072
C        6.19141512      10.65328458       7.52101102       0.34211381      -0.08267254      -0.74162956
C        1.22068653       0.63992409       7.25892745      -0.38110382       0.70044486       1.07306250
C        3.68123732       0.72933160       7.44802193      -1.55857985      -0.14446720       1.73056223
C        6.10697876       0.71501364       7.40764361       2.13055903      -1.05490486       0.88046116
C        8.63786519       0.74530107       7.49627776      -2.01058699      -3.01215020      -0.95547619
C       11.10750532       0.75399673       7.40994121      -0.43127813      -1.66594835       0.82060665
C       13.56952394       0.70596956       7.34547896      -1.61847704      -0.94707433      -0.16561890
C        0.05370565       2.83470833       7.32852952      -1.25472225       0.25727410      -0.58573587
C        2.43724189       2.85288890       7.47265721       0.89072218      -0.30316469       0.30964130
C        4.99216834       2.85258773       7.63077643      -1.84724840      -1.64942593      -0.31608525
C        7.38705906       2.83655685       7.46939621       1.54092100       0.24696114       0.68335757
C        9.84746259       2.82348403       7.47722117       1.71837134       1.51798985      -0.15721756
C       12.33148725       2.86518455       7.34566056       2.24726938      -0.86192891      -0.17822296
C       -1.23591810       5.06225326       7.37797438      -1.05561191      -1.74805062       0.30920344
C        1.16325089       5.01269332       7.51159457       1.89953564      -0.11892766       0.99916797
C        3.70093953       4.92432300       7.57104950      -1.71470187       0.74749297       0.08783403
C        6.13945167       4.99606199       7.52155391      -0.68472874      -1.46877456       0.93508374
C        8.56770940       4.96623499       7.53426888       2.26444486       1.45569896       0.50744526
C       11.03276937       4.95802545       7.26776413       2.14536165       0.09508479       1.16686380
C       -2.58354788       7.11636112       7.55110721       2.10563270       0.23163505      -0.13948440
C       -0.08720013       7.13344105       7.73060764       2.99397096      -0.17542560       0.93214394
C        2.49340985       7.02755760       7.78078133      -1.57201875       2.47402962       0.25114227
C        4.89293535       7.09574567       7.59341247       0.17597299      -0.03481068      -0.13528142
C        7.29452994       7.05465162       7.50070689      -0.23632063       1.85420195       0.39776354
C        9.81041400       7.11723520       7.54367207      -2.83672100      -0.46860901       0.04681645
C       -3.67862686       9.28740714       7.43961692      -0.86358624      -1.25527761       0.21664629
C       -1.26744823       9.28270744       7.61921894       1.47118729      -2.40783143       0.29690585
C        1.24775645       9.24204924       7.70002588      -0.65839293      -0.16028746       0.65329906
C        3.73800938       9.16866109       7.65775365      -3.02558061       3.92903284       0.74939532
C        6.18510990       9.25335996       7.51770352      -2.21037096      -1.81301442       0.30601810
C        8.62314709       9.16360119       7.38268860      -2.73845858       1.11759118      -0.21758269
C       -4.91617487      11.30033740       7.37932408       1.83744813       1.30121166      -0.66541615
C       -2.38200538      11.36607635       7.50046361      -1.72961452       2.64221807      -0.46650996
C        0.01866234      11.36145464       7.52482323       1.64047566       2.11655063      -0.69199082
C        2.50365551      11.36648774       7.58025490      -0.15508869       0.54557369      -0.51861465
C        4.95964152      11.37371657       7.51314092      -0.43233125      -0.28701199       0.45251261
C        7.44548388      11.32044912       7.36076335      -2.32156809       0.01156431      -0.11979464
72
Lattice="14.76 0.0 0.0 -7.38 12.782534959858314 0.0 0.0 0.0 15.0" Properties=species:S:1:pos:R:3:REF_forces:R:3 REF_energy=-11163.709688032679 config_type=fd_force_conv_snapshot_038 split=train degauss_Ry=0.0038001738 kgrid=8 lattice_temperature_K=600.0 pbc="T T T"
C        0.04874433       0.02062723       7.62673417       0.56767567      -2.84382290      -0.29870022
C        2.50729714      -0.04941917       7.50071112      -2.17472596       0.87143119      -0.57331281
C        4.96665912      -0.07327656       7.48018505       0.24135562       3.46281290      -0.03395013
C        7.47893222      -0.00107333       7.58729429      -2.08733236       1.45573701       0.72652331
C        9.94115901      -0.01494455       7.54274124      -1.95300276       0.74170618      -0.40192822
C       12.37714852       0.01117839       7.41490090       2.72346853      -1.25966160       0.62637627
C       -1.30465076       2.12676059       7.69210690       4.42936617      -0.33002140      -0.82917948
C        1.21870413       2.20844132       7.51911344      -0.84679411      -4.18701862       0.82677010
C        3.69347521       2.10210270       7.63327640      -1.21638788       0.57859977      -1.30319449
C        6.11490475       2.13052901       7.62330804       1.18559455      -1.56553032      -0.66938337
C        8.56300186       2.20649491       7.52845835       1.55641139      -2.32504730      -0.54473603
C       11.04102475       2.09833151       7.42068273       1.81245212       1.23666874       1.02498879
C       -2.51875502       4.22789163       7.53902959       3.46147516       0.13631655       0.42478481
C       -0.03648132       4.22689759       7.62967796       0.12281311       2.59935136      -0.39910566
C        2.38434414       4.27758382       7.53932364       1.27445778       1.08280261       0.63426852
C        4.84650757       4.29326584       7.73626005       1.96208904      -2.38937425      -1.19964382
C        7.32736111       4.27023323       7.53373229       0.45284454       1.39220917      -0.34325538
C        9.80356960       4.24957419       7.42496152       2.56875857       2.71938357      -0.51026473
C       -3.64663863       6.42650418       7.38284536      -0.96983245       0.10141022      -0.65409867
C       -1.21399299       6.33015359       7.48222426      -0.53995403       1.83972844      -1.32991931
C        1.19267686       6.45135737       7.52806950      -0.43138200      -1.80296347      -0.39060174
C        3.60689796       6.43624938       7.69803312       0.37231271      -1.55729944      -1.42477450
C        6.00058504       6.40767994       7.55263523       6.30740534      -1.84145134      -0.41555301
C        8.59445184       6.42198515       7.41648655      -1.03985079       0.13478520      -1.08069688
C       -4.87037797       8.54421231       7.18587541      -2.44407858       0.80223869       1.18352558
C       -2.46453745       8.53446121       7.25659239       0.63210931      -1.04343080       0.54727396
C       -0.04142717       8.52329962       7.31249588       2.43536563      -1.64967352       1.03596688
C        2.46620996       8.59384246       7.56817969      -1.73337116      -2.18446221      -0.83566149
C        4.91290706       8.51239350       7.42577160       1.40803199       0.13007751       1.17905032
C        7.39239377       8.52041188       7.30753404      -0.43881969      -2.86728756       1.07783293
C       -6.14015504      10.56193526       7.45869532       0.99912503       3.94906816       0.04285618
C       -3.63146351      10.68574656       7.33923808      -0.84806758      -2.59057130      -0.45020171
C       -1.16443931      10.62685055       7.52543257      -1.21423355       0.50526471      -0.28765219
C        1.23492521      10.63672219       7.67576000      -0.23411051       1.52803798      -0.57581912
C        3.68084950      10.60484753       7.54522777       2.53080215       3.54493702      -1.01628792
C        6.16802513      10.60351162       7.55887003       1.00833498       1.05309249      -0.08927564
C        1.24008470       0.67156510       7.57377223       2.72483585       3.05095611      -0.18686598
C        3.69133135       0.67351694       7.45312046       2.21827890       0.40364880       1.16862681
C        6.22351156       0.67590198       7.54969112      -2.20359816       0.83897873       0.18286148
C        8.64258450       0.77134732       7.59107348       2.34283805      -1.21694555      -0.34791165
C       11.19303305       0.68840527       7.40966830      -4.19227961       0.51687864       0.34581466
C       13.65701302       0.75104367       7.52761312      -5.40717419      -1.47708514       0.45296616
C       -0.06145510       2.83726225       7.62839505       1.52754998       0.14849098       0.15032983
C        2.44259138       2.88598268       7.54374879       0.00072711      -1.72285046       0.16839903
C        4.89943013       2.82429330       7.64260647      -0.73959454       0.92547604       0.72567253
C        7.32610200       2.84877293       7.52511233       0.07716858       1.19732906       0.68000691
C        9.82614246       2.86957778       7.41914588      -0.58007147      -1.46861104       0.35700102
C       12.28161737       2.80620615       7.65070079      -3.61184613       0.84936342      -1.49077421
C       -1.26397098       4.93313092       7.54322843       0.08512923      -0.46329531       0.65481112
C        1.17779951       5.03848286       7.59260670       0.00708930      -2.69369773      -0.24037115
C        3.64038672       4.93961398       7.60402601      -1.44357261       3.66651086       1.05575898
C        6.09202585       4.99498368       7.63329305      -0.66618029      -0.61075656       0.17844793
C        8.60051739       4.99578714       7.39969759      -1.01704588      -0.75657282       1.01577370
C       11.14203208       5.00206010       7.40883410      -5.41474249      -0.43563178       0.31575744
C       -2.40459944       7.11000007       7.35213957      -1.57890597      -0.38862790       0.06463728
C       -0.00984703       7.07471811       7.34479886      -1.28836822       1.55399481       0.82718894
C        2.36830881       7.15792564       7.54988191       3.84868766       0.57885405       0.80054691
C        4.88152423       7.11046379       7.59516129      -4.62337519       1.47251577      -0.21983189
C        7.28560227       7.07145972       7.37343528       1.94993724       0.87349142       0.24763940
C        9.83365568       7.18438309       7.28929114       1.12850269      -4.01061060       0.35763351
C       -3.67601951       9.24213494       7.28369434       1.11737109       0.98724936      -0.63682034
C       -1.23025630       9.18755874       7.33720215       0.00372990       3.19709376       0.37702940
C        1.19958820       9.25240207       7.52764961       0.33721869      -0.62746616      -0.12730817
C        3.71624512       9.24430129       7.48945552      -0.66902341      -1.43460949       0.56341021
C        6.20336176       9.17507771       7.48205308      -3.11519693       2.04845985      -0.74506173
C        8.60409658       9.20294544       7.34043055       1.69843064      -0.69577394      -0.92764168
C       -4.85702153      11.33660809       7.35497270      -1.97048292      -0.57422092       1.03475075
C       -2.40757919      11.33697238       7.41710674       1.05846455      -0.63116057       0.39695570
C        0.02970711      11.39995693       7.72280324       0.51638062      -2.86314526      -1.41687093
C        2.47911869      11.33176149       7.54466302      -0.13495026       0.97427815       1.00257751
C        4.96392167      11.36074549       7.47799278      -1.19160553      -0.91634528       0.40734990
C        7.41958466      11.32041014       7.62846288      -0.67463227       0.27579324      -0.86551097
72
Lattice="14.76 0.0 0.0 -7.38 12.782534959858314 0.0 0.0 0.0 15.0" Properties=species:S:1:pos:R:3:REF_forces:R:3 REF_energy=-11163.61249345939 config_type=fd_force_conv_snapshot_042 split=train degauss_Ry=0.0038001738 kgrid=8 lattice_temperature_K=600.0 pbc="T T T"
C        0.02366186      -0.01566453       7.58603495      -0.80640517       1.94313435       0.29536139
C        2.48941286       0.00295421       7.70135185      -0.09763584       0.02865880      -0.66481811
C        4.93677082      -0.01327572       7.53279935      -1.68669844       0.91961212       0.95983086
C        7.37516812       0.05854309       7.42926872      -0.88084066      -2.34095009      -0.42522755
C        9.79388125       0.04357420       7.67826544       3.47653437      -1.09882933      -0.90949380
C       12.30528897       0.03620434       7.69365700      -0.65489160      -0.71324150      -0.81954479
C       -1.26762107       2.13652368       7.79853266       2.35407994      -0.25794927       0.09232574
C        1.22632552       2.10852384       7.86971682       1.16373374       1.84682006      -0.71151680
C        3.75672797       2.10340598       7.85289588      -2.35840017       1.03752651      -0.19143843
C        6.18506840       2.14942000       7.65587155      -2.59459559      -0.57537561      -0.20883580
C        8.58755877       2.10922745       7.77828907       1.25296850       1.52871289       0.21045071
C       11.11035398       2.13347442       7.84733971      -1.84871753      -1.36654390      -0.39582082
C       -2.53733866       4.28395241       7.58100118       2.01047155      -1.98300985       0.02666260
C       -0.02495681       4.21735432       7.54534293      -0.37915518      -2.13830602       1.30211874
C        2.48664188       4.27273813       7.59008793      -2.85419370      -2.15530436       0.05073224
C        4.96594150       4.35070031       7.60022581      -4.69424096      -3.56159674      -1.06115881
C        7.34710499       4.25433666       7.66208644       1.41081187       1.20892499      -0.59252075
C        9.87133044       4.17605383       7.70124123      -3.44710578       3.78991379      -0.44038703
C       -3.66849362       6.42836002       7.45746989      -1.62775975      -2.73243089      -1.12061223
C       -1.14386214       6.30332614       7.31133937      -2.48524426       1.57739416      -0.12072229
C        1.19316788       6.34143211       7.30135044       3.39759790      -2.22413947       0.37080810
C        3.66416341       6.37811548       7.31031459       0.60790340       1.04368971      -0.27337717
C        6.18010548       6.42371304       7.43765622      -1.70348389      -0.41149118      -0.98485978
C        8.54439493       6.33973750       7.44940287       2.94000839       0.66977135       0.52402733
C       -4.91710084       8.50107169       7.29162606      -1.90122280      -0.54067934       0.26527280
C       -2.46206279       8.46516569       7.29993640       1.45165899       1.90879393      -0.22198622
C        0.03452252       8.52412479       7.09932004      -2.68688276      -1.50451007       0.72995573
C        2.46637352       8.45740130       7.26705236      -0.04221520       3.03609025      -1.22654245
C        4.96900027       8.50765931       7.31602838      -1.91766115       2.51753474       0.40322354
C        7.33956947       8.52298118       7.32194400       1.99271602       4.20239947       1.57822334
C       -6.11227497      10.68155671       7.39766516      -1.61335309       0.08840661       0.03020378
C       -3.61725342      10.64152927       7.39988569      -2.71065621       0.27368673      -0.38890892
C       -1.20045278      10.64729833       7.21794342      -2.24753908       1.15884530       0.93268361
C        1.18908548      10.69059810       7.23221356       1.60680064      -0.17005996      -0.23054902
C        3.67759199      10.70930896       7.41557895      -1.03871102      -1.51741161      -0.37079241
C        6.07578522      10.72184714       7.51603864       2.39706416      -1.10602559       0.13107612
C        1.27236731       0.72068352       7.65107735      -1.54131592      -0.87414988       1.26416283
C        3.70700345       0.67185158       7.85815079       1.56150397       0.78630711      -1.52345601
C        6.11569096       0.70053050       7.44478476       2.57891494       2.89097513       1.30313561
C        8.61118927       0.70524377       7.61791702      -2.46605637       2.14312659       0.43309513
C       11.08753349       0.70232766       7.71925839      -1.47802771       1.84076203       1.17096445
C       13.51484889       0.75325423       7.65962994       1.50772858      -2.17048338       0.66835775
C       -0.02987174       2.82060168       7.88175933       1.22551452       0.03778879      -1.63830719
C        2.52600754       2.86423912       7.79266733      -1.66397709      -1.63801717       0.48453596
C        4.91242694       2.86080762       7.73448482       3.14970396       1.09814696      -0.31472077
C        7.38560197       2.87876604       7.73944017      -0.19814207      -2.68990484      -0.31231987
C        9.84501349       2.82270323       7.87213330       0.29698710      -2.06661158      -0.65883002
C       12.30939694       2.82532554       7.78189233      -2.13447251       2.83833385      -0.35827371
C       -1.25022755       4.89088848       7.43090666      -0.38654659       2.05968760       0.20064606
C        1.17609830       4.87667189       7.46518261       2.26361002       2.94601808      -0.25331177
C        3.62870087       4.98610714       7.40652068       4.68269054       0.44748919       1.14098076
C        6.15119333       4.98025746       7.40470618       1.55970240       1.75595444       1.98564086
C        8.59501282       4.92628855       7.62239951      -0.27981701      -0.08433578       0.01209627
C       10.99087688       4.96749609       7.47914596       3.24598997       0.39021864       1.34618745
C       -2.40229498       7.06964077       7.33606270      -0.12779128      -1.00637966       0.14319708
C        0.07185274       7.04917309       7.23211976      -3.97152032       1.92737349      -0.47380186
C        2.43300188       7.06273599       7.31885064       0.41856300      -0.01732101      -0.54067651
C        4.91890732       7.11336655       7.26763800       0.78379591      -1.60471316       0.97448024
C        7.39129515       7.15579645       7.49869801      -1.41494929      -2.45112752      -1.29706112
C        9.80392265       7.02984069       7.36544571       0.85192603       2.78416765       0.20488735
C       -3.69348240       9.17744100       7.30113894       1.15145287       1.42386279       0.34735809
C       -1.22920918       9.25367610       7.23220113       0.49893414      -2.37856533      -0.84328610
C        1.20030848       9.21498172       7.05866846       3.23190830       1.87327465       1.72497137
C        3.73698729       9.23068496       7.27578999      -2.22655863       0.06832090       0.60671761
C        6.13288946       9.32332712       7.47258141       0.35531052      -3.35294041      -1.47627293
C        8.60753460       9.27582082       7.32667029       0.29136101      -2.05124461      -0.35038891
C       -4.88732218      11.41138993       7.40724124       0.92978367      -2.15821973       1.02873231
C       -2.42996530      11.39513488       7.42193399       0.32099709      -2.95703192      -0.88215655
C       -0.04170676      11.39765516       7.27646424       2.63986783       0.27086289      -0.19005852
C        2.44988067      11.46142258       7.41459369      -1.42918240      -3.61414392      -0.05325706
C        4.86347449      11.41073981       7.54973721       1.27261276       0.33945324       0.09382058
C        7.36148863      11.36097680       7.53532542       0.71475768       0.81100461      -0.51163153
72
Lattice="14.76 0.0 0.0 -7.38 12.782534959858314 0.0 0.0 0.0 15.0" Properties=species:S:1:pos:R:3:REF_forces:R:3 REF_energy=-11164.253931628651 config_type=fd_force_conv_snapshot_046 split=train degauss_Ry=0.0038001738 kgrid=8 lattice_temperature_K=600.0 pbc="T T T"
C       -0.06975367      -0.03227260       7.74173178       0.10739909       1.14021586      -0.71688115
C        2.37111392       0.00935797       7.52492737       1.39028958       0.79132436       0.28346721
C        4.88978195       0.03805755       7.47952617      -0.02285942      -1.82263189       0.84649946
C        7.32516759      -0.04132599       7.50716059      -0.42205738       0.23303785       0.13720126
C        9.73403721       0.02623865       7.55687537       1.16301075      -0.57558104      -0.34382026
C       12.18118117       0.00175372       7.62980770       2.23218728       1.40474304       1.20505085
C       -1.19227428       2.14899627       7.92653265      -2.11824756      -1.04623433      -1.69704276
C        1.20787889       2.14427012       7.68654592       1.62612582      -1.40039093      -0.65130748
C        3.75110119       2.11635275       7.61528961      -3.20097279       0.41065351      -0.97107661
C        6.17435190       2.09601378       7.57115151      -1.26918908       4.39360753       0.19032283
C        8.54795831       2.12909201       7.76221189       2.15007062      -1.69444543      -0.95697899
C       11.06938071       2.16147042       7.74467891       0.53237519      -1.93975387       0.32854919
C       -2.40373428       4.22780309       7.70399955      -0.69269402       1.85336249      -0.43588220
C        0.08546030       4.22349227       7.61774096       0.07310906       0.91890687      -0.44094059
C        2.55444612       4.26539209       7.34695684      -1.05607882      -0.53822625       0.56210743
C        4.94058656       4.24356160       7.43500198       2.21367226       2.52826678      -0.29444916
C        7.41595219       4.26793191       7.68078743      -1.97425884      -1.19344412      -0.36199256
C        9.81183715       4.26495893       7.71461496       3.06351055      -2.81635735       0.35011123
C       -3.63210853       6.34480083       7.52980251      -1.97275038       0.97613037       0.55992482
C       -1.17221489       6.32174547       7.33222570      -0.75420792       1.15392524       2.05733144
C        1.28533603       6.39700851       7.39413815      -0.36555199      -0.37285572      -0.33193996
C        3.75215900       6.44832787       7.41838117      -0.24378455      -2.28384872      -2.62326750
C        6.21426601       6.37373391       7.41054241      -2.14985079       0.97424112      -0.41397512
C        8.60956384       6.40083835       7.59342209       0.44458205       0.78186810       0.22524561
C       -4.93131382       8.53557263       7.44364232       3.50375026      -0.89426722      -0.03954588
C       -2.45118537       8.52070564       7.43085740      -0.68033472       1.26326757      -1.20651561
C       -0.03628145       8.52081800       7.17970816       1.94726920       1.36706661       1.20390620
C        2.49262391       8.47391231       7.19924159       0.17436219       3.02119071       0.12138409
C        4.97928229       8.50607409       7.19648858      -0.70838032      -0.68289965       0.85277630
C        7.41573695       8.60064229       7.42507049      -1.08382360      -1.52461995       0.34818625
C       -6.13865141      10.65995839       7.42471541      -0.11098372       1.25674571       0.81399223
C       -3.72364567      10.64501859       7.27855516       0.91548088       2.25215164       1.73931555
C       -1.31737382      10.67280596       7.34513148       2.22530676       0.37552324      -0.21399189
C        1.16108745      10.64843841       7.34781611       2.72024257      -1.27203195      -1.53812210
C        3.65577735      10.66139001       7.34469820      -0.65893440      -0.89512185      -0.53218262
C        6.11040951      10.66456698       7.49597436      -0.24583911       0.60483942       0.19411160
C        1.12027705       0.72089260       7.62047101       2.29077373      -0.53293209       0.83533265
C        3.64979035       0.67270853       7.57375614       0.28097967       2.20341998      -0.22475478
C        6.14263944       0.76431685       7.58249381      -1.25581626      -4.98134602      -0.88314077
C        8.49494577       0.69424427       7.61587781       1.60634221       0.66775534       0.29047604
C       10.97817374       0.71477467       7.71373894       0.58079601       0.63155755      -0.77728665
C       13.47795464       0.70778719       7.82724892      -0.87526137       0.03032822      -0.28137073
C        0.02927750       2.83279396       7.74062767      -0.58531652       0.36931866       0.76280723
C        2.46460430       2.82472782       7.53180318       1.99064963       0.61203851       0.07742749
C        4.93722460       2.87762637       7.52403291       0.50926792      -3.43956602       0.34554701
C        7.37152257       2.82252645       7.63572449       0.22611104       1.73021513       0.74711913
C        9.85253043       2.77545231       7.73859873      -2.84719670       3.61222151       0.30177064
C       12.31402787       2.88407561       7.76319727       0.75389630      -3.84931244       1.09649065
C       -1.13851806       4.88486900       7.57220828      -1.39323684       3.09003868      -0.40478265
C        1.30859136       4.95719758       7.42796660      -0.22552997       0.52427005       0.21827509
C        3.79745335       5.00522625       7.26046958      -2.80851754      -0.48111819       1.86416806
C        6.19530320       4.98228527       7.52706472       0.21224688      -1.29039451      -0.04264483
C        8.62097341       4.94322689       7.72989018      -0.46139269       2.90322747      -0.70081819
C       11.09677344       4.90567367       7.67650465      -0.18577043       2.10826551      -0.59690397
C       -2.45366315       7.10219485       7.45263774       2.25958522      -1.78635131      -0.59682761
C        0.03829313       7.10589017       7.38862577      -1.05696894      -0.94469118      -1.59582743
C        2.50433404       7.12225033       7.29279259      -0.16131461      -2.46858916       0.65790442
C        4.97336450       7.07133462       7.21699335       0.79871808       1.39895986       1.32414204
C        7.35370181       7.16428256       7.48495849       3.49126267      -0.95159408      -0.00409525
C        9.87535361       7.11963799       7.54134091      -0.90240913      -1.82309598      -0.04300247
C       -3.68745552       9.26437521       7.36607732      -0.43031397      -2.45327336       0.28329160
C       -1.26839770       9.31716162       7.25375418       0.41546353      -5.09965122       0.49374128
C        1.26390396       9.21478187       7.20592956      -2.22175632      -0.07941649       0.10634237
C        3.75041462       9.16087073       7.23514852      -2.02759046       3.13293728      -0.20194935
C        6.13319708       9.25871668       7.41308031       2.05605103       0.42501647      -0.82421957
C        8.68439610       9.25765721       7.44763732      -3.97215461       0.44814765      -0.37376204
C       -4.91597261      11.40319402       7.45386978      -1.90623671      -1.53797426      -1.03329216
C       -2.50410556      11.36671247       7.43543127      -0.61513720       1.68938833      -1.10272172
C       -0.04259216      11.29499972       7.35901504      -1.76029138       3.17290559       0.68843035
C        2.38644574      11.41093473       7.28860470       0.81384414      -1.53918114       1.73801020
C        4.84621444      11.39760169       7.50105719       0.88601963      -1.60139206      -0.31854605
C        7.36108996      11.35061741       7.56541033      -0.23174073      -0.63849105      -0.07490163
72
Lattice="14.76 0.0 0.0 -7.38 12.782534959858314 0.0 0.0 0.0 15.0" Properties=species:S:1:pos:R:3:REF_forces:R:3 REF_energy=-11163.314185398398 config_type=fd_force_conv_snapshot_050 split=train degauss_Ry=0.0038001738 kgrid=8 lattice_temperature_K=600.0 pbc="T T T"
C       -0.01236123       0.06078478       7.40392885       0.48283106      -2.45825924       0.31279887
C        2.45371083      -0.00762641       7.32114045      -0.29998655       1.44259919       2.03658753
C        4.89925919      -0.03034569       7.27623613       1.40987573       0.49902593       1.04321328
C        7.31372242      -0.09123254       7.52647518       2.74615363       2.19642838      -1.62605486
C        9.86206487      -0.00109247       7.62186391      -3.38310999      -1.13536573      -0.45609905
C       12.32177228       0.00936755       7.47782952      -0.75451131      -2.28241944       0.33622265
C       -1.22584740       2.12544328       7.53852799      -2.78627519       0.29760571      -1.25953767
C        1.16347244       2.17052654       7.26922711       1.17383329       0.28095190      -1.39182144
C        3.65691425       2.15981202       7.24533955       1.49021191      -1.44500831       0.37471309
C        6.13005323       2.15353825       7.16785745       3.28249912      -2.50764011       1.72167984
C        8.64228145       2.09345842       7.43128659      -1.90884535       0.20781327       0.38502270
C       11.05316051       2.07779096       7.57922656      -0.12523175       0.57042392      -0.01573567
C       -2.43496702       4.21548173       7.67086770      -0.39069635       1.18795585       0.88374446
C        0.00053935       4.28746375       7.46170218       0.76413623       0.43684303      -0.63699132
C        2.43865601       4.25794102       7.39412604       2.33800078       2.70183836      -0.84264718
C        4.88584104       4.25996027       7.55357889       3.31848531      -0.37152903      -1.51074268
C        7.44125928       4.29483425       7.54021770      -0.38346024      -1.83538919      -0.51952585
C        9.89035025       4.24164042       7.70209860      -0.97427326       1.40423319      -0.56538764
C       -3.63236159       6.41811333       7.65080462       0.01368958       0.60850710       0.40202309
C       -1.23164743       6.39445530       7.45666245       3.89391414      -1.71356312       1.37822931
C        1.26833736       6.39621222       7.41209373      -0.03882957       2.76093722       1.34513690
C        3.74825515       6.41699035       7.56619492      -1.54886031      -0.12498055       0.20884865
C        6.20047313       6.35948787       7.50616414      -0.11286320       0.05787939       0.33029368
C        8.65023263       6.46452693       7.48563932       0.95021597      -2.60214358       1.08286740
C       -4.93444490       8.56226257       7.64041904      -0.04432890       0.75109868       0.22091253
C       -2.44766122       8.59760116       7.49867887       1.70632804      -3.00277981       0.84528076
C       -0.00392444       8.50041191       7.42792161       0.44324970       0.08240540       0.20042623
C        2.44790613       8.53198042       7.60775695       2.46631451      -1.23619129      -0.76437123
C        4.92961061       8.46529391       7.51776555      -0.96981111       2.58245844       0.24685187
C        7.34771468       8.48646778       7.59865475       0.49061816      -0.39415166      -0.23016721
C       -6.23201442      10.69914012       7.61540636       2.14698453      -3.07988360       0.59153910
C       -3.76833295      10.71103707       7.56506206      -0.33550068      -2.78563961       0.39935968
C       -1.31354507      10.67296770       7.42616343       0.36755539      -2.19598898      -0.24764968
C        1.17957964      10.53754793       7.53220759       0.58793725       4.72352377       0.59028286
C        3.68723193      10.67883678       7.61134823      -0.30456362      -1.11126190       0.42643417
C        6.21520206      10.57114794       7.53644873      -3.22596905       3.16857534       0.91843636
C        1.21055215       0.76477321       7.30947994       0.55624840      -1.04350099       0.04819327
C        3.74508175       0.70425248       7.43282013      -4.06068155       1.35009758      -2.78476852
C        6.17561466       0.65147630       7.26851968      -2.59372990       1.71231974      -0.10198975
C        8.56115025       0.66997176       7.49420386       1.84137292      -0.32434646       0.65643169
C       11.06563396       0.67994736       7.46030578       0.98541925      -0.24908153       1.12788151
C       13.52679147       0.71728717       7.40221206       0.11102383       0.84506453       0.78130709
C       -0.08322299       2.87035232       7.27460256       2.43756161       0.34545342       2.01717056
C        2.42427054       2.88444807       7.14970731      -0.07332581      -1.24565217       1.96431253
C        4.94153087       2.82700814       7.28414227      -3.20020737       1.96490903       0.46389052
C        7.41027572       2.82391298       7.37489208      -0.24475514       1.26363730      -0.02826285
C        9.86723012       2.81256941       7.59979782      -1.08062232       0.43295089      -0.08958958
C       12.23439661       2.78560833       7.66442920       3.69186374       1.26849231      -0.49570998
C       -1.19210838       4.97156009       7.65539719      -1.59313779      -0.59820212      -1.50613681
C        1.27402592       5.04054779       7.39672147      -1.96357822      -3.89426330       0.02615403
C        3.73636039       5.03645929       7.50031519      -2.58504291      -3.56218115       0.08214340
C        6.18776418       4.94496705       7.56565975      -0.98397789       0.45087636      -0.25659121
C        8.66282153       5.03614969       7.59115715       0.37573279      -1.90393609      -0.17764395
C       11.11659269       4.98657422       7.74330043      -0.09486496      -0.49796175      -0.75705978
C       -2.32349585       7.11836144       7.59700977      -7.66153647       2.35798082      -0.50798416
C       -0.00213076       7.10056577       7.44378584       1.25508144      -0.62127134      -0.65022505
C        2.51299282       7.11875050       7.60733073      -1.21956859      -0.27917809      -1.08171941
C        4.95921572       7.06919205       7.53142344       1.19751444       0.73388026       0.05750658
C        7.43491968       7.08374817       7.48721824      -2.63871032       0.57201775       0.21151643
C        9.84853774       7.16742957       7.61543326       2.42936621      -0.94317783      -0.23045003
C       -3.65406806       9.27104805       7.63368872      -3.20984618       0.48706438      -0.38787739
C       -1.19872546       9.24470543       7.46367271      -1.90691085       0.93758439      -0.44144736
C        1.24610409       9.17443117       7.47534408      -1.97663171       0.25548358       0.40207091
C        3.67825761       9.24578031       7.52072069       0.91606246      -0.78606568       0.95276547
C        6.14930144       9.19203159       7.59104292      -0.57035013      -0.84214813      -0.50344668
C        8.50241559       9.21889368       7.66095017       4.16569620       2.06194709      -0.23647233
C       -5.00875305      11.38297828       7.60211894       1.23667697       0.79701627      -1.39020422
C       -2.58046954      11.34323939       7.40195704       3.23433876       1.73330997      -0.11913309
C       -0.07997423      11.29142244       7.44227478       1.70409812       0.13848810       0.86011140
C        2.41031672      11.36730385       7.73794771       0.79145086      -1.63420037      -1.82853720
C        4.95489719      11.32304472       7.60278937       0.06895879       1.30726840      -1.11297399
C        7.37541265      11.37810292       7.58069600      -1.82670632       1.73041619      -1.17740533
72
Lattice="14.76 0.0 0.0 -7.38 12.782534959858314 0.0 0.0 0.0 15.0" Properties=species:S:1:pos:R:3:REF_forces:R:3 REF_energy=-11163.160238762917 config_type=fd_force_conv_snapshot_055 split=train degauss_Ry=0.0038001738 kgrid=8 lattice_temperature_K=600.0 pbc="T T T"
C       -0.06211367      -0.02327657       7.20614437       1.95188947      -0.39952963       0.48707621
C        2.40949966       0.07149631       7.28642430       2.29691275      -1.06059111      -0.74468326
C        4.82157785       0.05142231       7.38877285       2.51650810      -1.04217764      -0.34170732
C        7.32858656      -0.00920465       7.51554248       0.42738831      -0.68608988      -0.52824291
C        9.81292632       0.01193312       7.37863772      -1.85134211      -3.27523164       1.08982764
C       12.27091459      -0.00694969       7.32441497      -2.55904083      -0.54983093       0.21523013
C       -1.22039462       2.13370948       7.27192491      -0.82617284       0.43710065       1.21129375
C        1.29869704       2.11219384       7.39537196      -0.60057653       2.16895743      -0.66019321
C        3.69257013       2.14230033       7.27527520       1.40462117       2.25017729      -0.19261394
C        6.13377677       2.12162917       7.23837747       1.84366274      -0.42340721      -0.11465243
C        8.58346728       2.08617171       7.23932457      -0.37820516       1.79446288       0.18753138
C       11.02597430       2.10477278       7.24760544       0.21937629       0.39763370       0.61694495
C       -2.44855608       4.26026897       7.46846718      -1.56929004       1.09912938      -1.42682881
C        0.07908650       4.26507107       7.46444763      -2.02594470      -1.05511080       0.78956778
C        2.53316231       4.27806528       7.32843910      -1.41793588       1.12432439       1.43603645
C        5.00980724       4.18299279       7.54990174      -1.95267109       2.59938170      -2.20832488
C        7.46974092       4.21789061       7.52178896      -1.54123262       2.88846522      -0.59148280
C        9.88350579       4.22355625       7.33150899      -1.84933743       2.29915655       0.13684517
C       -3.69031880       6.39180949       7.49760729       1.32947425       0.84035633      -0.64273337
C       -1.14753617       6.35413907       7.71532624      -3.14669885       1.76750513      -2.04165774
C        1.23984985       6.43828832       7.62903559      -1.68828352      -0.95668435       0.48138507
C        3.64727555       6.37737894       7.59490658       2.73427617      -0.23763472       0.28957538
C        6.19632005       6.33794652       7.70696365       0.19499066      -0.08247842       0.28158619
C        8.67191890       6.42467103       7.63053347       0.48323318      -2.49487535      -0.26558416
C       -4.90307042       8.50863670       7.66135697      -2.07096780       1.25504544      -0.71281547
C       -2.50917841       8.49795794       7.70163465       1.29883827       0.67135849      -0.25285514
C        0.00652279       8.56553707       7.78595852      -1.98395679       0.35665880      -0.17863588
C        2.47854098       8.52285317       7.80168786       0.18582442       0.16963239      -1.86302007
C        4.97824532       8.43478194       7.87412686      -0.96624936       2.49964655      -1.04362697
C        7.36492700       8.55414252       7.70229096       2.88734834      -1.83466928       0.60263187
C       -6.15645801      10.70543970       7.44594578       1.24774248      -3.50186642      -1.03320835
C       -3.74164577      10.70751426       7.48173243      -0.18044542      -1.13538810      -0.98208453
C       -1.26445587      10.65293251       7.66679357      -0.14576407       0.76382487       0.49257580
C        1.22232773      10.66230835       7.73189444      -0.51570904      -0.15133256       0.22420997
C        3.64687817      10.67715617       7.53556458       0.87845699      -3.57972713       1.20147985
C        6.08157117      10.67777565       7.64614566       1.63479866      -1.71812015      -0.52741862
C        1.25237933       0.74533260       7.24609153      -4.58270214      -1.29487826       0.20110680
C        3.62788678       0.80079628       7.36769599       0.74660414      -3.56432365      -0.64434622
C        6.11665944       0.69740234       7.30151108      -0.70426475       0.20128241       0.82546578
C        8.56477619       0.66440806       7.33419651       0.08034595       1.51646364       0.24532695
C       10.99072402       0.67691384       7.32268480       3.30235807       1.56524055      -0.72498964
C       13.46434964       0.68889673       7.20956927       2.36247459       1.02827003       0.32758014
C        0.08188115       2.81076841       7.44560904      -2.34231278       0.87860406      -1.10307705
C        2.52685232       2.87121100       7.30230022      -1.94497886      -0.05251915       0.33956637
C        4.96139174       2.81238527       7.23802964      -1.98724009       0.75884104       1.35311194
C        7.34967709       2.88259248       7.28891876       2.32150458      -4.36333819       0.08075578
C        9.83177119       2.83629057       7.25074781      -0.99753583      -2.06018074      -0.14671949
C       12.22074941       2.85615259       7.39346224       3.71602054      -1.39116890      -1.04370565
C       -1.19927126       4.95159982       7.47338614       1.24537758      -0.26934542       1.26997609
C        1.24987483       5.00651182       7.59174634       1.95696123      -0.46704860      -1.95101504
C        3.75857522       4.99139950       7.42600147      -0.42321824      -2.22359080       0.63153338
C        6.21006823       4.91386219       7.56272725       0.81597456       0.74808098       1.02094701
C        8.67892277       4.97124622       7.51516048      -0.25580471      -0.41929216      -0.20807861
C       11.03642821       5.00652378       7.31358416       3.19267532      -1.80860909       1.56534365
C       -2.41216247       7.08911044       7.53821537      -1.08442909      -0.90626039       1.80772566
C       -0.01047821       7.17693119       7.72720914       2.09556709      -2.74666168       0.16196099
C        2.44383355       7.09018413       7.64429517       0.89318195       1.79966551       0.66701872
C        4.91175592       7.01789923       7.77268363       1.62034289       1.25183362      -0.06246187
C        7.47856120       7.07379837       7.74925373      -4.72870789       1.66522870      -0.35076275
C        9.87825170       7.13369712       7.58521243       0.17677903      -1.45595581       0.22247061
C       -3.73898810       9.22677156       7.65737169       1.57006960       2.23183684      -0.56279726
C       -1.28948519       9.23721881       7.78472247       1.23114858       0.37131743      -0.54822939
C        1.22486747       9.26199245       7.72148132       1.09589287      -1.00237439       1.04467007
C        3.75473672       9.19145234       7.67213794      -1.66806437       0.63947835       1.36523110
C        6.19455173       9.26830914       7.84679273      -3.24926350      -1.46812459      -0.67059847
C        8.60580709       9.20650788       7.57485660       0.75293573       2.46553932       0.41105332
C       -4.96518574      11.46515067       7.16936044       0.98809423      -3.08056262       3.06517534
C       -2.50297592      11.38838289       7.45061332      -0.12210195       0.27198569       0.95626011
C       -0.00304906      11.36308755       7.76451217      -1.81256782       0.28355591      -1.36667194
C        2.43630020      11.32721751       7.62197091      -0.17474940       2.83124172      -1.30427461
C        4.83797016      11.36598205       7.50747264       2.57359070       1.18215055      -0.31395972
C        7.36805953      11.25782387       7.38653095      -2.92547754       5.68554573       0.04797987
72
Lattice="14.76 0.0 0.0 -7.38 12.782534959858314 0.0 0.0 0.0 15.0" Properties=species:S:1:pos:R:3:REF_forces:R:3 REF_energy=-11164.218384309452 config_type=fd_force_conv_snapshot_059 split=validation degauss_Ry=0.0038001738 kgrid=8 lattice_temperature_K=600.0 pbc="T T T"
C        0.10645655       0.01407736       7.32774638      -2.32772948       0.19995984      -0.14538483
C        2.44212409       0.05398301       7.42310903       0.66268950      -2.45758253      -0.53242687
C        4.98069554       0.01967110       7.44478172      -3.53553167      -1.08693103      -0.17975713
C        7.43723206      -0.02613937       7.41469314      -1.26665963       1.05367716       0.23544466
C        9.88740544      -0.13186951       7.39023216      -0.81036621       4.53958551       1.22981186
C       12.34605688      -0.07331923       7.31417037       1.34171579       4.65885307       0.85945011
C       -1.21495210       2.17350103       7.39451407       1.87566475      -0.74261944      -0.14643358
C        1.23238267       2.21844149       7.46862958      -0.58957298      -2.12330184       0.29708634
C        3.61402641       2.13363923       7.57909585       2.78040381      -1.14081724      -1.21348202
C        6.14857312       2.15918049       7.41487723      -1.21248134      -0.60956125      -0.80841603
C        8.63213317       2.16249658       7.41193977      -0.16506842      -2.17826200       0.30634411
C       11.10197765       2.04394262       7.53223418      -1.02568581       2.13871817      -0.98511021
C       -2.56381765       4.32811638       7.41314675       3.83031868      -2.10221031      -0.23743315
C        0.00314353       4.32544665       7.53081013      -0.57088415       0.47916004       0.56797237
C        2.42317652       4.26892290       7.51298815       2.02742823       0.95361959       1.06991779
C        4.86034325       4.22311903       7.50414470       0.76944402       1.12514097       0.02390740
C        7.33026194       4.22134231       7.59400520       2.08462010       1.86089093      -1.71043872
C        9.79604308       4.27242329       7.41738362       1.21328147       0.32045176       0.22405236
C       -3.69732671       6.44098740       7.55293406       0.38202788      -1.49598198      -1.30309962
C       -1.20246645       6.39264691       7.55521028      -2.84595640       1.92174612       1.10283922
C        1.21407387       6.39905902       7.93907604       1.32692834      -0.91401715      -1.10875096
C        3.64967358       6.41943837       7.81812761       3.06482233      -2.73276256      -1.59505609
C        6.11969597       6.30946881       7.44127434      -0.21205996       1.70749918       1.11245283
C        8.59892824       6.39623060       7.40757667       0.01502064       0.80884154       0.66750003
C       -4.96770069       8.50474951       7.54231241       1.26420628       0.04030898      -1.23031580
C       -2.47919391       8.58131909       7.66310328      -1.46351434      -1.93590467      -1.57719875
C       -0.02527568       8.51069483       7.69231407       0.90514170      -0.92980141       0.43919121
C        2.52640524       8.46343630       7.74011348      -3.01877567       2.51361921      -0.21861987
C        4.94039415       8.54695731       7.64681249      -0.84854015      -2.26620247      -0.01506229
C        7.31073902       8.55083313       7.39128484       2.15415199      -1.96447605       0.54456968
C       -6.11612031      10.61801232       7.32656602      -0.58091813       1.65614216      -0.37981082
C       -3.70214957      10.69059305       7.44969361       1.44252926      -1.91794191      -0.60637565
C       -1.24567246      10.64770226       7.41518704       1.93008266       0.11005710       0.38064360
C        1.26414739      10.57131183       7.48141196      -1.64799922       0.36877744      -0.20189485
C        3.72643547      10.61278016       7.49605084      -0.72454484       0.53660620      -0.02856007
C        6.15690176      10.70619947       7.49923844       1.70264185      -1.93995030      -0.25171460
C        1.25310997       0.78987861       7.41214943       0.34713595      -0.52235663      -0.12962011
C        3.64963240       0.68854618       7.49386670       2.82940441       1.97805353       0.28558708
C        6.14848918       0.74552935       7.40825341       2.50453833      -1.03874856       0.11609174
C        8.66321669       0.69340273       7.48965890       0.00615856      -0.59795812      -1.36360307
C       11.11817938       0.63551160       7.48312081      -0.37668872      -0.92988162      -1.19079743
C       13.64821315       0.70841139       7.30730003      -3.39877752       0.66163920       0.38133934
C        0.05849577       2.94801265       7.49074362      -3.64702422      -2.35073237      -0.88767877
C        2.43588042       2.85693817       7.53931783       0.57176475       1.36919857      -0.35690949
C        4.86278526       2.83598458       7.42491481       0.32171031      -1.17647793       1.10822645
C        7.37337065       2.85532698       7.32922409       0.51678145      -0.88420443       1.89597415
C        9.85921099       2.83576147       7.48593105       0.15289451      -0.17755061      -0.22598686
C       12.28773684       2.81746274       7.39587228      -0.18825720       1.70043121       0.73416437
C       -1.23902152       5.04081539       7.52185222      -1.71943347      -3.42428492      -0.67870850
C        1.23330236       4.98955924       7.66353306      -0.42746955       1.24858375       0.32787762
C        3.68313491       4.98061654       7.58441896      -2.02991577       0.17584983       0.61887379
C        6.11141892       4.89359227       7.54882529      -0.24142350       1.16492570      -0.27051759
C        8.59817006       5.01000816       7.51355812      -1.79288706      -2.61789827      -0.31224608
C       11.01112989       5.03384056       7.34573795       0.13908383      -1.14405015       1.33187669
C       -2.49735789       7.13215162       7.54236105       2.74944182       1.01089426       1.02364899
C       -0.01613095       7.04051632       7.86713428       0.22073126       3.60079552      -1.27808767
C        2.47827501       7.10905601       7.89385175      -1.96063020      -1.11757678       0.43003269
C        4.90538409       7.06933914       7.61912677       0.41238772       1.41178478       0.27609303
C        7.33340392       7.08095304       7.39162264       0.28630159       0.66475204      -0.04204654
C        9.86794657       7.08643585       7.50671130      -3.46408483       1.75943983       0.11372581
C       -3.76029476       9.24029203       7.50624897       2.03668446       0.82448054       1.08118565
C       -1.24259353       9.25238085       7.55147704       0.46612403      -0.89206764       0.54177437
C        1.25390891       9.16285679       7.62789673      -0.36137061       0.15737800       0.24772013
C        3.68844868       9.21689716       7.61880485       2.07517387      -0.18804843       0.37483856
C        6.13898220       9.26051150       7.60365607       0.13477286       0.93679738      -1.20499635
C        8.60155471       9.21600011       7.35313476      -1.52710338      -0.14769136       0.66536293
C       -4.86914942      11.36661584       7.29968858      -3.68505803       1.59113516       1.02886575
C       -2.43826281      11.34943161       7.41106063      -0.58500799       1.86602697       0.27556698
C        0.02512918      11.32946613       7.42681038       0.15033137      -0.04874760      -0.09200178
C        2.46860733      11.27650842       7.41344594       1.36978066      -0.41405842       0.26243790
C        4.95651584      11.36887750       7.45781591      -1.56782271      -2.27163006      -0.23069326
C        7.39443688      11.37423922       7.32407412       1.75492292      -0.63353422       0.55678884
