72
Lattice="14.76 0.0 0.0 -7.38 12.782534959858314 0.0 0.0 0.0 15.0" Properties=species:S:1:pos:R:3:REF_forces:R:3:MLIP_forces:R:3 REF_energy=-11160.947470796811 MLIP_energy=8.426223542758319 config_type=s0_sscha_overlap_216 split=frozen_overlap_screen sscha_index=216 overlap_local_index=0 selection_group=high_committee_disagreement lattice_temperature_K=450.0 degauss_Ry=0.0019000869 kgrid=8 sscha_random_seed=453005 pbc="T T F"
C       -0.15420381       0.05249079       7.64245588       9.47038596      -2.30469059       0.12646357       0.68039623      -0.28844948       0.00504321
C        2.40265439      -0.04001762       7.33930705       2.07728989       3.44629331       0.59302314       0.05073195       0.27777818       0.05235287
C        4.91846771      -0.09952756       7.03547346       0.94276079       7.90713544       3.64453873      -0.10282817       0.56437687       0.25433712
C        7.40160984      -0.04928171       7.41058676      -1.97740947       0.11212889      -0.60917816      -0.11164665       0.05965260      -0.04354646
C        9.86096624       0.01874457       7.40684663      -2.00924642       0.51242292       0.08464457      -0.07401351       0.02058659       0.00539533
C       12.22531986       0.02169100       7.62385251       3.50109200       2.08533101       0.54573799       0.40931683       0.25546030       0.03910842
C       -1.26051619       2.19801025       7.80884033       2.96732379      -0.42156810      -0.77857015       0.40250751       0.01615169      -0.05815094
C        1.25345261       2.19010719       7.67171959       0.25671359      -2.34812090      -0.59563436       0.02975410      -0.09920645      -0.04444009
C        3.69741301       2.04670620       7.51780663       0.73513239       0.42707386      -0.03046526       0.03550665      -0.05203816      -0.00197191
C        6.18995922       2.08873816       7.59072870      -2.10357556      -2.31391931      -0.01779358      -0.34231331      -0.30137296      -0.00134756
C        8.63066752       2.12799152       7.59527465      -1.93832305       1.86392998       0.10027302      -0.31075225       0.26428765       0.00379199
C       11.06320794       2.16106022       7.69603114      -0.60703643       3.56460699      -0.20385943       0.01289447       0.11356969      -0.01551791
C       -2.59077025       4.33661134       7.59846215       7.25243976      -4.14939592       1.17198930       0.37730452      -0.21917958       0.08511132
C        0.03107491       4.22958527       7.67055369      -0.70596374       3.45944759      -0.39201661       0.05649565       0.16006681      -0.02934001
C        2.46109839       4.31136467       7.54126384       1.85940227      -4.85825909      -0.53712762       0.36108555      -0.30324913      -0.04070502
C        4.90332361       4.22212681       7.53533502       0.26791383      -0.82589773       0.64629126       0.12474196      -0.00047692       0.04766792
C        7.30819032       4.25328416       7.75455563       3.39516101      -1.22610948      -0.69989310       0.35796643      -0.15531174      -0.05302555
C        9.78221715       4.32237352       7.80218871       0.62006446       2.00798169      -1.02415266      -0.14657906       0.16495833      -0.07459946
C       -3.70788548       6.42545185       7.53542619      -0.14464461      -0.06309076       0.94172695      -0.11050230       0.00129634       0.06790523
C       -1.19603147       6.35806887       7.67043157      -0.79360056      -1.49760049       0.25107337      -0.24282947      -0.21985741       0.01765779
C        1.21015923       6.32968933       7.49331265       4.70466936      -0.05804394      -0.44581206       0.33215615      -0.04864150      -0.03402767
C        3.70474751       6.37009176       7.35150668       0.45947490      -0.45600289       0.96719784       0.00899965       0.08034328       0.07445852
C        6.12567771       6.36657296       7.56877780       1.53056614       0.97373719       0.22605062       0.36207094       0.05585346       0.01659354
C        8.56088863       6.43757253       7.71895698       2.61308182      -1.35561671      -1.29799572       0.21782905      -0.05440910      -0.09640826
C       -4.82453207       8.59832834       7.53999430      -4.60589966      -2.62397430      -0.68167324      -0.26128416      -0.23397121      -0.05467480
C       -2.35560368       8.51502734       7.45688414      -4.44352369      -1.66620623      -0.42871448      -0.16465864      -0.07686801      -0.03362755
C       -0.02457446       8.50723554       7.35091444       4.15818369      -2.84092295       0.57277365       0.20592865      -0.09517148       0.03730415
C        2.47567128       8.52762521       7.41989229      -0.27250428      -2.76149361      -1.05332826      -0.01209336      -0.33049122      -0.07803270
C        5.00358989       8.56929679       7.36578989      -7.04137764      -3.80644650       0.43062173      -0.73664664      -0.34009439       0.03280657
C        7.35227353       8.55577323       7.52515160       1.30534239      -2.14705703      -0.76632990       0.03289828      -0.09828617      -0.05694226
C       -6.18469221      10.65552312       7.44498237       1.33943059       0.17299488      -0.62259623       0.11919277       0.13619242      -0.04227866
C       -3.63603671      10.64108411       7.13540892      -2.10180870       1.15085251      -0.16197873      -0.09902794       0.08624556      -0.00253953
C       -1.20711412      10.60587616       7.09057391       1.08927639       1.92011013      -0.72335262       0.20045300       0.02548798      -0.04492199
C        1.23897993      10.63536136       7.33994339       1.66535802      -0.72269133      -0.94820382       0.14853205      -0.10732002      -0.06935323
C        3.68822439      10.67932588       7.34480189       0.57505782      -0.49224850       0.38234335       0.03140598       0.04840061       0.02833289
C        6.18686132      10.67348354       7.51907291      -3.84785026      -0.03877326      -0.35951016      -0.30269930       0.00511320      -0.02668073
C        1.26092186       0.74873934       7.62109567      -3.66492861      -0.76225238      -0.50318649      -0.30835149      -0.09528099      -0.03738986
C        3.70585757       0.64608364       7.35636021      -1.23346000      -1.03045007      -1.40142734      -0.17846890      -0.16719499      -0.09545461
C        6.16400171       0.61738077       7.48973023      -0.95141693       0.91238424      -2.31876558      -0.12091630       0.09870765      -0.15477090
C        8.53623738       0.70818892       7.40577234       5.72003142       0.66809859       1.08388865       0.31976236       0.13473592       0.08015703
C       11.07148803       0.80005584       7.59277774      -2.46500916      -3.32221778      -0.53362115      -0.09361221      -0.23409844      -0.03548440
C       13.54727816       0.77606713       7.77568788      -6.86254919       0.77458905      -0.24167624      -0.50468559      -0.03378959      -0.02004783
C        0.01252692       2.90528648       7.70981845      -0.39971681      -4.18104054       0.64607760       0.05913683      -0.35631828       0.04815808
C        2.50660041       2.80733792       7.53604363      -1.08589411       2.27081760       0.83194496       0.18307403       0.25010030       0.06181984
C        4.93160410       2.73920743       7.60021922       0.03442553       2.82629312      -0.65317256      -0.01275540       0.32907492      -0.05047996
C        7.36132357       2.81919494       7.63338022       1.43503320       0.33908351       0.66224367       0.18399025      -0.12575099       0.04687632
C        9.79875011       2.99798412       7.72307978       1.50459620      -8.39923867      -0.48630257      -0.14457445      -0.64883414      -0.03361094
C       12.31301245       2.85479402       7.67001094      -3.50046002       2.23874823       0.57083761      -0.39600376       0.26778713       0.04153127
C       -1.22581024       4.92403487       7.72143360      -1.58822827       1.94201078      -1.14507679      -0.12635112       0.13215390      -0.08078290
C        1.28139825       4.94768124       7.50720031      -3.85182570      -0.13871076       1.00619068      -0.50580346       0.02065761       0.07224958
C        3.66364340       4.95997439       7.48126085       3.01302746      -0.04104381      -0.36910191       0.28076872      -0.12865223      -0.02860233
C        6.16129980       4.95694974       7.62740196      -3.75234894      -0.02260128      -0.21320873      -0.25246474       0.01081908      -0.01643160
C        8.55609740       4.95744781       7.73664856      -0.94942355       2.94467262       0.80227597       0.10878308       0.31392141       0.05893785
C       11.03030026       5.00692906       7.63333362      -2.84050901       2.13908815       0.25307857      -0.11153807       0.17939359       0.01775510
C       -2.45300123       7.06887611       7.61113274       1.59427808       1.81320443      -0.70289487       0.26812761       0.10168670      -0.05172095
C        0.06217544       6.98783344       7.61374273      -4.24219706       5.57165100      -1.16653856      -0.51498918       0.43375305      -0.08354784
C        2.49058417       7.00266365       7.35780798      -2.02519060       4.25432830       0.60027160      -0.28162298       0.20773181       0.04284351
C        4.92870960       7.07815556       7.48293096       0.44181348       2.01379238      -1.21004317      -0.12028538       0.06864513      -0.08727704
C        7.38629438       7.11601691       7.58410670      -2.88805950       0.67510510       0.46788010      -0.17414049       0.18875657       0.03272693
C        9.83450867       7.16641547       7.53966568       0.26069392      -0.72481686       1.17711813       0.17647392      -0.08286860       0.08561083
C       -3.62956270       9.24457747       7.42044020       2.39379629       1.15721959      -0.79416954       0.15252411       0.23480423      -0.05483759
C       -1.19892686       9.18174367       7.16720116       0.13142939       1.64464650       1.12192246       0.18518072      -0.01404767       0.08520835
C        1.24334095       9.20660615       7.32532591      -1.10658069       0.02299929       0.47871858       0.09872344       0.14305875       0.03414628
C        3.66358790       9.25440513       7.35355788       3.00988634      -0.27880400       0.11542711       0.18778734       0.02397028       0.00811987
C        6.12681081       9.23847274       7.40201095       3.97365845       2.98935608       0.83375605       0.18029729       0.15128554       0.05959844
C        8.59309072       9.20450630       7.43042265       1.50910026       2.88850816       1.10634415      -0.07925475       0.13610673       0.08090978
C       -4.93547534      11.38696512       7.23075349      -0.10213862      -4.20831043       0.54392330      -0.13438011      -0.36084502       0.04045557
C       -2.43342419      11.39171819       6.91161752       0.43626196      -7.45723866       1.09971739       0.00499179      -0.56125784       0.06781171
C        0.06514928      11.33046706       7.23099304      -3.24459798      -0.71257816       0.12277686      -0.23338189      -0.09967648       0.01235120
C        2.47455699      11.36009282       7.31941490      -0.36960354       1.51722237       0.62311096       0.14777283       0.10251786       0.04523674
C        4.90621537      11.42872853       7.49804193       0.49638952      -2.26058332      -0.28043434       0.11840041      -0.17408294      -0.02140867
C        7.34409923      11.37609004       7.58647408       0.97636074       1.31015061      -0.43444907       0.09749192       0.24160341      -0.03639141
72
Lattice="14.76 0.0 0.0 -7.38 12.782534959858314 0.0 0.0 0.0 15.0" Properties=species:S:1:pos:R:3:REF_forces:R:3:MLIP_forces:R:3 REF_energy=-11161.871035913706 MLIP_energy=9.814413777463235 config_type=s0_sscha_overlap_006 split=frozen_overlap_screen sscha_index=6 overlap_local_index=1 selection_group=high_Aprime_amplitude lattice_temperature_K=450.0 degauss_Ry=0.0019000869 kgrid=8 sscha_random_seed=453005 pbc="T T F"
C        0.09457727       0.02605382       7.25668951       0.28878348       0.27405260       0.58628608       0.03440703      -0.19260978       0.04142856
C        2.40976012       0.01777533       7.50289099       5.63688297      -1.34828187      -1.23828082       0.31857137      -0.01287615      -0.08967453
C        4.89160431      -0.01307988       7.61444767       0.75248425      -1.16520621      -1.26967270      -0.16676456      -0.09724530      -0.09438792
C        7.34922439       0.03044340       7.50431086       3.53526505      -4.48219000       0.29472401       0.29178813      -0.30744567       0.02221204
C        9.81796325      -0.01778426       7.24445145       1.34476794      -0.13630986       1.18899637       0.11886232      -0.03049396       0.09050171
C       12.38676922      -0.02817384       7.22120308      -1.37241142       4.34829775       0.35208867       0.06747218       0.44656791       0.02498645
C       -1.15049791       2.12614323       7.43455832      -1.70361141       2.81987462       0.37686227       0.08785205       0.30097717       0.02791032
C        1.17329877       2.16057550       7.64050814       4.90010688       3.78875705       0.49594009       0.34404324       0.33761816       0.03538859
C        3.71271349       2.14470923       7.72553069      -2.74805677       0.29846060       0.33471521      -0.22898117       0.00011754       0.02477839
C        6.09467093       2.06020691       7.75422968       2.06153417       1.48541140      -1.13374131      -0.08455664      -0.02596273      -0.08264388
C        8.54303371       2.14669941       7.62769834       3.25096326      -1.98166851      -1.65389450       0.07241118       0.02844652      -0.11919857
C       11.08577529       2.14564470       7.40729480       1.46110008      -2.28678183       0.04248902       0.19052495      -0.36900600       0.00500396
C       -2.55689295       4.31894699       7.46279849       7.20493348      -3.97482264       1.40431572       0.30643550      -0.22417126       0.09961090
C        0.02859303       4.31096507       7.90097482      -1.91854972       0.17834277      -1.10306008      -0.01676300      -0.08715977      -0.08009419
C        2.40691228       4.31378378       7.91947985       5.24809386      -1.89203419       1.24223955       0.69331442      -0.06943566       0.08937628
C        4.90477032       4.22215395       7.82540190       0.22434752       4.03478283       0.64420738       0.15183506       0.41747399       0.04876980
C        7.38737347       4.26652545       7.56975415      -3.26243578      -2.09152352       0.34379917      -0.09762279      -0.26690373       0.02576960
C        9.81549922       4.25470076       7.42282724       0.65991476      -2.07266036       0.85371012      -0.21033836      -0.11745758       0.06432921
C       -3.66332516       6.39393209       7.48647910      -1.38726725       0.30447209      -0.69597500      -0.24767926       0.01505082      -0.05052648
C       -1.21742198       6.42447612       7.65996041      -1.40656929      -1.67704266      -0.56595251      -0.28608938      -0.25203622      -0.04339618
C        1.12728715       6.40996506       7.80531083       2.83921548       0.37856897       0.52772072       0.23903952       0.03538196       0.03645308
C        3.62586829       6.39755996       7.74807001       0.88706941       1.53709829      -0.15533088       0.04576934       0.28706495      -0.01196020
C        6.17354895       6.37079932       7.51070222      -3.22633569      -0.95380934       0.43236982       0.04231551      -0.14391126       0.03107790
C        8.65244267       6.37730083       7.43257769      -3.28972110      -1.70697621       0.34754013      -0.28035713      -0.09351177       0.02716945
C       -4.86626264       8.49434834       7.40531955      -2.06210778       2.14767538      -0.74451177       0.01711039      -0.02752835      -0.05045345
C       -2.39934866       8.47269214       7.60735598      -5.21874138       1.92538037      -0.63093149      -0.13267911       0.22753377      -0.05064027
C       -0.05307245       8.62645617       7.58278371      -0.21049699      -5.62830526       0.05831699      -0.17284632      -0.27339640       0.00445139
C        2.41029040       8.53585107       7.42383210       1.30590289      -1.67472533       0.70040424       0.11464926      -0.29059397       0.05442678
C        4.89984142       8.48140748       7.12139724       1.07574339      -0.06619871       2.22817636      -0.23548475      -0.10089682       0.16327494
C        7.41016786       8.47909541       7.21403091      -1.64602770      -0.32707363       0.29137952      -0.15268085       0.07710527       0.02270651
C       -6.17095929      10.58329157       7.22123543       1.85706051       2.72660528      -0.13328599       0.12217414       0.40798106      -0.00842902
C       -3.66889564      10.63891996       7.41350804      -0.23250126      -0.07054541       0.26048283      -0.02241291      -0.01017659       0.02157814
C       -1.17947867      10.68429686       7.54100577      -5.36090693      -1.97050709       0.19721852      -0.24180608      -0.30544723       0.01225225
C        1.16906675      10.61550700       7.34400295       2.95110321       0.98043877       0.98111188       0.21780681       0.01370027       0.07077364
C        3.75384329      10.64066422       7.27060002      -1.41982821       0.93710951      -0.95712683      -0.06752702       0.19097655      -0.06843001
C        6.19621529      10.66743372       7.04893293      -0.80076391      -1.35439595       1.28641316      -0.03949555      -0.13417242       0.09210529
C        1.35820555       0.83988906       7.42845223      -6.60104383      -4.43719569      -0.51581369      -0.55911667      -0.36026025      -0.03275860
C        3.69623336       0.72405141       7.51921041      -0.82132682      -0.12248324       1.64760430      -0.12119045      -0.15708013       0.11783027
C        6.16765752       0.58412507       7.63169399      -4.31656211       6.59796416       0.94012079      -0.34148804       0.58012769       0.06349732
C        8.59041369       0.67534596       7.48734397       0.05512419       2.54198568      -0.22053200      -0.08264904       0.37391224      -0.01899185
C       11.09118553       0.68997265       7.28785859       0.28028624       0.32150771       0.00523939       0.12269336      -0.01074878       0.00066216
C       13.64443661       0.72316563       7.32049846      -1.41810146      -0.70188751      -0.65720276      -0.10028221      -0.20083032      -0.04625712
C        0.02397452       2.94072700       7.62420700      -1.22954807      -2.68435434       0.32885386       0.01731277      -0.29706493       0.02400926
C        2.45473090       2.89142070       7.82100531      -0.62564247      -1.35324127      -0.59857261       0.27041710       0.02875253      -0.04620411
C        4.90675787       2.86199838       7.84391339       0.66431186      -3.48613255      -0.60274577      -0.01401821      -0.10614985      -0.04422082
C        7.33028962       2.84534885       7.56767016      -0.48737909      -1.63142023       1.62472997       0.08829273      -0.32157266       0.11493243
C        9.87162507       2.80795455       7.51606851      -2.96947888       1.66545213      -0.27936167      -0.53128443       0.09073904      -0.02013833
C       12.34726677       2.84588006       7.45787147      -1.39987285       0.36938165      -0.56103811      -0.22462657       0.18456912      -0.03789057
C       -1.26235331       4.99265074       7.71631523       0.62341204       0.44592725      -0.28889172       0.06778693       0.06238764      -0.02176114
C        1.28652974       5.00693400       8.01198793      -6.38159220       1.56411467      -0.99284280      -0.79560384       0.17268247      -0.07441984
C        3.67793503       5.02339673       7.99958153       0.00179669      -1.89119833      -1.85242018       0.10227936      -0.30665816      -0.13364446
C        6.14285695       4.93514900       7.66469525      -0.16718830       1.12486123      -0.10405820      -0.06148369       0.11456132      -0.00912173
C        8.57690843       4.89023386       7.51435229       3.08624811       4.39313367      -0.84803930       0.45156592       0.44436107      -0.06201415
C       11.05036895       4.96043035       7.43932691      -2.98583496       2.88108899      -0.19989890      -0.10690687       0.17176697      -0.01529774
C       -2.43311765       7.11084735       7.48847626      -0.73333699      -1.93851357       1.16666171       0.16577804      -0.13282785       0.08488772
C       -0.03710024       7.13294072       7.63425076      -0.45720771       1.65692532       0.87189862      -0.22921913       0.18517944       0.05952870
C        2.33028431       7.11536262       7.70889008       3.61170986       0.78568747      -0.90139714       0.17815830      -0.08309012      -0.06595093
C        4.89873619       7.09342528       7.45508219      -0.39528577      -0.72432064      -0.04416795      -0.31214901      -0.09462875      -0.00119768
C        7.36129496       7.04654939       7.42726299       3.10072084       1.55913058      -0.97034667       0.19079556       0.22208995      -0.06984988
C        9.82265441       7.10998522       7.40598760       2.90666555      -1.58980950       0.59995484       0.39505167      -0.20515639       0.04496870
C       -3.66195409       9.21682094       7.54365725       0.21777681      -0.68470303      -0.88338091      -0.07329467       0.10273039      -0.06676197
C       -1.30966625       9.22853007       7.59468194       5.32374420       3.28985119      -0.14376580       0.60209632       0.07316150      -0.01265623
C        1.18595782       9.18850561       7.47121747       0.35283274       3.89289084      -0.68083686       0.22244659       0.46750494      -0.05046479
C        3.70822096       9.22497226       7.28238434      -1.40844491      -0.30132249      -0.44646975      -0.04316762      -0.00726753      -0.03201902
C        6.16698234       9.18921193       7.17168398       0.01225953       1.20066764      -1.49703973      -0.07358428      -0.00915319      -0.11151203
C        8.61423491       9.21179423       7.16806476       1.45699454      -2.05179560       1.31984778      -0.13341695      -0.21568367       0.09889014
C       -4.91656477      11.32275368       7.32230369      -1.11143159       1.12951056       0.70635274      -0.20058200      -0.03798512       0.05367674
C       -2.44336195      11.36968379       7.45898923      -0.40168550      -0.33708911       0.96380116      -0.05674657       0.03354881       0.06915961
C       -0.02083807      11.35723303       7.54613559       2.70008795       1.02977515      -1.49533072       0.13862199       0.01563408      -0.10595829
C        2.47720893      11.32276501       7.26270620      -1.16461023       0.05470742       0.10487118       0.12003312      -0.04209721       0.00922169
C        4.98575754      11.41671494       7.14453229      -0.65686595      -4.31643895      -0.09276437       0.01431470      -0.34022165      -0.00600934
C        7.40129208      11.36406179       7.18948587       1.11952799       0.44307307      -0.59276243       0.12086825       0.25121005      -0.04266460
72
Lattice="14.76 0.0 0.0 -7.38 12.782534959858314 0.0 0.0 0.0 15.0" Properties=species:S:1:pos:R:3:REF_forces:R:3:MLIP_forces:R:3 REF_energy=-11160.902952836752 MLIP_energy=5.44690880838758 config_type=s0_sscha_overlap_277 split=frozen_overlap_screen sscha_index=277 overlap_local_index=2 selection_group=high_committee_disagreement lattice_temperature_K=450.0 degauss_Ry=0.0019000869 kgrid=8 sscha_random_seed=453005 pbc="T T F"
C       -0.01709413       0.09306457       7.50115108       0.48327972      -1.55608665      -0.41845912      -0.00307321      -0.41777942      -0.02876271
C        2.47014006       0.07941174       7.55766840       0.43670881      -2.60453007      -0.10903611       0.04669076      -0.11568141      -0.00964813
C        4.96044851      -0.04863964       7.42554417       0.17798436      -1.05813931       0.08019862      -0.25996953       0.01317913       0.00674858
C        7.42626985      -0.02540395       7.35254161      -0.97346851      -0.90224741      -0.69560245       0.06805041      -0.05415384      -0.04834317
C        9.86495674       0.04900139       7.38206341      -0.69757011      -5.33272147      -0.78100858      -0.08991779      -0.50363558      -0.05677062
C       12.20356216       0.00438707       7.49435557       6.42589720      -2.24929875       0.45093730       0.53461680       0.08030419       0.03241579
C       -1.33857186       2.13129532       7.52521571       2.99439570       0.67790683       0.24476054       0.54786071       0.16379001       0.01637426
C        1.20925774       2.25206939       7.64690225       1.32139919      -3.19217370      -1.07953860       0.08626241      -0.09800459      -0.07796795
C        3.78298555       2.14162434       7.52295515      -2.68954540      -1.48495709       0.74902637      -0.26505410      -0.20592841       0.05078986
C        6.22295801       2.11115822       7.29661618      -3.37665549      -1.37150125       0.80703252      -0.54030412      -0.32879243       0.06078507
C        8.59430156       2.12677719       7.47175585       2.14867605      -0.58271148      -1.85587343      -0.07052025       0.22348040      -0.12761818
C       11.02413307       2.12938964       7.42035478       1.49926168       0.19184312      -0.28170626       0.28585873      -0.21531020      -0.01945020
C       -2.46801667       4.28246404       7.57260735       0.15338070      -1.00194502      -0.93094992      -0.25964701       0.07424243      -0.06721096
C       -0.02366792       4.32059849       7.51590735       1.26781817      -1.25451065       0.69509517       0.14997349      -0.31031402       0.04892483
C        2.46426904       4.32236428       7.50358915       0.06481905      -2.45132781       1.03089281       0.33406659      -0.04398569       0.07015742
C        4.98610728       4.23632646       7.46241006      -1.37738573       0.22686437      -0.29233983      -0.00552554       0.25297902      -0.02129480
C        7.43238689       4.22164419       7.44669777      -0.11725645       0.79660335      -0.06848905       0.25949439      -0.05294291      -0.00296215
C        9.83448934       4.25774809       7.53477357      -1.10720624       1.49970879      -1.34827441      -0.38510584       0.03713370      -0.09894601
C       -3.67437225       6.29381418       7.69234714      -1.39787176       6.70927364      -0.82518656      -0.30718063       0.55827160      -0.06098599
C       -1.35593121       6.48165427       7.60947834       4.81316143      -2.75577856       0.73970638       0.11159974      -0.41917705       0.05025149
C        1.16489165       6.42735145       7.69213809       0.16607424       0.23983122      -1.39223179       0.15421797       0.03646424      -0.10222337
C        3.69185269       6.38675577       7.44996686      -4.49606264      -3.05006780       0.30829944      -0.39910777       0.05366580       0.02543477
C        6.11842789       6.32035573       7.39148162       0.49944553       0.34449826       2.63586359       0.43037905      -0.07231992       0.19349845
C        8.64647529       6.41533997       7.61351575      -1.84732065      -1.12531632       0.12151162      -0.24074084      -0.15973746       0.00791253
C       -4.89563101       8.43078816       7.67491498      -0.25568155       5.94685183      -0.48889244       0.11345235       0.14525289      -0.03977992
C       -2.40758103       8.58309275       7.54211039      -3.25148802      -1.00978277       1.04754610       0.13641627       0.00644572       0.07290717
C        0.00854274       8.51539210       7.63457706       0.31995888       0.09358147      -0.45923811      -0.18176512       0.26838324      -0.03196704
C        2.44503121       8.51592779       7.39314308      -0.08377065      -0.46893014       0.25415638       0.12298099      -0.20624314       0.01720850
C        4.90108666       8.55030525       7.49373956       1.09281629      -3.43678177       0.55018188      -0.29099165      -0.46776679       0.03877975
C        7.34734554       8.38645093       7.60026464       1.30113349       7.35823911       0.33701146       0.07041787       0.77025781       0.02793221
C       -6.11992862      10.65130011       7.46190023      -1.30641171       1.61262830       0.37055407       0.00287969       0.32008791       0.03005620
C       -3.69329914      10.68649061       7.54373066      -3.21608033      -4.23779302       0.80080787      -0.28638146      -0.24699917       0.05957775
C       -1.21823429      10.63759655       7.52704492       1.61710896      -0.52563119      -1.54965221       0.19373328      -0.23766045      -0.11504149
C        1.23394531      10.65944928       7.33955510       1.00350028      -1.89557589      -0.07661168       0.02719453      -0.29446952      -0.00261039
C        3.70842512      10.62309387       7.29738876      -0.28221277      -0.30185471      -0.35767002      -0.03958414       0.19041131      -0.02502612
C        6.11978693      10.67471516       7.49898380       1.48059727       0.18024847      -0.57357841       0.24659372      -0.02963595      -0.03547056
C        1.28365060       0.80514235       7.50254753      -3.24436092       0.46436540       1.14706605      -0.34394962       0.08737168       0.08011714
C        3.75258790       0.64489058       7.54775723       0.13725654       3.69855709      -0.56419671      -0.04768036       0.05288925      -0.04045412
C        6.20896219       0.66956732       7.29804807      -1.24637517       0.68595978       0.60217139      -0.00853709       0.15710367       0.04456603
C        8.61969678       0.65892369       7.40965487       1.08287743       3.56846030       0.05399779      -0.06852541       0.54557189       0.00531523
C       11.08845875       0.66826350       7.47675696      -5.00213159       4.96601145      -0.71791731      -0.22317855       0.30714433      -0.04928159
C       13.45068409       0.74948072       7.59295193       0.94838431      -1.67141812      -1.00575642       0.00255180      -0.39460259      -0.06957343
C       -0.06795801       2.84002938       7.51081129       0.39221253       2.60666383       0.66244859       0.07153025       0.00263232       0.04695250
C        2.51470070       2.86680178       7.65298023      -0.98778904       1.32571016      -1.20035988       0.34338932       0.22115728      -0.08719493
C        4.97418933       2.84326542       7.45344713       1.19903139      -1.14168653      -0.64305630      -0.03116773       0.17311072      -0.04566454
C        7.38257524       2.80492216       7.38159729       2.56337545       1.07845179       0.41793822       0.42448685      -0.11383875       0.02924636
C        9.87102728       2.91498488       7.27371269      -3.14497313      -4.51234313       2.61917765      -0.58929798      -0.44574764       0.19123202
C       12.23841777       2.83779878       7.47797957      -0.10372910       1.75537697       0.37716952      -0.12916026       0.28965808       0.02584325
C       -1.20937439       5.02404175       7.60302831      -3.95548563       0.40047940      -0.39249021      -0.16970880       0.04793721      -0.03164994
C        1.23342093       5.05489067       7.58581227      -1.21481848      -3.01583356      -0.16583615      -0.43810750      -0.09235866      -0.01375223
C        3.69998823       4.91887630       7.47381538       1.96776012       2.68362415      -0.27034610       0.18912417      -0.05290301      -0.01642052
C        6.23896225       4.90886963       7.40170069      -3.05285899       1.25111191      -0.07373641      -0.32224413       0.03804991      -0.00253137
C        8.60455709       5.00092020       7.56111652       1.49984557      -1.34574805      -0.19831047       0.29039821       0.12626407      -0.01306642
C       11.02451093       4.94814348       7.51349995       3.18748658      -0.35462737       1.39149080       0.44365657      -0.06989146       0.09696486
C       -2.50249823       7.19273037       7.67450798      -0.98280084      -3.10779395      -0.58835376       0.26540452      -0.21025629      -0.04823870
C       -0.09027984       7.11734891       7.66962185       1.34465893       0.34827495      -0.01344147      -0.15673119       0.19879237      -0.00146846
C        2.39258181       7.08024497       7.46003390       1.89308963       1.75887162       0.80045615      -0.00016796      -0.09808614       0.05979504
C        4.84528145       6.99798901       7.60411387       4.94884522       4.72325252      -2.07068910      -0.00474733       0.23677475      -0.15214397
C        7.33433119       7.03773273       7.65259260       1.08420026      -0.92060791      -1.63929141      -0.01989393       0.12832740      -0.12280279
C        9.87926570       7.12258429       7.62297398      -0.95018691      -6.91580728       0.82155462       0.22094184      -0.58650749       0.05954664
C       -3.73283146       9.15078033       7.62437385       4.07083561       4.85239543      -0.72172588       0.14770887       0.62156416      -0.04891152
C       -1.15934614       9.23239934       7.51298711      -2.25910879       1.09864241       0.72448313      -0.00610696      -0.17556819       0.05376217
C        1.20854015       9.23961006       7.53686472       1.85419167      -0.32372220      -1.04577127       0.45522296       0.17635140      -0.07838823
C        3.72289739       9.20297546       7.27692769      -2.23177642       0.36764410       0.97218861      -0.16933217       0.16314265       0.07149045
C        6.13680962       9.24136203       7.58619371       0.70564440      -1.54508696      -0.71449209       0.08100636      -0.22633540      -0.05708659
C        8.71636066       9.26723701       7.57360254      -4.59475033      -4.14790545       0.29220433      -0.70615057      -0.53090268       0.02161572
C       -4.92985860      11.40866879       7.56910574       0.78244120       0.46910754      -0.76841815      -0.11644073      -0.19276481      -0.05476913
C       -2.47740590      11.24832616       7.49561198       2.77179859       4.80032699      -0.12210863       0.27988539       0.41803151      -0.00672482
C        0.04031418      11.34564254       7.31022533      -2.23018362       0.56960168       1.45502842      -0.28129807       0.09006210       0.10749739
C        2.49683085      11.28850955       7.21447695      -1.26875662       3.99959625       1.31357892       0.21951865       0.26331852       0.09305757
C        4.88559814      11.36812286       7.43004831       0.43750714      -0.12370683       0.11872429       0.04175551      -0.14142879       0.00912395
C        7.35460272      11.41388698       7.37912957       0.80721326      -0.37461436       1.50737531       0.05797431       0.27212520       0.10632209
72
Lattice="14.76 0.0 0.0 -7.38 12.782534959858314 0.0 0.0 0.0 15.0" Properties=species:S:1:pos:R:3:REF_forces:R:3:MLIP_forces:R:3 REF_energy=-11161.321944065472 MLIP_energy=4.08033223214369 config_type=s0_sscha_overlap_087 split=frozen_overlap_screen sscha_index=87 overlap_local_index=3 selection_group=typical lattice_temperature_K=450.0 degauss_Ry=0.0019000869 kgrid=8 sscha_random_seed=453005 pbc="T T F"
C        0.00810522       0.00535374       7.27357441      -2.05915101       2.19385162      -0.02356287      -0.06876392      -0.13666666       0.00239995
C        2.38521934      -0.01976030       7.50171864       2.94235426       0.70235056      -1.78164928       0.20173955       0.23024360      -0.12354828
C        4.93477266      -0.03412090       7.43283157      -1.00170359       2.51885835       0.18538939      -0.42602071       0.18413802       0.01469620
C        7.40056582       0.07875577       7.46061594       0.19713136      -2.04490479       0.71174846       0.09088942      -0.25007532       0.05275813
C        9.87776222      -0.05363261       7.51613747      -2.43495785      -0.03104221       0.12375234      -0.31116727      -0.01584499       0.00775385
C       12.30700051      -0.00683123       7.30385231      -1.98318623      -1.84742427       0.79343524       0.08729407       0.08551884       0.05839163
C       -1.27723062       2.13295810       7.41908593       0.88857634      -0.82585633       1.04491432       0.32126029       0.17172363       0.07720276
C        1.20189618       2.08705593       7.41361408       3.08361684       1.84203678       0.01008284       0.17052853       0.19934312       0.00127287
C        3.74341341       2.13368251       7.47377980      -2.37045144      -1.07222587      -0.48595881      -0.10622640      -0.21703046      -0.03277121
C        6.14485151       2.13700244       7.55558949       1.29913780       0.53456089      -1.05352572      -0.24030868      -0.10603731      -0.07192811
C        8.61189497       2.21908968       7.55094672       2.88135252      -6.26244703      -0.57963258       0.07912847      -0.18614827      -0.03997630
C       11.07571567       2.04731887       7.78719984      -1.93359196       2.60591718      -1.65310209      -0.02010658      -0.11204688      -0.12165139
C       -2.45441669       4.24883849       7.65103025      -3.95132636       0.99628062       2.72136846      -0.60312809       0.12918153       0.19048418
C       -0.01102029       4.22287744       7.80260229       0.40756330      -0.02743059      -1.96461489       0.06790141      -0.18668190      -0.14714922
C        2.46621434       4.27982842       7.61854121      -2.46983178      -2.74641846      -0.46749340       0.14727110      -0.03090700      -0.03434014
C        4.95503224       4.25434666       7.42542864      -1.89635905       1.41401881       1.83627905       0.05970252       0.33790556       0.13134057
C        7.44898142       4.26959187       7.55176898      -3.93701020      -0.00778813       0.01162241       0.00660687      -0.19843940       0.00114736
C        9.83711353       4.26873088       7.86414763       0.14355086      -0.26631692      -1.28353146      -0.33495554       0.02812900      -0.09266075
C       -3.71527909       6.41152272       7.99236164      -0.04740060       3.57235501      -1.27921793      -0.24654972       0.25124852      -0.09390820
C       -1.24929703       6.34190833       7.75761375      -0.65456944       3.16681105      -1.14638317      -0.17375765       0.01151751      -0.08398722
C        1.20055980       6.41519918       7.55758695      -0.94011744      -1.28113443       0.05982546      -0.00299350       0.01387985      -0.00096630
C        3.66218908       6.38710767       7.44226066       1.26434358      -1.44585395      -0.19332896       0.09279498       0.14798124      -0.01305976
C        6.14811359       6.33579327       7.39183567      -2.66824689       4.90820611      -0.12116118       0.13884035       0.13328257      -0.00317997
C        8.61637726       6.40423994       7.56864005      -1.46752346       2.58429266       0.16955963      -0.26409967       0.21024386       0.01074936
C       -4.95045120       8.53330542       7.49579713       0.24785614       3.58292636       0.64387185       0.19366653       0.09768493       0.04711792
C       -2.40547757       8.52997144       7.60580812      -3.11219156       2.79230031       0.64961981       0.11090484       0.37160320       0.04463683
C       -0.01855274       8.56607611       7.47466151       1.00673961      -1.19131371      -0.32965451      -0.19617768       0.06058125      -0.02268876
C        2.49721917       8.46253149       7.34775729       0.26802465       1.58996762      -0.29073623       0.12067123      -0.19242118      -0.01925572
C        5.01067296       8.52289310       7.30518622      -3.52009631      -2.28000723       0.98791682      -0.70165692      -0.24359392       0.07627601
C        7.37165206       8.48626750       7.31332104       1.13291444      -0.45912266       0.04468680       0.10401807       0.16357472       0.00479033
C       -6.15813366      10.70341275       7.25289246       0.43152496      -2.66190784      -0.48090145       0.05985827       0.11662737      -0.03616552
C       -3.67609244      10.64119290       7.41876627      -1.32722531       1.98360275       0.70268789      -0.25342156       0.13397125       0.05126710
C       -1.22975832      10.70472882       7.42414260      -0.21132360       0.14428851       1.93119518       0.19314944      -0.29337322       0.14357615
C        1.17984751      10.67898595       7.39410580       3.04966156      -2.77572903       0.86384875       0.11687837      -0.27172006       0.06481565
C        3.74924069      10.61103700       7.38846276      -1.87601673      -0.62936723      -0.24227248      -0.01603473       0.18823641      -0.01733228
C        6.23168087      10.64429565       7.18811832      -2.08441827      -0.22970159       0.85854894      -0.06578613      -0.13109753       0.05903883
C        1.17679002       0.70274943       7.40833459       1.96618609       0.12773266      -0.08563599      -0.02691730       0.01005259      -0.00469391
C        3.68444906       0.68170253       7.44600809      -0.22942365       0.46058331       0.61345930       0.08274492      -0.18561086       0.04422973
C        6.15681566       0.74444145       7.40075346      -0.47074688      -0.58246542       1.02824612      -0.00690844       0.15553937       0.08056512
C        8.64653291       0.73524731       7.51607326      -0.22966559      -0.13082313      -0.06138149      -0.02792050       0.19017370      -0.00507783
C       11.03979842       0.67566866       7.58786371       3.42911422      -0.89956163      -0.69387801       0.26096086      -0.19525142      -0.05096794
C       13.50372064       0.66249014       7.32115845       0.68928756       3.06310715      -0.27577344      -0.08922444       0.07609336      -0.01823784
C        0.02283030       2.79593917       7.48449589      -3.00563811       1.73290810       1.01231659      -0.07693926      -0.06932535       0.07015880
C        2.50960342       2.83577485       7.40516393      -2.43904642      -0.25245482       1.58672958       0.15520183       0.21656600       0.11213275
C        4.92275649       2.86643757       7.52523822       2.15107592      -0.79680698      -0.35118750       0.00054758       0.06138815      -0.02713466
C        7.44295456       2.81542759       7.53075512      -5.11280730       3.96758602       0.40465950      -0.14873208      -0.02734105       0.02646150
C        9.84329989       2.79923269       7.60322213       1.99205859       3.53977759       2.73181793      -0.21231361       0.18511548       0.18763777
C       12.23601727       2.85126924       7.68199149       2.51902778      -1.91064281      -1.00075151       0.11134145       0.14527319      -0.07204442
C       -1.27134173       4.92738744       7.72220617       2.59897341       0.64258167       0.40830841       0.26560408       0.16374872       0.02946952
C        1.20124022       4.98140375       7.75335139       0.22248836      -0.14599238      -0.72457647      -0.41687574       0.03942466      -0.05793755
C        3.64984923       4.91189794       7.56107585       3.87572924       3.65081839      -1.19696036       0.39743292      -0.01271973      -0.08384246
C        6.14881648       5.04057287       7.54391738       1.56830454      -7.73267246      -0.92724779      -0.06049760      -0.48840056      -0.07187251
C        8.59815593       5.00936773       7.63722994       2.68455669      -0.88934330       0.87424732       0.48237446       0.15519519       0.06021026
C       11.03612884       5.03747662       8.01451472       1.21909988      -3.56125890      -2.09524879       0.27503122      -0.38469878      -0.14198077
C       -2.50850884       7.15957859       7.73182396       2.62088640      -3.50815791       1.26270039       0.48308800      -0.12580937       0.09160710
C       -0.03952093       7.13695284       7.55165247      -0.40794768      -1.60014508       0.93887971      -0.32865804      -0.04640923       0.06338698
C        2.42621756       7.04962156       7.33452012       1.22247856       1.13274038       1.22282669       0.05613844      -0.13800274       0.09008506
C        4.92981051       7.08862853       7.35612434      -1.39019085      -0.49862175      -0.00502316      -0.46227451      -0.13034039       0.00371787
C        7.26155269       7.10054286       7.35050374       7.44810431      -1.29529323       0.91922543       0.53935411       0.11440684       0.07097796
C        9.85438107       7.21352041       7.78197080      -2.39815996      -5.40511705      -0.45253730       0.06926312      -0.60406471      -0.03839652
C       -3.72799189       9.29001685       7.64155129       1.93939108      -2.64278577      -1.74051111      -0.07552504      -0.00138835      -0.12439775
C       -1.21672631       9.32491349       7.52404529      -0.08940009      -2.98738585      -0.54069425       0.27228459      -0.49673248      -0.03911467
C        1.26767831       9.16414990       7.34248677      -1.63835579       3.13849421       0.62468525       0.14252176       0.51658984       0.04598931
C        3.76590484       9.21584995       7.40079009      -1.05581040      -1.63360901      -0.92211895       0.08095991      -0.02105127      -0.06500866
C        6.20804788       9.14450115       7.38328104      -0.58099244       6.32767077      -1.90297604      -0.04455018       0.29156554      -0.13879656
C        8.55499505       9.24030493       7.29020329       2.15402215       0.16986224       0.34687961      -0.20649896      -0.03613012       0.02734513
C       -4.94084283      11.36106328       7.28810100       1.40826828       0.28242437       1.49744288       0.05363491      -0.21268133       0.10611002
C       -2.45850560      11.37566547       7.52866816      -0.18966154      -0.89907004      -1.54389243      -0.01307435       0.09419356      -0.11056346
C       -0.02006597      11.39618430       7.58803307       1.15355012       1.31569005      -2.42356478      -0.09075953       0.03420366      -0.17847380
C        2.49466934      11.27518392       7.44012783      -1.59155451       2.60929124      -0.15257466       0.12628523       0.05474890      -0.01213952
C        4.92126780      11.31992268       7.22460292       3.20881439       1.33611721       0.40425532       0.19516063       0.05928973       0.02979657
C        7.43883733      11.45847597       7.17637658      -2.53966397      -5.17181078       0.24622684      -0.09421001      -0.08214261       0.01565285
72
Lattice="14.76 0.0 0.0 -7.38 12.782534959858314 0.0 0.0 0.0 15.0" Properties=species:S:1:pos:R:3:REF_forces:R:3:MLIP_forces:R:3 REF_energy=-11161.551402971463 MLIP_energy=9.994524076183122 config_type=s0_sscha_overlap_272 split=frozen_overlap_screen sscha_index=272 overlap_local_index=4 selection_group=typical lattice_temperature_K=450.0 degauss_Ry=0.0019000869 kgrid=8 sscha_random_seed=453005 pbc="T T F"
C        0.05090590       0.00947181       7.52791675       0.80672733       0.81173301       0.22874591       0.09191081      -0.10411819       0.01920396
C        2.47682323      -0.06824099       7.34292351       0.48732895       1.68643721      -0.00238624      -0.11219850       0.19007401       0.00001940
C        4.88368852      -0.08979156       7.25471623       1.88998400       4.28772513      -0.39271133      -0.03601142       0.26390219      -0.02698069
C        7.39722553      -0.08432042       7.32017483      -0.67679971       0.48782363       0.39820989      -0.05840278       0.05370771       0.02997481
C        9.87912008       0.05504521       7.46332039      -0.86299875      -0.18751750       0.29699224      -0.01789005       0.02243958       0.02214848
C       12.39990851       0.03471764       7.56144706      -4.14778358       0.61803021       0.06868136      -0.11367699       0.12143529       0.00376785
C       -1.14911880       2.11473994       7.56513496      -2.72805821       3.37766285      -0.11828206      -0.05183726       0.34744340      -0.01263828
C        1.32741641       2.13100987       7.32642844      -1.50175590       0.47113383       1.20446953      -0.10722199       0.04115513       0.08888120
C        3.62686355       2.14306279       7.32616295       3.62899975      -2.70924082      -0.12198496       0.26362406      -0.16771072      -0.00889525
C        6.14027865       2.14632436       7.41782855      -0.36322026      -3.83140265      -1.72859508      -0.25204506      -0.35647351      -0.12739941
C        8.60244932       2.01429860       7.45746960      -0.49836824       3.77041583      -0.58442358      -0.15861556       0.40247316      -0.04212826
C       11.12593581       2.15258174       7.43324958      -2.58439911       0.56264325       1.13290082      -0.16561651      -0.17867044       0.08430351
C       -2.42267815       4.22367670       7.61535528      -3.40477848       5.91760887      -0.72461040      -0.46389195       0.43532151      -0.04522788
C       -0.00505675       4.28373025       7.61848085       1.64014244      -0.35179659      -0.73028226       0.28995757      -0.15402468      -0.05448558
C        2.51948005       4.30290107       7.43308868      -0.35468702      -1.16723815       0.84319534       0.16835036       0.02488755       0.06328835
C        4.93174318       4.23019019       7.48061659      -0.58910247       0.16284879      -1.07127507       0.13270452       0.09959351      -0.07673369
C        7.39499098       4.21149546       7.36941573      -4.09299980      -0.72848171       0.65676233      -0.21694227      -0.14315404       0.05019647
C        9.74136882       4.24051978       7.60927931       3.07122772      -0.58169564      -1.20977269      -0.00148331       0.03507380      -0.08489751
C       -3.78663021       6.41124685       7.49277906       2.07057442      -0.87697809       0.00495246       0.02415657      -0.13055148       0.00068977
C       -1.33150278       6.43927916       7.52463855       0.38634399      -0.01552381       0.16076851      -0.11352853      -0.09034770       0.00927118
C        1.15095484       6.39910291       7.59855358       1.45842742       1.18761158       0.35938571       0.07718639       0.10385835       0.02255928
C        3.59053203       6.42854589       7.39351631       2.31741884       1.45867964       1.21896746       0.18839073       0.23163605       0.09009733
C        6.16418157       6.34896717       7.49546299      -3.55071429       2.87403336      -0.09283534      -0.06013773       0.14582170      -0.00819945
C        8.58614201       6.33589009       7.46976479      -0.67099519       2.67600186       0.80426729      -0.06906193       0.27986458       0.05581054
C       -4.92148928       8.48304485       7.60964015       0.72964154       1.70862815      -0.31355143       0.24945316      -0.02148938      -0.02141555
C       -2.46564018       8.50430680       7.43405559      -1.58276828       0.41813928      -0.38279561       0.06455306       0.11961216      -0.02574188
C       -0.00286576       8.49049096       7.65726789      -1.06506277       4.96940839      -1.97492013      -0.19737221       0.45131791      -0.14399908
C        2.40822009       8.56501300       7.61776046       1.75278427       2.95009637      -0.72858199       0.08739618       0.05904581      -0.05241620
C        4.90367236       8.60565897       7.62240676       1.76267325      -3.56021632       0.08402725      -0.15998416      -0.31157567       0.00659264
C        7.38434030       8.54464310       7.63791455       1.46601011      -2.80074535       0.47886822       0.09249991      -0.16289151       0.03318937
C       -6.12710410      10.70753772       7.69067714       3.05563629      -4.24581049      -0.41758546       0.20617483      -0.14788514      -0.03054563
C       -3.64016723      10.59135301       7.34759117      -2.32812157       1.17317406       0.69143855      -0.15057695       0.03843525       0.05037520
C       -1.25222323      10.60744418       7.44945502       2.91180930      -0.43126810      -1.12103852       0.37806812      -0.12655876      -0.07971545
C        1.24291965      10.68675823       7.47453437       0.64040600      -0.71932139       0.92626408       0.07282654      -0.04802458       0.06486454
C        3.70948884      10.66447192       7.64761230      -0.10503059       2.57627365      -0.41369924       0.05216935       0.25597428      -0.03061833
C        6.25314852      10.68618248       7.72845050      -4.13682862      -1.99965851       0.89624517      -0.33570163      -0.18379189       0.06615854
C        1.34902293       0.69855133       7.38416271      -5.19514688       0.44132934       0.25410187      -0.40887278      -0.05668015       0.01784554
C        3.60774362       0.68711315       7.27133441       4.65666326      -0.28160907      -0.14650403       0.31752352      -0.12451688      -0.00774929
C        6.22613373       0.68273847       7.22443533      -4.29916551      -0.70630801       1.42211238      -0.41586328       0.04234344       0.10021400
C        8.57592201       0.66878391       7.42902248       2.31022746      -1.84991695      -0.34198963       0.10486280       0.02831249      -0.02444895
C       11.10606424       0.76730511       7.46052567       1.64941899      -2.07072303       0.18960523       0.17203595      -0.18742234       0.01257080
C       13.56049283       0.76809677       7.54540865       3.10479810      -3.02628355      -0.06378907       0.24863991      -0.32746034      -0.00374640
C        0.05257763       2.80696465       7.47250281       0.43829878       2.03080769       0.48430790       0.16717485       0.09614309       0.03336234
C        2.52449591       2.89770024       7.40968790      -3.39734773      -0.41095253      -0.85857491       0.01487419       0.09582079      -0.05791584
C        4.87405121       2.78446374       7.37176643       1.58888596       1.99920831       0.71908099       0.08327060       0.24688750       0.05406419
C        7.37246343       2.75633143       7.37221517       1.09287131       2.78019196       0.75411818       0.14478589       0.01851129       0.05260858
C        9.82944106       2.77011546       7.48847992      -0.30259673       2.17186432       0.28349858      -0.32815401       0.18123934       0.01877252
C       12.27486202       2.90092219       7.63542248       3.96159972      -4.23303956      -0.96289279       0.24444837      -0.20938865      -0.07215205
C       -1.27103220       5.04316584       7.55230027       2.27707078      -2.71637229       0.79812364       0.12896941      -0.17488162       0.05275773
C        1.31628311       4.96096590       7.64259261      -4.53600062       1.74340823      -1.14935485      -0.57980909       0.09971736      -0.08833121
C        3.72987747       4.96574211       7.41995127      -0.91984172       2.37790610       0.00277628       0.06550236       0.06425914       0.00188825
C        6.13275669       4.97754041       7.43911820       1.20959322      -3.14716885      -0.20315237       0.07328871      -0.15140897      -0.01390087
C        8.50416977       4.94775000       7.51168245       4.44545511      -0.38414287      -0.22767607       0.56885652       0.05082794      -0.02116845
C       11.02889757       5.02137843       7.53419689      -0.88963023      -4.01890061       0.78824546      -0.01866788      -0.33564403       0.04957880
C       -2.58291002       7.11400247       7.44563870       3.08635429      -0.20404120       0.45338653       0.37536611      -0.00869457       0.03462358
C       -0.08194062       7.14782600       7.62591419       0.65275784      -3.91767473      -0.08827651      -0.12321306      -0.26036798      -0.01004716
C        2.35057946       7.23559463       7.52700545       0.81660268      -6.74093652      -0.15646140       0.00666400      -0.57539971      -0.00832059
C        4.83208837       7.17592302       7.51203326       1.71258893      -2.45013739      -0.27451591      -0.09811991      -0.16582918      -0.01941855
C        7.35813433       7.04698023       7.49693595       1.22260249       2.39115474       0.34908125       0.09229060       0.23141579       0.02710374
C        9.81523674       7.11906512       7.55258742      -2.82753265      -2.67838450      -0.38984609      -0.09072860      -0.28870572      -0.02762145
C       -3.70475692       9.19868078       7.47529458       1.17583310       0.36573557      -0.17859911       0.03318855       0.10141547      -0.01115670
C       -1.25032550       9.22027750       7.38878882       0.88579029      -1.76503018       2.02228062       0.30747712      -0.24817960       0.14723003
C        1.21024996       9.29546844       7.58088116       0.17373587      -2.11190568       0.70264830       0.15637869       0.03789350       0.04801587
C        3.71679288       9.24665616       7.57062179      -3.18883332       2.40021376       0.88208507      -0.19926736       0.24735141       0.06449280
C        6.17994593       9.20960207       7.78794593      -0.21905953       3.24130697      -1.26300661      -0.13758937       0.12398955      -0.09103002
C        8.67843454       9.20404867       7.70538430      -3.74272170       2.55409814      -0.28633965      -0.47135420       0.15213666      -0.02006785
C       -4.89454472      11.35851100       7.45384375       0.82375677      -2.82798131       0.10035478      -0.03310358      -0.29273111       0.00745291
C       -2.40993896      11.31054527       7.28690821      -3.04618929       0.24253602       0.28551998      -0.29126131       0.07574801       0.02312105
C        0.01550357      11.26094747       7.44149287      -2.09723085       3.41290625      -0.66365778      -0.18818820       0.15604370      -0.04685621
C        2.44765281      11.45782968       7.56312543       2.55739970      -3.34037800      -0.40809552       0.33595368      -0.27887199      -0.02913047
C        4.98104912      11.43604069       7.68519093       0.17514920      -2.90612253      -0.30159271       0.08678650      -0.19046982      -0.02194813
C        7.43720366      11.34614067       7.72051115      -0.18781986       3.69612946      -0.85281332       0.05862891       0.43079091      -0.06004689
72
Lattice="14.76 0.0 0.0 -7.38 12.782534959858314 0.0 0.0 0.0 15.0" Properties=species:S:1:pos:R:3:REF_forces:R:3:MLIP_forces:R:3 REF_energy=-11164.453607947115 MLIP_energy=5.39722745988645 config_type=s0_sscha_overlap_152 split=frozen_overlap_screen sscha_index=152 overlap_local_index=5 selection_group=low_Aprime_amplitude lattice_temperature_K=450.0 degauss_Ry=0.0019000869 kgrid=8 sscha_random_seed=453005 pbc="T T F"
C       -0.04058356      -0.09688515       7.41017293       3.31470785       6.99305607       0.15428804       0.23909958       0.29500499       0.02304932
C        2.46116582      -0.03660207       7.48973026       0.29570823       1.25477779       0.39920799      -0.03581346       0.16911412       0.02760477
C        4.93802645       0.03179782       7.49963745       0.14484181      -2.47237820       0.21092045      -0.20847847      -0.18993476       0.01613767
C        7.37497694       0.00872566       7.40803819       2.42289989      -2.74638632      -0.42701576       0.21305069      -0.19787557      -0.02082172
C        9.86544633       0.01966306       7.41428261      -1.17712353      -0.51215655       1.25657833      -0.08892759      -0.05259527       0.08692013
C       12.34892091       0.03280524       7.56832159      -1.80680598       0.22615218      -0.48957635       0.02419382       0.14621098      -0.03771159
C       -1.22388922       2.10464319       7.50026494       0.85706670       1.36125103       0.03365728       0.27254822       0.20972704       0.00288241
C        1.19543381       2.09794138       7.56533088       3.19814663       0.35662409      -0.43429018       0.18909824       0.10407992      -0.03347474
C        3.66771003       2.12617464       7.52706006       1.75120845      -0.95742174       0.95755261       0.14855491      -0.19023733       0.06695362
C        6.14364417       2.13136816       7.55316057       2.16057666      -1.54731251       0.04703653      -0.08799304      -0.26587289       0.00208805
C        8.60332144       2.16616786       7.46612469       0.89232115      -4.26995135       0.41841233      -0.08197255      -0.10300502       0.03678916
C       11.03209454       2.15564068       7.56781870       1.87409998      -2.49475271      -0.43320929       0.21102199      -0.38944866      -0.03090955
C       -2.47679905       4.20733027       7.69626456       1.99844650       2.98848139      -0.88431088      -0.05577765       0.27953545      -0.06751626
C       -0.02464219       4.26654577       7.66902141       1.68502002      -1.42377460      -0.52021130       0.15421571      -0.26988425      -0.04036560
C        2.44855637       4.27899660       7.56503963       1.40833975      -1.62149038       0.68163416       0.29512940       0.01677722       0.04715022
C        4.90290804       4.24326479       7.67526926       1.59210447       1.77101031      -1.44724723       0.26412672       0.25106083      -0.10593644
C        7.40168466       4.28172563       7.46586988      -0.89248030      -1.34097865       1.83482535       0.13842024      -0.18595052       0.12424115
C        9.89110059       4.21718228       7.50525810      -2.64559368       1.95656863       0.50177675      -0.43008324       0.16537525       0.03447041
C       -3.69875142       6.37232712       7.44372850      -0.28342196      -0.26198050      -0.58648072      -0.18192174      -0.01819035      -0.04172140
C       -1.21689563       6.40174534       7.57292876      -1.79987531      -0.04462612      -0.50249332      -0.28208940      -0.16407278      -0.03802169
C        1.25299856       6.37105453       7.53357179      -2.39149001       0.52039025       1.09562650      -0.17005374       0.06114113       0.07895765
C        3.64952922       6.41769786       7.50259294       2.01568086      -0.00140434       0.82524210       0.15194753       0.17282872       0.05802161
C        6.16339836       6.38873141       7.54441908      -0.94242707       1.76314402      -0.36965547       0.20682128       0.05571750      -0.02489472
C        8.63234753       6.40761951       7.48956623      -0.99722602       0.50854287      -0.30397844      -0.09953610       0.06549443      -0.02092054
C       -4.90060452       8.56872632       7.31813109      -1.80095852      -2.54390757      -0.10374684      -0.03076654      -0.27425750      -0.00580522
C       -2.51689255       8.50134285       7.35760419       2.40972119      -0.78388847      -0.18981221       0.35440172       0.03464366      -0.01315460
C       -0.02254177       8.52921425       7.55159051      -0.04007090       0.43031757      -0.46859178      -0.14991678       0.15516967      -0.03290051
C        2.49928347       8.50635378       7.51841229      -3.27845966       2.27813855       1.15833031      -0.19832576      -0.00912241       0.07944218
C        4.91035198       8.59920897       7.47378437       0.78411550      -3.81027590       0.33229143      -0.22603623      -0.36879382       0.02560384
C        7.35997287       8.50194726       7.42167497       1.61959959       3.21268570      -0.39451393       0.08846290       0.32555998      -0.02595591
C       -6.13143708      10.63628271       7.39325833       0.53813343       2.39121541       0.65685669       0.08873439       0.32444778       0.04815352
C       -3.65195643      10.64131519       7.31961476       0.98817959       0.51633974       1.27580530       0.05305862       0.03918305       0.09101451
C       -1.26294395      10.67323222       7.31469553       1.40327879      -2.42334932       0.77257511       0.23496797      -0.28179700       0.05932125
C        1.23765993      10.61764781       7.48919537      -3.01812673       3.06586517      -0.51553010      -0.23917125       0.17069982      -0.02888065
C        3.68573819      10.67047513       7.51123962      -2.50812939       0.09271578       1.04538946      -0.14624197       0.13792358       0.06852664
C        6.12085272      10.68861957       7.51149260       0.97884906      -1.08535649      -0.36541187       0.10165305      -0.12567089      -0.02514018
C        1.19924544       0.70447169       7.43398525       0.76529271      -2.47557897       0.47156475      -0.02499594      -0.20546962       0.03759069
C        3.69595887       0.67890885       7.59568633      -0.74680211       1.55137691      -1.17920870      -0.09994577      -0.03990616      -0.08728719
C        6.20247856       0.62867463       7.49191990      -3.71396597       6.08105390       0.25438392      -0.26856495       0.53252134       0.01473738
C        8.60282348       0.72522318       7.42423925       1.23899096       0.01787302      -0.16053454       0.02078761       0.12632081      -0.00592583
C       11.11420797       0.72661503       7.55083571      -1.39093621       0.21517331      -0.48769276       0.00901820      -0.03115418      -0.03545330
C       13.58689066       0.70639491       7.44965836      -2.42464721      -0.65846081       0.54997696      -0.23123352      -0.14043017       0.03759760
C        0.04443942       2.82644114       7.52464002      -4.12797220       0.97706600       0.85422717      -0.19409979      -0.02764513       0.06445217
C        2.48872034       2.82539162       7.62432355      -2.43589245       0.84360646      -0.79394586       0.09709924       0.17965744      -0.06020502
C        4.92479533       2.84152746       7.54849246      -0.55109899      -0.67166445       0.59933237      -0.12935758       0.09238021       0.04084427
C        7.43835006       2.80131118       7.59571802      -4.89998552       3.68150708      -1.29235421      -0.21936234       0.07533533      -0.09523861
C        9.81749660       2.79269361       7.50970636       1.37790432       3.40715032       0.02467359      -0.15530512       0.19541999       0.00249075
C       12.27338812       2.82953850       7.57642352       1.11601407      -0.80484862       0.42689568       0.03861152       0.00414413       0.02825263
C       -1.20301172       4.98624558       7.70044792      -2.38951257      -0.98918052      -0.35838607      -0.17516906      -0.03853773      -0.02879380
C        1.21199233       4.93337543       7.60723137       0.76740307       2.12574310      -0.37135677      -0.23077561       0.18571544      -0.02553114
C        3.71247046       5.00201445       7.58406513      -2.06639612      -0.97507365       0.01002833      -0.07323777      -0.23724836       0.00015394
C        6.16500517       4.98973190       7.56828234      -0.63978894      -1.52549953       0.14034675      -0.07445035      -0.10053287       0.00692082
C        8.58645521       5.00281507       7.55149185       2.97892640      -1.45957850      -1.13785790       0.42701362       0.03399428      -0.08055993
C       11.09833669       4.96350360       7.55335220      -1.10195090      -1.63936340       0.30287287       0.03720303      -0.15519003       0.02100521
C       -2.52305835       7.08301175       7.35071752       3.36108309       0.16816172       1.64296834       0.42371458       0.04181630       0.12017100
C       -0.00047324       7.10656926       7.56987853       0.61586842      -0.37820825      -0.17581820      -0.21819093       0.01028619      -0.01331373
C        2.42630667       7.13200921       7.58582722       1.45345413      -1.91017564      -1.16387104       0.00955896      -0.26923635      -0.08331934
C        4.89944616       7.12031625       7.49744306       0.49798437       0.71468312       0.08179630      -0.16673597      -0.02813275       0.00589730
C        7.39004558       7.15203621       7.48475001      -0.06538752      -3.53405997       0.11019028       0.06020808      -0.07080726       0.00817859
C        9.85600834       7.08105207       7.34323433      -0.63124182       1.99157882       0.78496628       0.13431779       0.05457956       0.05618042
C       -3.68732230       9.21299416       7.31608721      -0.44051739       1.97029780      -0.34659782      -0.12187972       0.30405729      -0.02386361
C       -1.27527594       9.20628766       7.42820382       0.53136089       0.76676981      -0.39670605       0.23149811      -0.12012466      -0.02750014
C        1.21409819       9.26883634       7.56816760       1.08681868      -3.61920437      -0.46135695       0.28671663      -0.06504667      -0.03616569
C        3.68176747       9.23786203       7.57413089       0.69208029       1.43340107      -1.06493525       0.06473449       0.22115172      -0.07752454
C        6.16618003       9.22725923       7.42769529      -1.56417252       2.47666706       0.60823610      -0.16428038       0.07932770       0.04298479
C        8.60552223       9.28329354       7.35476323       0.10517535      -3.38712811       0.07837982      -0.23169347      -0.32230058       0.00681734
C       -4.84194303      11.33266360       7.46134281      -3.01400371       0.19308033      -1.02044642      -0.32992240      -0.10863004      -0.07194516
C       -2.41269213      11.39056633       7.42730228      -3.55097114      -0.06452158      -0.97163583      -0.26589169       0.05238230      -0.06687842
C       -0.06512959      11.35000538       7.32248213       3.83690096       0.15099806       1.02697959       0.20769504      -0.02801281       0.07408408
C        2.41068364      11.35966370       7.54798778       2.73131657       0.89261246      -1.21006913       0.39656155       0.01297173      -0.08316131
C        4.85601614      11.41826808       7.54647696       3.38922253      -1.60223719      -0.18938900       0.27522993      -0.14217211      -0.01354076
C        7.40059155      11.38351844       7.48884316      -1.54141106      -5.30990216      -0.40758824      -0.06127748      -0.16447038      -0.03534824
