72
Lattice="14.76 0.0 0.0 -7.38 12.782534959858314 0.0 0.0 0.0 15.0" Properties=species:S:1:pos:R:3:REF_forces:R:3 REF_energy=-11165.00322347843 config_type=fd_force_conv_snapshot_063 snapshot_index=63 split=validation degauss_Ry=0.0019000869 kgrid=8 lattice_temperature_K=450.0 trajectory_seed=2 pbc="T T T"
C       -0.04263039      -0.01954967       7.39129868       1.75168127      -1.01944266      -0.40882957
C        2.46418768       0.01671786       7.46728862      -4.27875095      -2.55373099      -1.36056223
C        4.85472454      -0.02776380       7.58941477       0.75440692       2.96277730      -0.73318632
C        7.33827953      -0.00166682       7.37011457       2.07225515      -0.31610916       0.34666492
C        9.82441839      -0.01617412       7.45513236       1.61941344       0.45738228       0.32989182
C       12.35979202      -0.07746760       7.55570818      -2.89371182       1.16085436      -0.46854807
C       -1.21885558       2.04298977       7.40703643       0.31344421       1.92678317       0.05655630
C        1.19774670       2.11163567       7.32832346       0.33497155      -0.61184131       0.13975103
C        3.66566203       2.11444211       7.51845403      -0.69089141       0.59400788      -1.10000689
C        6.12548034       2.11570844       7.44527615       0.22368058       0.45654667       0.19349608
C        8.58182432       2.14471033       7.34392279       1.25582526      -0.48178051       0.65966897
C       11.08777086       2.11612380       7.43555855       2.24410666      -1.53965988      -0.44846081
C       -2.37912729       4.25942408       7.39441905      -1.63845683      -0.70608689      -0.42052989
C       -0.02133722       4.25210028       7.50820495       1.20133381      -0.69057800       0.04091037
C        2.46799591       4.24236776       7.45245568      -0.84286855      -0.65309311       0.28947125
C        4.96015207       4.29488965       7.43062938      -1.81260690      -2.35382952       0.09719747
C        7.40025334       4.25903623       7.50692059      -0.21303801       2.77066165      -0.00336480
C        9.92133704       4.25449598       7.46883377      -0.71506313       0.66355725      -0.43709782
C       -3.59929084       6.41384804       7.55620417      -1.90535739      -0.51114662      -1.10518844
C       -1.18181197       6.43600952       7.48229363      -0.09722498      -1.78461633      -1.30640400
C        1.23379602       6.36798424       7.55164454       0.09920627       1.39593315      -0.60337929
C        3.66224810       6.37440281       7.50324569       1.95169433       0.29409281       0.92547270
C        6.15737285       6.43376118       7.59391946       0.37482725       0.68546947       0.41760243
C        8.63908490       6.40087834       7.71591446       1.42671697       0.54116811      -0.95269477
C       -4.93303384       8.54651341       7.57727070       0.71983432      -2.00030180       0.53645733
C       -2.41138319       8.61737951       7.42174700      -1.53041316      -3.80398672       0.25622766
C       -0.02764115       8.55741899       7.48750430       3.98270205      -0.75062226      -0.49320366
C        2.50861220       8.51108168       7.62486435      -1.82750670       0.29161632      -0.13605121
C        4.89431042       8.54054792       7.73456679      -1.24163688      -1.01605035      -0.01869269
C        7.33118359       8.57245193       7.81532423       2.28689496      -1.59232970      -1.46029815
C       -6.24337564      10.69815549       7.49186892       3.05126799      -2.61175590       0.39506208
C       -3.73711580      10.63889015       7.49075280       0.55123655      -0.03009116       0.58880654
C       -1.24399948      10.73353967       7.33161720       0.51218098      -1.64164525       1.33143677
C        1.23162628      10.61610685       7.53681071       0.40442064       1.42316525      -0.29239562
C        3.64295457      10.69219737       7.46640663       1.87312681      -3.20110083       1.97407192
C        6.07164217      10.64681647       7.67229048       1.10626727      -1.66424962      -0.43724849
C        1.21028705       0.69286863       7.24249447      -0.46975160      -0.54510010       1.73622791
C        3.59126641       0.70796929       7.55407940       5.23739859       0.73808350       0.44375364
C        6.13791295       0.69994428       7.46404124      -1.95498971      -0.51707430       0.12692791
C        8.59059298       0.70781768       7.35087068       0.18578740       0.53291358       0.28776635
C       11.16002965       0.65486765       7.54505393      -3.89985725       1.34939516      -0.94653415
C       13.51417777       0.63821592       7.42740865       1.45416761       1.35660119       0.23359115
C       -0.01026654       2.80773248       7.47049995      -0.50869790       0.33164711      -0.88759186
C        2.42157848       2.79132597       7.37025476       1.36634695       2.09469960       0.80782133
C        4.90730472       2.81554782       7.44010102       0.19597103       1.36386430       0.48112925
C        7.34708751       2.86830667       7.46775800       0.95481670      -1.11803084      -0.84715175
C        9.87734048       2.80796694       7.35801689      -1.41208739       1.18348418       0.58433513
C       12.37791014       2.80267032       7.35232124      -2.56532255       0.96986819       0.85634216
C       -1.20688158       4.98965148       7.44806253       0.78954336       0.41110963       0.41602763
C        1.21588747       4.96407624       7.55642068       1.03200661      -0.95172057      -0.67322254
C        3.71395851       4.93517458       7.48558286      -1.30511330       1.37722683      -0.47070497
C        6.12053468       5.04094426       7.46070731       3.42816626      -1.94523829       0.48773184
C        8.69523532       5.00602757       7.57541521      -2.07555131      -2.56562568      -0.15541830
C       11.14490135       4.99219486       7.40991458      -0.03271215      -1.14958907       1.03982611
C       -2.39474546       7.09961005       7.38141346      -0.26614620       3.62773014       1.39235186
C        0.03743748       7.12039352       7.42532113      -0.86031580       0.67515318       1.34105141
C        2.45643810       7.09435329       7.53362653       0.47792103      -0.58891298       0.49676876
C        4.91802086       7.12657630       7.66211278      -1.08260747      -0.90142825      -0.70796585
C        7.42570797       7.13397657       7.70916144      -2.14597357       0.16299637       0.54834071
C        9.88971804       7.09608940       7.62081006      -0.35768622       0.96270124       0.35726481
C       -3.70348369       9.21435294       7.58716128       1.41054679       1.79892632      -1.63462074
C       -1.18719050       9.29810621       7.37484975      -1.97773395       0.72796107       0.08822278
C        1.28573820       9.23810565       7.58812976      -2.55004891      -1.45903008      -0.46891188
C        3.67830423       9.25973779       7.67913130       0.23486513       0.02034745      -1.03749206
C        6.07140845       9.22132558       7.76170206       2.77169729       1.56719999       0.19808087
C        8.61712898       9.25060974       7.60768073      -2.88667933       1.20760319       0.64883768
C       -4.94474783      11.33879429       7.44952740      -1.31884171       1.75819722       0.34321245
C       -2.50902069      11.39680731       7.50285440       0.49740228      -2.03834925      -0.73653878
C        0.01742795      11.35455280       7.40660991      -1.24784661       0.92883878      -0.03348708
C        2.45674920      11.33422734       7.52981035      -2.21660768       2.34751335      -0.72315593
C        4.88572276      11.32302551       7.54834487      -0.11953341       0.76029140       0.04831411
C        7.28767513      11.33716826       7.52951128       0.79349823       1.43578037      -0.03373313
72
Lattice="14.76 0.0 0.0 -7.38 12.782534959858314 0.0 0.0 0.0 15.0" Properties=species:S:1:pos:R:3:REF_forces:R:3 REF_energy=-11165.633913559235 config_type=fd_force_conv_snapshot_069 snapshot_index=69 split=validation degauss_Ry=0.0019000869 kgrid=8 lattice_temperature_K=450.0 trajectory_seed=2 pbc="T T T"
C        0.02906638       0.04829287       7.50906953       1.17112258      -1.16205892       0.18989602
C        2.45526179       0.06444998       7.52512619       0.97319880      -3.49669361       1.39193406
C        4.93539165      -0.04052687       7.76198943      -0.91071662       0.60579304      -0.61009501
C        7.33026918      -0.00581040       7.62762577       1.59491365      -0.99435204      -0.25665009
C        9.81784474      -0.01534737       7.57051233       0.44815331       0.42340130       0.55174974
C       12.33370536       0.01845690       7.65916053      -2.43652185      -1.37490924      -0.45205290
C       -1.20637308       2.08753000       7.48741692       0.10749525       0.60637720      -0.66368297
C        1.21680884       2.12982038       7.51481167       0.89432404       1.77351868      -0.58983189
C        3.69017800       2.09917000       7.50571066      -0.93794075       0.36046583       1.05469840
C        6.10505400       2.13218379       7.63700153       0.47347945       0.28992813       0.21196534
C        8.55560989       2.15212533       7.65145243       1.25389822      -1.75639153      -0.05946216
C       11.08562283       2.15048169       7.49245457      -0.02511993      -1.18963246       0.72839018
C       -2.40222465       4.25192616       7.40747445      -1.09746279      -0.15306497      -0.81851455
C       -0.03088217       4.24317315       7.48948232       1.95659125       1.19585633      -0.94926363
C        2.41986204       4.27173961       7.39102679      -0.47688153      -1.92807360      -0.09042698
C        4.83969996       4.30799048       7.47500086       0.81755116      -3.44403048      -0.30206708
C        7.34184661       4.27599798       7.59380983      -1.61784584       0.94806215      -0.32365407
C        9.79212484       4.22970681       7.52091995       1.71980782       1.48922512       0.32841061
C       -3.64895024       6.29604318       7.37505058      -1.23430230       2.48955805      -0.21814525
C       -1.22601260       6.35005529       7.34455949       3.00983775       1.61683000       0.63316166
C        1.26073449       6.36692106       7.47316006      -1.30950244       1.61841045       0.09667991
C        3.67118254       6.41176009       7.29785125       0.03175158       0.11079089      -0.03207914
C        6.09055645       6.43772594       7.45060244       1.36146777      -1.43259503      -0.49373203
C        8.58928515       6.44812967       7.43804337       0.92432650      -2.24329882       0.26535507
C       -4.87188172       8.49494265       7.32997724      -1.01970054      -0.72223316       0.46974209
C       -2.44921436       8.46088793       7.42539649       0.33779153       0.44458256      -0.55313042
C        0.01915584       8.49908782       7.56700129       0.86933986      -0.83284511       0.36996555
C        2.43278033       8.54952445       7.40102218       1.59748039       0.26131176       0.41961561
C        4.98205286       8.59027029       7.30785807      -3.09303170      -0.01162524       0.22140026
C        7.34533025       8.55341429       7.36991541       1.85535278      -0.02070715       0.34754270
C       -6.13856252      10.64465811       7.59561894       2.25844468      -0.23916042      -1.02853948
C       -3.70150776      10.62478332       7.65620736       1.12064411       1.51425378      -0.98556169
C       -1.22585425      10.59123670       7.54411624      -0.05212860       0.94788680       0.32051732
C        1.26818588      10.63373145       7.58473266      -2.56815282       1.51267204       0.17385697
C        3.74116488      10.69995498       7.54714161      -2.04066504      -2.86930896      -0.84729111
C        6.21182198      10.73212156       7.52404815      -1.16597137       0.79890037       0.30251728
C        1.26469887       0.75672014       7.46369725      -2.12563100      -0.72347269       0.36441608
C        3.68077561       0.67212159       7.71649669       1.36357633       1.82462784      -1.42647863
C        6.13853817       0.70742673       7.67186722      -1.12297379       0.19231826       0.33130927
C        8.57375855       0.69643530       7.60027795       0.19403833       0.72405916       0.21311900
C       11.07580111       0.70065083       7.62237966      -0.21592227       1.33783985      -0.62666757
C       13.53320880       0.65289448       7.52509013       1.39713000       3.23973088       0.29663486
C       -0.00219061       2.84792217       7.48382552      -0.34292808      -1.32645706       0.37489641
C        2.43842421       2.82586865       7.44712232       0.62197248       0.50956256       0.18997984
C        4.88321555       2.83514101       7.57183755       0.22896754       0.91676360      -0.40657394
C        7.33687105       2.85929284       7.65309231      -0.15814393       0.11904850      -0.14190818
C        9.81825995       2.82707045       7.61584184       0.06454472       0.12841658      -0.87817828
C       12.37522011       2.83462864       7.38426811      -2.51740361      -0.42281200       1.11174244
C       -1.19417547       4.98582785       7.31186530      -1.32345247      -2.43796347       1.17254028
C        1.20600701       4.98697985       7.44893370       0.33929897      -2.00020719       0.04601143
C        3.63006552       4.92521662       7.30231593       0.17860785       4.24359625       0.66699430
C        6.02355265       5.00373345       7.47824800       3.96370365       0.36323029       0.73221110
C        8.58232176       4.98540764       7.54367090      -0.44406500       0.31418006      -0.24227839
C       11.09680229       4.93925592       7.44533494      -1.03392877      -2.64993293      -0.10667816
C       -2.42255497       7.00057360       7.31108206      -1.85173806       3.21999586       0.62629425
C        0.03480700       7.06496275       7.55453239      -1.16669360       0.71359914      -1.21899678
C        2.44449225       7.13733314       7.37135043       0.98319782      -1.18648183      -0.08596663
C        4.92157234       7.15970405       7.33295418      -1.13315947      -0.17675049      -0.16191214
C        7.34854113       7.12414055       7.42302123      -0.45689814       0.79578857      -0.19563395
C        9.87810741       7.05866894       7.38825942      -0.40007419       0.62538022      -0.48197566
C       -3.69389096       9.23998739       7.41187600       1.87749435      -1.65382817       0.75259583
C       -1.18617623       9.17127661       7.48773185      -2.59506481       0.12607250       0.25131839
C        1.23288952       9.25996058       7.63437487       0.20898981      -2.10098158      -1.29281469
C        3.70054032       9.24924793       7.31569687       0.46589803       1.11148173       1.23397448
C        6.15370413       9.36083048       7.41789129       1.56431444      -3.02359855      -0.41026965
C        8.65302313       9.17253096       7.38769565      -1.95355375       2.46342742       0.77516652
C       -4.89562527      11.38854116       7.63647142      -1.49395080      -0.66873313      -0.41755358
C       -2.44258535      11.33635768       7.65000938      -0.48771693      -1.12940360       0.32009746
C       -0.03302378      11.33743742       7.57921148       1.72779495       0.24843053       0.16931820
C        2.46865884      11.33234608       7.56753221       0.79568932       1.95198512       0.14212981
C        4.93112073      11.38333029       7.61865368       2.11113075       0.95443103      -0.23821991
C        7.46611119      11.43468567       7.57314168      -2.05407848      -1.76018777      -0.24186187
72
Lattice="14.76 0.0 0.0 -7.38 12.782534959858314 0.0 0.0 0.0 15.0" Properties=species:S:1:pos:R:3:REF_forces:R:3 REF_energy=-11164.917129653133 config_type=fd_force_conv_snapshot_075 snapshot_index=75 split=validation degauss_Ry=0.0019000869 kgrid=8 lattice_temperature_K=450.0 trajectory_seed=2 pbc="T T T"
C       -0.03411871      -0.02172114       7.57276579       0.58881065       0.90157969      -0.92800883
C        2.49132819       0.10779300       7.42152918      -1.41568848      -3.21357402       0.44866162
C        4.97398006       0.04785096       7.35764460      -0.65492400       1.46872263       0.64106755
C        7.41255172      -0.04857643       7.43481027       0.26812081       2.21752403      -0.01831705
C        9.79216333       0.00881689       7.53002037       2.78421830      -0.90788969      -0.46674804
C       12.31932385      -0.03956376       7.64944412      -0.82181276       0.96644760      -0.03399050
C       -1.20890701       2.16770177       7.65224907      -0.80974194      -2.64459789      -0.90416699
C        1.21731384       2.12794490       7.51643987      -1.07962139       0.95831905       0.68954287
C        3.65264719       2.15186527       7.46646549       1.11735335       0.85813859      -0.32226876
C        6.17281356       2.11940622       7.27048826      -0.32688826       0.20355372       0.86462291
C        8.64561352       2.16670473       7.26162922       0.59296170      -0.77082418       0.94732656
C       11.10546429       2.12011564       7.50910992      -0.69456964      -0.07806538      -0.50030248
C       -2.44617406       4.22726656       7.48339489      -0.07157437       2.48592611       0.67527351
C       -0.01383822       4.26466210       7.67566661      -0.64928557       0.90988564      -0.29966516
C        2.40555114       4.27025688       7.67897718       2.62757230      -0.74483984      -0.94277776
C        4.92948147       4.18331898       7.41560409       0.04871341       2.76501088       1.15687481
C        7.38132834       4.20684977       7.28535929       0.65355874       1.85626706       1.76206827
C        9.88464784       4.32132378       7.38350786      -0.56229872      -0.54902668       0.10179743
C       -3.66602588       6.47156428       7.51699389      -1.06200033      -2.39196952       0.17825690
C       -1.25439967       6.40890289       7.43367776       0.51156031      -2.44862661       1.17411997
C        1.20518168       6.38910159       7.52793803      -1.10240496      -1.17170442       0.10732839
C        3.68535923       6.35364887       7.41733262       0.56823180      -1.61040455       1.09263965
C        6.16473581       6.38926846       7.62866971       0.04935978      -2.98016799      -0.20139040
C        8.55494656       6.42598958       7.65705800       3.09030685      -3.16790017      -1.06280123
C       -4.93961103       8.58568247       7.58772702      -0.10651875      -0.55333020      -0.54805121
C       -2.44682805       8.50097488       7.41617508      -1.52644903       2.89053625      -0.10055122
C       -0.07966317       8.55857912       7.48780412       2.64994810      -4.44311669      -0.08636953
C        2.45331455       8.45620305       7.38724216      -0.52265359       1.08575141       1.38969334
C        4.95170528       8.42552710       7.47259594      -0.89224196       2.32261761       1.16066899
C        7.44628438       8.56414266       7.72487341      -3.07951002      -1.58689978      -0.81929951
C       -6.15093367      10.77187060       7.55267499      -1.04230748      -2.10661949      -0.13791372
C       -3.62190705      10.69572478       7.33606809      -3.69247566       0.96823220       1.39793810
C       -1.21866869      10.63272124       7.45358775      -1.09022307       2.70036023      -0.30150761
C        1.19144104      10.59583171       7.43558584       2.72870047      -1.16688180       0.39701715
C        3.68282876      10.63693035       7.63269893      -1.02290774      -1.67537659      -0.55543207
C        6.11796931      10.58536151       7.55871187      -0.68324753       1.04895147       1.19086017
C        1.19729858       0.72759932       7.46036135       1.11073816      -0.32610895       0.45460755
C        3.72187112       0.76132216       7.39721348      -0.19905943      -0.02368783      -0.17567037
C        6.23155289       0.73810134       7.39742702      -1.72566119      -2.28562998      -0.63711936
C        8.61248063       0.76695591       7.45073497       0.08651736      -2.47452764      -0.64413462
C       11.09609912       0.68847267       7.55729730      -1.52013595      -0.08712774       0.29159755
C       13.53942360       0.68664699       7.57732549      -0.75474810       1.88725374       0.92974330
C       -0.01005513       2.86306752       7.62898492       0.68699928      -0.59914854       0.09717459
C        2.41757761       2.86882263       7.58050761       0.65806254      -1.42810177      -0.16359749
C        4.90667150       2.82183528       7.37841906       0.73565972      -1.58502159      -0.23708734
C        7.39917329       2.79060441       7.25589611      -0.10926597       2.14853387      -0.68556512
C        9.90046220       2.87497444       7.33977580      -0.77994363      -0.14336266       0.18420206
C       12.32026380       2.83293787       7.54922916      -0.07502942      -0.09728566       0.28877705
C       -1.25131994       4.98860081       7.57919925       0.75229450      -1.17036102      -0.61226914
C        1.20900723       4.95874034       7.66925682      -0.70553076       1.77592009      -0.25699256
C        3.69980311       4.89757293       7.52518895      -1.22505378       2.10381725      -0.09717330
C        6.17155347       4.90572042       7.55674835      -0.33216442       1.17903566      -1.76653042
C        8.60060101       4.98308680       7.42523061       0.32036562      -0.10050057       0.04910858
C       11.12512011       5.02171160       7.48232612      -1.36201567      -0.22337153      -0.41154620
C       -2.42155418       7.12794053       7.49406479      -2.46730413       0.62451556      -0.61073085
C       -0.06320163       7.06309895       7.47526219       2.34506051       2.89159117      -0.00964138
C        2.43541042       7.04910941       7.44256507       1.11715641       0.36410240      -0.39141626
C        4.94824012       7.04722161       7.51433458      -1.72162945      -0.62418414      -0.47168533
C        7.37429265       7.08274201       7.69001260      -0.26566129       3.12833501       0.38948022
C        9.81163758       7.10601973       7.59631036       0.77624021       2.35695418       0.25409313
C       -3.72140120       9.27926640       7.37466040       2.37067127      -1.36292482       0.77439647
C       -1.23889150       9.25017103       7.43976057      -2.36581934      -0.02739228       0.00438476
C        1.16729647       9.15349435       7.50895617       2.30973176       1.93514517      -1.03895965
C        3.70562540       9.15717939       7.52950318      -0.64447863       1.05414818      -0.83915845
C        6.15860024       9.16461728       7.60680357       0.54903465       0.86816692      -0.20166833
C        8.59530466       9.34220349       7.63773764       1.85634162      -1.09490531       0.10025605
C       -4.90964089      11.43365002       7.50793630       1.35598438       0.68985397      -1.39437764
C       -2.44904726      11.46427464       7.41283078       1.88552982      -3.84975287      -0.58435158
C        0.02333272      11.29711191       7.44894833      -1.66437998       2.00775955       0.04206865
C        2.43633552      11.32078587       7.45610641      -0.17410019       0.92448179       1.25097898
C        4.89309839      11.33675175       7.75044608       1.06080863      -0.80743232      -1.69776112
C        7.29007855      11.35866566       7.51011734       2.74471279      -0.02479598       0.67037093
72
Lattice="14.76 0.0 0.0 -7.38 12.782534959858314 0.0 0.0 0.0 15.0" Properties=species:S:1:pos:R:3:REF_forces:R:3 REF_energy=-11165.010112720542 config_type=fd_force_conv_snapshot_081 snapshot_index=81 split=validation degauss_Ry=0.0019000869 kgrid=8 lattice_temperature_K=450.0 trajectory_seed=2 pbc="T T T"
C        0.01260638      -0.03506652       7.40502822       2.72491478      -0.71055778       0.51853649
C        2.48796310      -0.00085735       7.76533643      -0.72355651      -1.68260833      -1.90445776
C        4.90413570       0.03832890       7.54690110      -0.60438356      -3.33747419       1.12968514
C        7.34865726       0.05119813       7.52887308      -1.21117522      -3.09442318       0.26063890
C        9.85326419       0.08617287       7.22470402      -2.48138297      -2.34470056       2.00795469
C       12.25742259       0.05873685       7.27344322       3.28881041      -2.73845164       0.22015071
C       -1.19424167       2.12741724       7.37665448       1.12452082      -0.18788182      -0.10032727
C        1.26809166       2.13681171       7.44774654       0.00811080      -0.12094521       0.25953667
C        3.68463346       2.15171479       7.62254229       1.42678793       0.64337820      -0.47457731
C        6.16878381       2.11931977       7.55866138      -2.72780804       1.66590233       0.31481616
C        8.55428973       2.13632586       7.60935641       2.33029570       0.29591726      -0.38900431
C       11.14104245       2.17709646       7.47711225      -4.14069119      -0.23178624       0.39064647
C       -2.40823082       4.24493328       7.53649985      -1.28872072       1.88727200      -0.24742960
C        0.02805040       4.28872467       7.46972482      -0.96260097      -1.53183010      -0.09214937
C        2.40572157       4.28383953       7.62777576       3.35624993      -0.64745288       0.21486375
C        4.88690665       4.28294566       7.48441157       1.66702641      -0.03120728       0.96334299
C        7.38436195       4.25841900       7.60395848      -0.15885947       1.51211951      -0.28879453
C        9.80960008       4.26145647       7.63575795       2.23437606       0.41051493      -0.74897161
C       -3.69285311       6.37997649       7.45525208       2.37451816      -0.44003531      -0.53965630
C       -1.21094247       6.37015818       7.54254779      -0.23216007       0.59865206      -0.15411681
C        1.20537144       6.41076966       7.62143428       0.60896964       0.09397613       0.73855967
C        3.68559668       6.42826332       7.61584371      -1.04178915      -0.92221177       0.23419125
C        6.13090296       6.35453038       7.46162420       0.34237375       2.02573464       0.68862962
C        8.63397217       6.38568372       7.43761762      -0.03422267       0.53228752       0.90845122
C       -4.93968046       8.50603303       7.37865294       2.40773912       0.31071062       0.24933144
C       -2.38546426       8.47101549       7.45985889      -1.87856418       1.40590106       0.26549366
C       -0.01362717       8.52667876       7.76525874       0.55800780      -1.13358910      -0.72963537
C        2.45352665       8.54613079       7.67562993      -1.18051970       1.21798376      -1.31511233
C        4.92843361       8.49575215       7.31227319      -1.92704619       1.90939171       0.66517653
C        7.28690713       8.43745405       7.28247651       3.94260338       1.30527426       0.80483808
C       -6.14419932      10.54936226       7.44998661       1.31454925       2.25832023       0.08419926
C       -3.63572839      10.62710122       7.59108103      -2.86222146      -0.27242458      -0.59088759
C       -1.24900774      10.59472340       7.53639514      -0.74254848       2.36640144       0.92539479
C        1.16708925      10.70131458       7.45330181       0.00160025      -1.20885840       0.94607777
C        3.67438603      10.64019339       7.27669166      -0.62738800       0.53299611       0.79556334
C        6.17955027      10.64741068       7.35070978      -1.91383381      -0.98270905      -1.10095023
C        1.28104288       0.70995748       7.55074935      -1.83330403      -0.42313930      -0.13572031
C        3.69033893       0.73211207       7.66085099       0.13440185      -0.13501968       0.14031127
C        6.10493602       0.70369533       7.63905372       1.75946194       1.93697990      -1.19992973
C        8.55577679       0.73095416       7.46148351       2.09990737       0.43098194      -0.41391470
C       11.07508024       0.76910451       7.32886328      -0.12092927       0.62458369      -0.48315014
C       13.59966175       0.68282065       7.34118536      -3.35882335       1.40840866      -0.14595253
C        0.03993436       2.85551198       7.31143475      -0.46784539      -0.30723680       1.33999726
C        2.49620805       2.87399186       7.58541134      -2.32886668      -0.59780540      -0.17315634
C        4.91431325       2.89547927       7.49088923       0.55415681      -2.96941229       0.76984357
C        7.36125419       2.85188030       7.62749469       0.08001247      -0.18755195      -0.09302406
C        9.81268771       2.86024343       7.59731768       1.23846980      -1.12484606      -0.02538296
C       12.33828385       2.84772378       7.52275227       1.26616443      -0.21480796      -0.69973035
C       -1.19102259       4.98888385       7.51880933      -0.67878358      -1.84980280      -0.20334264
C        1.21171347       4.97361317       7.61018885       0.44486050       1.86056826      -0.51008784
C        3.68801124       4.94791042       7.68246053      -1.75482213       3.01274798      -1.20766927
C        6.15890710       4.98732086       7.53030660      -1.04485956      -1.80900762      -0.24361588
C        8.62817490       5.00132139       7.57255533      -1.51806415      -1.53529234       0.15868617
C       11.08221537       4.96625798       7.51280394       0.00186636      -1.03291781       0.70555287
C       -2.41206026       7.05664972       7.37459335      -1.60055748       0.82099361       1.31626598
C       -0.02399399       7.09096228       7.67878015       1.19617515       0.73237591      -0.08773092
C        2.43530952       7.16376538       7.63499877       0.42682369      -2.71437788       0.55270259
C        4.89059535       7.14279143       7.49523565       1.35402186      -3.32196042      -0.42673396
C        7.38029504       7.04801274       7.47131593      -1.06521421       0.23665128      -1.38959590
C        9.88564916       7.09393320       7.44497163      -2.13167798       0.52375814      -0.62102349
C       -3.62251491       9.24290345       7.43544409      -1.63288628      -3.08138255       0.14762683
C       -1.19056817       9.22498949       7.66848858      -2.09282192      -1.51204880      -0.97552796
C        1.15696988       9.24670385       7.64398570       3.39397342       1.38359057       0.07862228
C        3.68357148       9.20529581       7.42138594       0.00511290       1.38773108      -0.10025143
C        6.13856901       9.19546511       7.25182133      -0.68528641       1.36330843       0.36449398
C        8.56662871       9.16502533       7.34731505       0.16749400      -0.93219587      -0.04635313
C       -4.89078656      11.31409827       7.58376191      -0.83228975       0.53815760       0.78063731
C       -2.47492109      11.31041438       7.57897450       2.06420117       3.43815037      -0.33206800
C       -0.09754256      11.36716516       7.52933806       3.20307749       1.45420798      -0.65389221
C        2.42099281      11.39916379       7.36426838       0.99079363       0.37129429      -1.29530455
C        4.89911255      11.37767155       7.25638904       0.70495612       0.29596637       0.23026517
C        7.41988474      11.27725635       7.41319742      -0.91088117       2.57476364      -0.03185571
72
Lattice="14.76 0.0 0.0 -7.38 12.782534959858314 0.0 0.0 0.0 15.0" Properties=species:S:1:pos:R:3:REF_forces:R:3 REF_energy=-11165.611781724396 config_type=fd_force_conv_snapshot_087 snapshot_index=87 split=validation degauss_Ry=0.0019000869 kgrid=8 lattice_temperature_K=450.0 trajectory_seed=2 pbc="T T T"
C       -0.00389360       0.00365014       7.58764294      -0.06011239       0.61062466      -0.72776541
C        2.47532836      -0.06399597       7.43304306      -0.62379051       2.71556933      -0.00575747
C        4.90055736       0.01696215       7.36902727       0.46657115      -2.34849628      -0.86255703
C        7.27779521       0.00070941       7.45663732       2.73433325      -0.07354872       0.39049015
C        9.78732047      -0.01687193       7.63196570      -0.48443697      -0.03144819       0.39002478
C       12.31121734       0.04008380       7.76478326      -0.86502195      -0.25892937      -1.10019278
C       -1.24312618       2.22712936       7.48851341      -0.13762704      -2.86719577       0.33493195
C        1.25061117       2.11012694       7.46123832       0.49265756       2.15036655      -0.44878709
C        3.72513976       2.09627771       7.46066030       0.31205068       1.97337207       0.26313210
C        6.17694522       2.10769834       7.52276718      -1.29612961       1.78138677      -0.77108926
C        8.56702232       2.10606443       7.49628195       0.91729890       0.74236901       1.37839592
C       11.04269244       2.09232241       7.64055752      -0.95338151       2.29124192       0.09783330
C       -2.47207200       4.32095291       7.54357646      -0.23539709      -1.75819619      -0.44755733
C        0.04259661       4.26571470       7.40658680      -1.45178086       0.08800758       0.32055460
C        2.46744795       4.25046937       7.56637525       2.65421227      -0.24894321      -0.85062840
C        5.02373867       4.28113537       7.52593884      -3.70365071      -1.17057056      -0.10748882
C        7.40834503       4.25012901       7.38302774      -1.11041626       0.91257630       0.64339106
C        9.80695231       4.24711338       7.37592564       1.64742587       0.07798876       1.72787671
C       -3.62498665       6.44168791       7.50837166      -3.64397977      -3.55551968      -0.63305676
C       -1.20455260       6.40813627       7.49926696       1.50436969      -0.03838631      -0.99608187
C        1.25744522       6.34543847       7.33961934       0.42605750       2.02311983      -0.00303853
C        3.71001122       6.36432160       7.43133887      -0.57996117      -0.08092804       0.12015845
C        6.20426551       6.42088560       7.44507077      -3.00061032       0.52188818       0.62373420
C        8.58564395       6.41287393       7.49586338      -0.48981135      -1.24736581      -0.68807323
C       -4.93150816       8.49157094       7.58338148       0.49727886       0.05106571      -0.84921121
C       -2.43705234       8.52223238       7.52577394       1.00496041      -0.18378631      -0.41867458
C        0.00482731       8.50427252       7.40196220       1.17235311       0.53793597       0.04839536
C        2.49969449       8.47466835       7.35175015      -0.91115037       2.83949779       0.68742917
C        4.89127538       8.48595946       7.59502723       0.99134462       1.30256560      -0.22882304
C        7.35707978       8.62526011       7.63973264       1.45075961      -3.11082528      -0.17009287
C       -6.17276826      10.67211053       7.42740737      -1.07925500      -0.48491751       1.83410415
C       -3.68106547      10.60726956       7.41573456      -0.45643895       0.88272065      -0.06694998
C       -1.26303328      10.66830472       7.39959260       1.96084643      -0.82020968       0.23660500
C        1.20621288      10.63341743       7.51148322       0.19056580      -0.38472831       0.41558283
C        3.71693359      10.64652238       7.60183187      -2.76443264       0.25459501       0.11122772
C        6.10217913      10.64565358       7.71538760      -0.51022411      -0.25473205      -0.20690284
C        1.24171687       0.73589579       7.43486732       0.36835012      -3.54685687       0.70023917
C        3.70959629       0.67650412       7.43841197      -2.01455214       0.59448970      -0.20505576
C        6.08955032       0.72712371       7.35248329       1.29359939      -0.58735001       1.10285053
C        8.52962254       0.69419385       7.57226446       0.72028324      -0.24182691      -0.53813266
C       11.01157949       0.70249068       7.73474322       1.75439198      -0.62687197      -0.38505715
C       13.56708837       0.76773757       7.57357452      -2.20061979      -0.18991762       1.00842291
C        0.01670773       2.84891400       7.44054928       0.08516959       0.81473168       0.03749568
C        2.51664457       2.85589545       7.46654351      -1.51443247      -2.12594647       0.50200404
C        4.97757083       2.84779910       7.50132734      -0.77767232      -0.80338335       0.18748844
C        7.37446039       2.85780821       7.53495122       0.38503633      -1.28398398      -1.02451159
C        9.79992169       2.82936773       7.61216984       0.40802302      -0.40614277      -1.79143001
C       12.23859639       2.86160135       7.54003865       1.85632620       0.79253021       0.22268222
C       -1.20744480       5.02152205       7.46477398      -0.01088914      -2.24510039       0.25291093
C        1.26703508       4.93654181       7.41799158      -0.50733625       1.18089123       0.19109827
C        3.74091297       4.93931003       7.56461553      -0.50688039       0.98073676      -0.59483192
C        6.17959882       4.99971689       7.40399684       2.37688846       0.22615758       0.25990408
C        8.61580451       4.96520168       7.37516468      -1.20108673       0.98989066       0.06691605
C       11.04272172       4.98247374       7.50686911       1.22915572       1.06381733      -0.36994704
C       -2.41457378       7.08904416       7.48948558      -0.23110078       2.20961197       0.66431726
C        0.05267059       7.10119495       7.35401642      -1.51049765      -1.12580303       0.68970588
C        2.48355045       7.11145077       7.32100466       0.15105205      -3.51432187       0.41397512
C        4.89383635       7.10333157       7.48105720       2.23708189      -1.39855594      -0.03039970
C        7.35156354       7.18881987       7.58232805       2.13497542      -1.19309831      -0.62844112
C        9.81764603       7.02496727       7.43957606       1.96330003       4.44853195       1.60279254
C       -3.66177452       9.20460770       7.56124425      -1.44654378      -0.34376806      -0.52609630
C       -1.20707584       9.25390470       7.45530741      -1.12766168      -1.11384586      -0.09657449
C        1.25177328       9.17035689       7.44015752      -0.50739050       2.05518740      -0.54874258
C        3.70646064       9.23188551       7.51389502      -0.38120590      -0.49100486      -0.04130297
C        6.12285801       9.21025897       7.68999877      -1.15289834       2.04159912      -0.23859734
C        8.62779324       9.27336539       7.55632071      -0.75109997      -0.85693223      -0.03195444
C       -4.94054317      11.32478043       7.44942648       1.18408557       0.43578116      -0.69232686
C       -2.45977634      11.34071716       7.26380966      -1.62710335       1.16573637       1.50005383
C       -0.03501097      11.38362607       7.53911229      -0.09956263      -1.36158733      -1.23288099
C        2.43065135      11.34266577       7.58918851       0.68752944      -0.08031175      -0.09498452
C        4.88677643      11.38311719       7.70398759       1.51689147       0.57024086       0.46294692
C        7.29627076      11.34666931       7.63160269       3.15091701       1.12851143      -0.83567512
72
Lattice="14.76 0.0 0.0 -7.38 12.782534959858314 0.0 0.0 0.0 15.0" Properties=species:S:1:pos:R:3:REF_forces:R:3 REF_energy=-11165.866706948205 config_type=fd_force_conv_snapshot_093 snapshot_index=93 split=validation degauss_Ry=0.0019000869 kgrid=8 lattice_temperature_K=450.0 trajectory_seed=2 pbc="T T T"
C        0.00239796      -0.04983402       7.36443429       0.82854751       1.75865513       0.41624386
C        2.49724395       0.05797766       7.45420371      -0.17999548      -2.54540704       0.40370176
C        4.95064365       0.04799154       7.45192558       0.12464117       0.63329433       0.86065004
C        7.40492079       0.03083533       7.55810521      -1.05004059      -0.11748990      -0.27381992
C        9.86259565      -0.04632022       7.47953055      -0.28840167       1.64850830      -0.59247987
C       12.29107413      -0.10999379       7.27947730       0.12508391       3.07203788       0.14509584
C       -1.21780678       2.07549312       7.38943917       1.91120485       0.62224270      -0.07741489
C        1.21880333       2.08852947       7.48827765       1.02102003       0.71887170      -1.10049823
C        3.69639030       2.15910038       7.52231374       0.42744513       0.61874086      -1.08226037
C        6.19537994       2.16578649       7.41704262      -3.09127950      -0.04321844       0.00370599
C        8.61323588       2.13361553       7.53370680      -0.05890603      -0.11657639      -0.83486985
C       11.08108385       2.12143311       7.45383358       0.61672769      -0.24457645      -0.29507754
C       -2.49890166       4.24045073       7.60149490       2.28182963      -0.99832131      -0.69954781
C       -0.00105609       4.31107943       7.50855283      -0.96421511      -2.14959857      -0.09871082
C        2.41986329       4.34823546       7.40319787       0.79857436      -4.32049332       0.21620998
C        4.92749674       4.29077053       7.38117655      -1.31452020      -0.13245244      -0.80594288
C        7.39242459       4.27091026       7.27971858      -1.36631456      -0.23882849       0.85618764
C        9.78496050       4.22780203       7.48697088       1.39377214       1.13045647       0.18913858
C       -3.69487878       6.36020725       7.56924803      -2.75144419      -0.73517481       0.81600335
C       -1.25741214       6.42507820       7.66492868      -0.15797321      -0.41904379       0.07652580
C        1.20716681       6.41021914       7.71717398       0.18846315       0.51672052       0.06200447
C        3.69157511       6.41428188       7.49765653       0.26382090      -0.67432991       0.27518517
C        6.18284004       6.35135860       7.40213308      -0.09588544       3.13253362       0.16632826
C        8.61708402       6.41274034       7.50300694      -0.45010786      -1.00239548       0.17119330
C       -4.91793917       8.54928557       7.64395507       0.02511351      -0.08840892      -0.54170804
C       -2.50939763       8.50598451       7.66779791       1.45353615       2.26062137      -0.64655685
C        0.01622813       8.52645669       7.67925087      -1.88379098       1.37882169       0.72615435
C        2.44018336       8.45515545       7.62299286       0.38014686       2.43496865       0.33604807
C        4.89204237       8.50576208       7.42669582       3.35841223      -0.37222812       1.13252081
C        7.40844586       8.52097939       7.63702328       0.19740262       0.38404362      -1.42175114
C       -6.17128836      10.67070675       7.50747966       1.85478662      -0.84117059      -0.42670619
C       -3.67323071      10.67191611       7.54631077      -0.19218508       2.78061079      -0.36630250
C       -1.23896130      10.71765893       7.67938763       0.12623757      -1.43303674      -1.26339561
C        1.22124758      10.65883345       7.56791870      -0.25149194      -0.98892932       0.20920526
C        3.65827011      10.55287103       7.34680931       0.72734606       1.00568906      -0.13056550
C        6.16642825      10.63097225       7.34117369       0.01204150      -1.51031099       1.00332390
C        1.24594279       0.68024961       7.42320678      -0.73574508       0.22746704       0.24410542
C        3.74462993       0.75031753       7.56130148      -1.64477352      -0.03808884      -1.09037168
C        6.16156938       0.75525099       7.48719489       1.55684539      -0.04782278      -0.03974000
C        8.64073377       0.70598295       7.53062348      -0.22256626       0.03846859       0.24639987
C       11.06883645       0.70612590       7.38849864       0.74947220      -2.06615856      -0.01858702
C       13.53976538       0.65830314       7.33184788      -0.92801860      -1.03668602      -0.25024650
C        0.04778253       2.82337287       7.40553500      -2.82618256       1.36108288       0.72928750
C        2.43329891       2.79648225       7.40896411       0.83451967       3.33992780       0.88174312
C        4.92966671       2.89778667       7.36506988       0.16845431      -1.53440120       0.95564999
C        7.36550460       2.87135288       7.43288530       2.69646347      -0.61391953      -0.31342750
C        9.83550248       2.84134850       7.45504389       0.01632805      -1.28792034       0.60158055
C       12.36425885       2.78477254       7.45567574      -3.16908262       1.87603627       0.41389747
C       -1.26808673       5.00859093       7.59579090       0.65871252      -1.06948558       0.09863986
C        1.21152374       5.02643220       7.53000718      -0.62312099      -0.39786176       0.17107606
C        3.65789742       4.98974632       7.41030803       1.26099780       0.93978783       0.24040123
C        6.15031489       4.97149121       7.29248716       0.68701522      -0.00651106       0.34608925
C        8.58204471       4.95989677       7.41548418       1.18855054       1.36404299      -0.13293066
C       11.04022520       4.90183316       7.60250724      -0.69805014       1.96445986      -0.54345742
C       -2.53304314       7.07800183       7.58447542       2.73646932       1.49790696       0.81678728
C       -0.01182900       7.13565661       7.80091572      -0.71277485      -1.17404001      -1.23058782
C        2.45025037       7.09835901       7.68267194       0.14522799      -1.84719775      -0.60692304
C        4.95838734       7.10750977       7.47169207      -1.22861193      -1.42752121      -0.36270758
C        7.41639718       7.13528649       7.49930778      -1.35159551      -2.38015350       0.20884814
C        9.80814513       7.11309621       7.65418435       2.36921834      -0.30930268      -0.86288048
C       -3.70066391       9.30397145       7.64430993       0.58215509      -3.20234395       0.05265902
C       -1.24193277       9.28272579       7.62146248      -0.43830804      -2.02179546       0.98732932
C        1.24048156       9.19718281       7.69042520      -0.26678101       1.95324779      -0.86221045
C        3.66702678       9.14579919       7.48037221      -0.54089223       1.55646461      -0.43714924
C        6.19797961       9.20387807       7.53434942      -2.64258934       1.25332126      -1.16158199
C        8.63641368       9.24028337       7.49476844      -1.02003427       0.46520075       1.71827518
C       -4.93408006      11.37027799       7.45243350       1.34130441       1.16859056       0.54682993
C       -2.41196806      11.45009340       7.51546350      -2.55916270      -2.53066691       0.61787029
C       -0.02511478      11.39692125       7.59923580       2.33537954      -0.28691197       0.30263838
C        2.46502713      11.32756739       7.41649184      -0.40258153      -0.53047489       0.54842659
C        4.90561216      11.26253364       7.21495399      -0.28089302       0.50575913       0.87586043
C        7.38234619      11.35830731       7.47571004      -1.05495165      -0.82732598      -1.09941271
72
Lattice="14.76 0.0 0.0 -7.38 12.782534959858314 0.0 0.0 0.0 15.0" Properties=species:S:1:pos:R:3:REF_forces:R:3 REF_energy=-11165.906717070415 config_type=fd_force_conv_snapshot_099 snapshot_index=99 split=validation degauss_Ry=0.0019000869 kgrid=8 lattice_temperature_K=450.0 trajectory_seed=2 pbc="T T T"
C       -0.01544037      -0.07513773       7.75790388       0.13782887       2.59963984      -0.98087123
C        2.47183803      -0.02289625       7.65412971      -1.55094856      -2.35436791      -0.46975392
C        4.91277641      -0.04013866       7.60572836       1.23252926      -0.02898713      -1.57597877
C        7.40210841      -0.01682586       7.30333276      -0.44626920      -0.26954777       0.27674403
C        9.80843819       0.03528255       7.47794152       1.63727181       0.26350722      -0.20541674
C       12.29632036       0.00239025       7.53195373      -1.04675832       3.14199322       0.47548259
C       -1.19771373       2.09323360       7.62113379       0.16066181       2.36460707      -0.47374350
C        1.27397860       2.06282613       7.74778352      -1.63553991       2.04809553      -0.41987837
C        3.67892969       2.04924561       7.74106959       1.47933408       2.40245911      -0.10834166
C        6.16186053       2.07295921       7.49114948       0.30267284       1.28003554      -0.82588333
C        8.58094794       2.16373685       7.38158249       0.75843995      -0.73149402      -0.66249795
C       11.04870124       2.21842679       7.57134459       1.19429902      -2.35744423      -1.11049879
C       -2.43293732       4.28125652       7.40909878       0.18879868      -1.28580535       0.62474310
C        0.03672705       4.22036641       7.43537274      -0.08862310       1.83691977       0.85948431
C        2.47065321       4.27609089       7.60364287       0.41863344      -1.35411030       0.46479914
C        4.89587777       4.22127667       7.59789958       1.64579244       1.39351812       0.98058429
C        7.37573051       4.25689891       7.49244539      -0.56233883       0.28127380      -1.15881496
C        9.83723623       4.25186472       7.42104021       0.69160592       2.94431241      -1.16151616
C       -3.68467420       6.43666159       7.39878705      -0.57060364      -1.99101524      -0.20945312
C       -1.16370540       6.34514047       7.37953383      -1.50870122       2.43390910      -0.05488045
C        1.28908141       6.43020037       7.51651597      -1.64045406      -0.84442895      -0.22497873
C        3.65880070       6.46159169       7.61294589       1.82309366      -0.66768824       0.23628078
C        6.12227540       6.41315780       7.58112714       1.23924576      -0.28675514       0.76012762
C        8.60345386       6.37478052       7.42769752      -0.12195539       0.68292125       0.39881975
C       -4.97429307       8.52668582       7.51484835       0.13637491      -0.66610752      -1.05942846
C       -2.54441576       8.51105964       7.33851466       3.73141965      -0.33980574      -0.02608796
C       -0.00342706       8.54572679       7.38064861       0.41513752      -0.29057759      -0.49904932
C        2.49580394       8.60673320       7.48576379      -1.84579522      -1.34330653      -0.17702971
C        4.93059419       8.53784573       7.46027375      -0.54415650       0.45779237       0.48903848
C        7.35506916       8.49068558       7.53799734      -0.40942324       1.60963656       0.14567048
C       -6.17571303      10.64913225       7.61488021      -0.80609663      -2.34923830      -1.10280040
C       -3.72859425      10.63431587       7.55381888       1.82213541      -1.70543484      -1.44549605
C       -1.23805956      10.67182492       7.28135701       1.12466249      -2.13860427       1.14475720
C        1.27411898      10.66095336       7.22037087      -0.99485443       0.35565453       1.09266639
C        3.70651371      10.70733848       7.44257653      -1.14087895      -1.78009710      -0.17202840
C        6.11609602      10.67618091       7.58233816      -0.56997063      -2.15254171      -0.63611483
C        1.23646375       0.65369049       7.73540956      -0.34050533      -0.48883973       0.32280483
C        3.67172946       0.65616801       7.63582167       1.29256889       0.23609283       0.78715429
C        6.16951651       0.67846310       7.35464251      -1.50595760      -1.03412752       1.65386108
C        8.59396368       0.72980678       7.41652574       0.03099491       0.44836208      -0.52065096
C       11.05196063       0.78678188       7.51631063       0.09928623      -1.62958447       0.39671402
C       13.53183375       0.70488384       7.64136509       0.57703243      -1.63214837       0.40902935
C        0.06357521       2.85694868       7.59693870      -1.11708699      -3.61110128       0.34476231
C        2.46356972       2.80236577       7.76914115       1.37623850       0.64657177      -0.84620199
C        4.96758086       2.77769006       7.68964777      -2.98598562       0.48068008      -0.68569033
C        7.35430879       2.84118046       7.29672756       0.13271160       0.09608110       1.90194348
C        9.81902297       2.88823885       7.39631685      -0.07270283      -1.51635848       1.00589809
C       12.33660485       2.83087139       7.51992863      -0.71243443       1.27349953       0.15569444
C       -1.20383695       4.95364136       7.44305054       1.01877803      -0.25207018      -0.76812144
C        1.25416632       4.95359600       7.49731640       0.31094639       1.71267815       0.16311593
C        3.69628468       5.02159359       7.58748647      -0.54084903      -1.43876876       0.43465090
C        6.15281474       4.98141290       7.64314050      -1.17868599      -0.63267701      -1.09009040
C        8.59734190       4.96252191       7.32474479       0.44564314       0.00945986       1.56395860
C       11.11692625       4.99482336       7.40047142      -2.25725477      -0.20882243       0.10493161
C       -2.45318919       7.08516457       7.34593050       0.84352341       0.52660049       0.24201254
C        0.05016152       7.11673448       7.39654243      -0.61770085      -0.54490881       0.39321706
C        2.46066694       7.19806659       7.63291889       0.46665882      -1.48400783      -0.89344241
C        4.91394588       7.16087565       7.60814397      -0.31099138      -2.16680413      -0.65169289
C        7.39903880       7.11488326       7.58146327      -1.85760738      -2.22206717      -0.98657702
C        9.80338979       7.12236283       7.44271073       1.15730470      -0.98012612      -0.07298128
C       -3.74273834       9.20613445       7.36605069      -0.42327429       1.27288247       1.53468119
C       -1.25068899       9.22270214       7.34517773      -0.86624142       0.68339434      -0.60821631
C        1.24346154       9.27484384       7.32603037       0.20079236      -1.02185616       0.35612813
C        3.71788994       9.24084623       7.42283863       0.01504147       2.82182017       0.25551803
C        6.13000550       9.22828908       7.48620187       0.69771692       1.23047521       0.49829188
C        8.55131487       9.19671630       7.53188161       1.17548574       2.22301565       0.56164000
C       -4.93890646      11.29382603       7.49525161      -0.45558560       3.03784992       1.90829462
C       -2.45457590      11.31721676       7.52754381      -1.21824910       1.52873423      -0.41309426
C        0.04241823      11.33547739       7.27857763      -1.54607067       1.38301105      -0.66441625
C        2.46347529      11.38888831       7.41063337       0.67369536       0.53990004      -0.55016851
C        4.89528208      11.41063676       7.52617437       1.05948168      -1.29948645       0.01231764
C        7.33026359      11.32190402       7.63639403       1.77671353       0.85372812       0.55606791
72
Lattice="14.76 0.0 0.0 -7.38 12.782534959858314 0.0 0.0 0.0 15.0" Properties=species:S:1:pos:R:3:REF_forces:R:3 REF_energy=-11166.038551871421 config_type=fd_force_conv_snapshot_105 snapshot_index=105 split=validation degauss_Ry=0.0019000869 kgrid=8 lattice_temperature_K=450.0 trajectory_seed=2 pbc="T T T"
C       -0.01834348       0.00756617       7.13683160      -0.05895102       0.28135428      -0.73174084
C        2.50355134      -0.01706065       7.26561795      -2.18233617       0.66183949      -1.22257781
C        4.87581071       0.01587148       7.52595182       1.24326336       0.16068495       0.18561874
C        7.33690639      -0.01159644       7.70705473       0.54092385       0.59851682      -1.01533609
C        9.78425794      -0.02545441       7.53360285       2.17404076      -0.51452916       0.31725999
C       12.30366096      -0.02860921       7.31359039      -1.72148983       1.90243662       0.00256365
C       -1.29558470       2.16832304       7.26579961       1.70143626      -1.44246369       0.00033270
C        1.20133713       2.10379218       7.28742313      -0.56169065      -0.27685407       0.21766188
C        3.64899998       2.10853029       7.38957736       0.45306026       2.95804390       0.58106006
C        6.09745236       2.14863757       7.47577303       2.89356655      -1.11707182       0.18166232
C        8.62439382       2.07610901       7.37659981      -0.80240504       1.01949485       1.01022988
C       11.02453666       2.12506500       7.47685625       1.70985405      -1.02549015      -0.75747990
C       -2.46833305       4.26482149       7.58543193      -0.17675383      -1.53052603      -0.24212618
C       -0.02828017       4.22915851       7.48440845       0.77079179       1.02176874       0.35797572
C        2.40990376       4.25925542       7.38719046       2.11529028      -1.19671097       1.25034701
C        4.93603333       4.29479176       7.35836177       0.70902566      -1.94167474       0.09519484
C        7.41194277       4.24805007       7.40701732       1.69203965      -1.58210699       0.59181550
C        9.84046033       4.23599204       7.62701672       0.43332781       1.31149350      -0.64168307
C       -3.67661755       6.37623102       7.69838381       0.56909954       1.56374340      -0.10326862
C       -1.22810596       6.37545058       7.76748939       0.43033993       1.73732140      -0.47620147
C        1.22697704       6.43926507       7.56967694       1.90197151      -3.27606160       0.43747192
C        3.70439210       6.35334613       7.34981905       0.30585406       2.42808298       1.60017285
C        6.17304075       6.43138544       7.38531512       1.23947433      -1.87000678      -0.35882290
C        8.67119873       6.40332972       7.65347278      -2.34748609       0.53354864      -0.87129493
C       -4.89130055       8.54797227       7.57994545      -1.78435305      -1.12923391       0.19454921
C       -2.45172068       8.57443228       7.73299744       0.75885107      -0.51704525       0.15331797
C        0.05123029       8.53483799       7.86476727      -1.40059636       0.07339960       0.15646448
C        2.51201224       8.49807864       7.72699075      -0.32694276      -0.24355058      -0.02337827
C        4.92106554       8.56493842       7.35635049       0.12447816      -1.89728053       0.62640481
C        7.36650740       8.54258284       7.48644376       0.27842399       0.61114685      -0.18431853
C       -6.11857430      10.62929961       7.30084225      -0.58954881       1.80610535      -0.62845783
C       -3.70328927      10.64904454       7.56517417       1.01719475       0.51711929      -0.80044638
C       -1.22378045      10.68293053       7.75085275      -0.96905958       0.23650087       0.46133047
C        1.23691509      10.60363446       7.81572562      -0.00369442       1.39448536      -0.31314700
C        3.67931567      10.68227785       7.54113299       0.67075916      -2.29997108      -0.58649383
C        6.18597128      10.66065520       7.25965543      -2.03511763       0.13079330      -0.24671895
C        1.24366121       0.67610346       7.14563508      -0.56465462       0.50377090       0.79756546
C        3.67648050       0.74671110       7.30862078       0.43323217      -2.34591746       0.98545653
C        6.10436050       0.74477775       7.62507648       0.13912085      -1.91176767      -0.44846210
C        8.58614941       0.66879396       7.52730687      -0.70323785       0.48785731       0.22132982
C       11.05053120       0.69186985       7.48055427      -0.72060565      -0.41991437      -0.73012825
C       13.46241940       0.76417552       7.17143439       2.29273214      -2.43711603       0.32546721
C       -0.02924222       2.83175145       7.32806772      -0.38699551      -0.08981172      -0.13170579
C        2.38521954       2.81230138       7.48127932       2.08565574       0.85615524      -1.77887686
C        4.92001839       2.84045707       7.44332463      -2.52657885       1.61492609      -0.55780700
C        7.39803790       2.77213065       7.42259299      -0.74892995       2.34010600      -0.30217713
C        9.83826822       2.84934002       7.43464491      -1.16583536      -1.23556445       0.62661564
C       12.26822894       2.81448988       7.39486763      -1.17783778       2.57950835       0.94443381
C       -1.25548870       4.95738408       7.67900043       1.09278235       0.22904698      -0.80824248
C        1.22977086       4.94406501       7.47239541      -2.16505887       2.26229876       0.00512215
C        3.68866509       4.97015088       7.41880866      -0.01871043      -0.94747311      -1.13496155
C        6.24131147       4.93536272       7.30188716      -3.99872208       2.91259066       0.85933184
C        8.63605383       4.97911888       7.63357000      -0.23061304      -0.41720468      -0.80983450
C       11.08664993       4.96265093       7.64127307      -1.02474042       0.02157541       0.46149451
C       -2.45752982       7.15495060       7.73369954       0.86756374      -2.12738989       0.31908033
C        0.05221671       7.11674147       7.72247166      -3.08914985       0.12310211       0.60204797
C        2.49255980       7.07578851       7.63048021       0.00722197       0.47608577      -1.29642349
C        4.95958182       7.12528650       7.37947384      -1.53458169      -0.74767294      -0.54425240
C        7.39500357       7.14512481       7.47507996       0.99469065      -1.39722076       0.78491846
C        9.87634069       7.12151888       7.64321635      -0.15691185      -0.37601124       0.37094745
C       -3.69756314       9.23404854       7.59471554       1.26417491       1.17372299       0.47919989
C       -1.20238038       9.30139792       7.84927661      -0.29977494      -2.80640024      -0.54385800
C        1.28634356       9.20381641       7.91889456      -0.35267102       0.00534738      -0.98136976
C        3.70271094       9.21247412       7.50752054      -0.66860921       2.19518037       0.53706720
C        6.12422832       9.26279005       7.37726247       2.05195604      -0.33357698      -0.30204934
C        8.60817597       9.25138429       7.53526027       0.58332032      -0.64594699      -0.81213461
C       -4.87721835      11.35939038       7.25463299      -0.91540014      -0.80855307       1.47460300
C       -2.48068885      11.37959331       7.66042455       0.08698016       0.03050074      -0.46916642
C       -0.00196650      11.34251028       7.72944428       0.53960256       0.91110820       0.80286501
C        2.43927542      11.33078307       7.65182740       0.04453922       0.96069912       0.03450420
C        4.90871367      11.35123527       7.30349608       0.91161676       0.03108001       0.54783961
C        7.39715764      11.35771384       7.11334269       0.28178802       0.24557558       1.25361848
72
Lattice="14.76 0.0 0.0 -7.38 12.782534959858314 0.0 0.0 0.0 15.0" Properties=species:S:1:pos:R:3:REF_forces:R:3 REF_energy=-11165.631643857707 config_type=fd_force_conv_snapshot_111 snapshot_index=111 split=validation degauss_Ry=0.0019000869 kgrid=8 lattice_temperature_K=450.0 trajectory_seed=2 pbc="T T T"
C        0.03218973      -0.02151482       7.94798451       0.01189032       0.08291576      -0.98687784
C        2.49158954      -0.01857229       7.64837009      -1.43376514      -0.53601973       0.54164350
C        4.90839976      -0.00293928       7.41253218       0.62084068       0.13480397       0.42082197
C        7.37388525       0.01702747       7.27766127      -0.57268906      -0.35736277       0.64421149
C        9.84418158      -0.01303716       7.43364294       1.90251915       0.20430603      -0.28912158
C       12.30324556       0.00882065       7.74114924      -0.34296228      -0.47133746      -0.45626411
C       -1.26012419       2.11395105       7.77209626       2.02436682      -1.71378244      -0.34105092
C        1.21608941       2.19282794       7.71027389       0.88794333      -3.14666183      -0.10255282
C        3.70219851       2.09274463       7.57391969      -0.13030916       2.57330763      -0.28816719
C        6.16259372       2.15434733       7.42318755       0.66415631      -1.77050020       0.77525497
C        8.65660760       2.09069798       7.52441986      -1.88599313       0.86924653       0.21954958
C       11.07068978       2.11088521       7.64821891       1.17207286       1.07408734       0.15377511
C       -2.46004196       4.18622860       7.51678196       1.68217535       1.39886190       0.21794007
C       -0.00958886       4.28101040       7.58672117      -0.48217954      -1.11840879      -0.30063009
C        2.42777490       4.28683565       7.48352847       1.45812942      -0.22242742       0.89734174
C        4.93886011       4.25351267       7.49605851      -0.19967933      -0.27711761       0.23021298
C        7.43564942       4.29892631       7.52416443      -2.02437144      -3.73665493       0.71316385
C        9.85390809       4.17730438       7.50096573       0.85628405       2.90225611       0.17480699
C       -3.73046741       6.29256255       7.40629108       2.24237271       3.41297412      -0.40852541
C       -1.20523463       6.41457472       7.41254215      -0.96631827      -1.07868962       0.01177154
C        1.19126323       6.45731290       7.36887523       2.15266075      -2.13923111       0.96874488
C        3.69741663       6.39225601       7.28499746      -1.33811804       2.26095099       1.67508014
C        6.11476342       6.43892067       7.48421899       2.15120602      -1.46725838       0.98364879
C        8.60076602       6.36316871       7.54165994       0.29615252       1.44533510      -0.56288082
C       -4.90157841       8.54128832       7.49242594      -0.87123785      -1.03523720      -0.20801099
C       -2.45572387       8.46184952       7.28894849      -0.27521011       2.51062927      -0.10082350
C       -0.02626392       8.56061077       7.28875371       0.20716047      -0.29204338      -0.48694071
C        2.41774658       8.57100450       7.19249050       0.33019135      -0.96888629       1.44023712
C        4.88054034       8.54320879       7.50959416       1.81022066       1.43727572      -0.40514030
C        7.35745182       8.57673087       7.62480468       0.41750113      -1.58967606      -0.41550030
C       -6.14024164      10.62545955       7.80929954       1.45611856       0.61832563      -0.76151371
C       -3.65785256      10.65452419       7.45660771      -0.14015649      -2.16028613      -0.31911195
C       -1.21607374      10.67440151       7.35871847      -1.34995592      -1.55119590      -1.65031964
C        1.21446767      10.72376628       7.09855951      -0.30094685      -2.82376033       0.82976672
C        3.62455722      10.62462593       7.29377785       4.23963110       0.50971349       2.06058723
C        6.13205971      10.69263539       7.76107121      -0.34557503      -0.91166433      -0.82255478
C        1.24928059       0.70212439       7.77201166       0.18640344       0.80333861       0.40573165
C        3.68373970       0.71128527       7.57996385       0.81601209      -1.19432113      -0.65785223
C        6.14322721       0.71936392       7.41265667       0.30930037      -0.22956172      -0.78963823
C        8.62605903       0.67227969       7.40000483      -0.12815792       1.12060786       0.00833526
C       11.10831516       0.76547118       7.60900207      -2.20356936      -4.39202475      -0.04729930
C       13.54801869       0.66869649       7.85268249      -0.05295470       1.01969386       0.32368235
C       -0.03466039       2.81943698       7.64240214       0.49223693       2.02154477       0.86512608
C        2.47314507       2.86351685       7.63372470      -0.43338643      -0.17385825      -0.50793660
C        4.95801075       2.80904881       7.44907614      -2.57996987       1.79396795       0.66794689
C        7.37785219       2.82743648       7.56337906       2.68000146       0.80230194      -1.11122487
C        9.88631235       2.81575390       7.58910684      -2.43420606      -1.30654772      -0.35987114
C       12.30116160       2.77784986       7.68029129      -0.35616027       1.87529220      -0.34871538
C       -1.24058840       4.96842322       7.48011480       0.33201838      -0.01126375       0.40682308
C        1.21314485       4.98983580       7.54424791      -0.38636096       1.19712209      -1.03411877
C        3.67397712       5.00008465       7.46181461       1.07603830      -0.86896319      -0.79562247
C        6.19510436       4.93372339       7.58999534      -2.17566261       3.32993289      -1.46712289
C        8.64094347       4.92981640       7.48994283       1.07117069       1.53627039       0.34563597
C       11.11388410       4.90472878       7.47197338      -2.78235014      -0.58185376      -0.08902008
C       -2.44944466       7.08182872       7.33552211      -1.24262907      -2.10659249       0.30995703
C        0.01707843       7.15462656       7.41327579      -2.15776079      -0.38975199      -0.65285709
C        2.41919637       7.16474420       7.32676101       1.25339274      -1.75644347      -1.06813704
C        4.91397590       7.17231587       7.43710736      -0.81882591      -3.18517053      -0.54548370
C        7.37268146       7.13836885       7.56862997      -0.59853739      -1.09649014      -0.23637514
C        9.82785439       7.09388742       7.42832825       0.16216102      -0.93020455       0.65436144
C       -3.66172191       9.21443189       7.36232881      -0.76917508       0.19428541       0.66074240
C       -1.25112367       9.23489690       7.23877180       0.04411627       0.29865986       0.99681232
C        1.17425910       9.26346557       7.17065741       1.50400999       1.67068355      -0.29293375
C        3.66988097       9.21851216       7.41885519      -1.51304407       1.26922070      -1.82501016
C        6.14127723       9.28014219       7.55292037      -1.19377682      -0.23364463       1.30404810
C        8.59295202       9.24624693       7.65923241       1.51928543      -0.92016234      -0.10762021
C       -4.86352668      11.30613963       7.63407361      -2.22066617       2.18796225       0.56944381
C       -2.45796892      11.34998227       7.36426333       0.85309357       1.62813848       0.52191286
C       -0.02063116      11.37731876       7.20673290       0.71772216       1.23327231       0.25800686
C        2.47327789      11.34191285       7.24897236      -2.12277553       2.39655997      -0.37587343
C        4.86658642      11.37955534       7.61041714       0.58856922      -0.74235744      -0.02504949
C        7.41276499      11.32590863       7.90544628      -1.35968908       1.67356987      -0.01337616
72
Lattice="14.76 0.0 0.0 -7.38 12.782534959858314 0.0 0.0 0.0 15.0" Properties=species:S:1:pos:R:3:REF_forces:R:3 REF_energy=-11165.1871151534 config_type=fd_force_conv_snapshot_117 snapshot_index=117 split=validation degauss_Ry=0.0019000869 kgrid=8 lattice_temperature_K=450.0 trajectory_seed=2 pbc="T T T"
C       -0.02606838      -0.02623153       7.20169742      -1.08549327      -0.04099907      -0.12504997
C        2.44838376      -0.04142739       7.33314126      -0.07432108       1.33305400       0.30303356
C        4.92891229      -0.01973774       7.43625060       0.90482288      -1.11677280       0.44765554
C        7.41888373      -0.05471335       7.44087934       0.92701844       3.17148480       0.46987450
C        9.81060399       0.04784515       7.47910995       3.32387872      -0.31136548       0.04726176
C       12.27705575       0.04423436       7.29222534       0.81673920      -0.76105656      -0.58066694
C       -1.28383009       2.16435023       7.17925330       0.84809869      -2.20836293       1.04510818
C        1.18582097       2.07564446       7.37878055      -0.40084732       1.42587056       0.15087105
C        3.65135359       2.10851273       7.49139685       0.47391576       0.35557174       0.06737267
C        6.09111299       1.99264024       7.42071825       2.16807786       5.80007757       0.79582019
C        8.65240137       2.15409472       7.45747880      -3.91110711       0.07522534      -0.08355185
C       11.02782272       2.18910840       7.28793699      -0.56122631      -1.52441709       0.94755822
C       -2.46333552       4.26577556       7.41955177      -1.89331717      -0.56295641      -0.72254632
C       -0.06964963       4.21232854       7.56298438       1.64196099       3.90540594      -0.14303561
C        2.43176039       4.27987829       7.58362088      -1.67225912      -2.03961526      -0.00925031
C        4.85543330       4.23790631       7.59441058       2.55542535      -0.83860386       0.40712699
C        7.35142196       4.22068411       7.50548094      -0.49047958      -0.82619495      -0.28604345
C        9.77056020       4.32515377       7.33823768       2.18765603      -2.10263788       0.66553288
C       -3.68466659       6.38894103       7.49615458       2.50680013      -0.73233400       0.04247334
C       -1.19340715       6.39424994       7.64518205      -1.35234421       0.38257886      -0.32336713
C        1.20772399       6.44496373       7.67414009       1.26645420      -2.06672883       0.20498737
C        3.64557881       6.38493011       7.73933663       0.99594792      -0.05597883       0.22342192
C        6.14926312       6.37915880       7.56501717       0.82045187      -1.83754300       1.45319368
C        8.60801110       6.39955196       7.44344423      -0.04045039      -0.56454278       0.91697700
C       -4.89873178       8.46557940       7.46501333       0.40663822       2.12374021      -0.53676895
C       -2.39423568       8.56575553       7.68155707      -0.72435407      -1.88431934      -0.85070579
C        0.01764163       8.54630232       7.65693547       0.83420933      -1.24937616       1.48305730
C        2.49050055       8.56357806       7.79603383       0.11444263       0.30217790       0.70767378
C        4.94912666       8.50986512       7.69368760      -1.26811462       0.83766490       1.23627485
C        7.36399205       8.54921346       7.38803383       1.44969595      -1.27195610       1.08141576
C       -6.11711921      10.66495157       7.35574310       0.56440497      -1.56752678      -1.67580107
C       -3.68121140      10.66749742       7.50966456       3.09424886      -2.79005754      -0.91752747
C       -1.17728256      10.65458453       7.64676810       0.52290865       0.74896749      -0.39031249
C        1.28842604      10.66991091       7.69096187       0.33520320      -0.26046869       0.58517665
C        3.73397167      10.72719411       7.58010697       0.91139102      -1.90363707       0.75763340
C        6.18557475      10.65623306       7.34787377      -1.23853047       0.60519963      -0.08873314
C        1.15063672       0.66054937       7.30344890       3.57511046       0.83105022      -0.20284307
C        3.67846145       0.68683863       7.46254287      -0.10430580      -0.32922976      -0.73146059
C        6.21252477       0.64013464       7.44873392      -3.40479287      -1.15525527      -0.48443132
C        8.62504413       0.75974796       7.44872170      -0.56046295      -2.08965638       0.04208073
C       11.08346275       0.76199081       7.38013970      -2.58838663       0.05315370      -0.38792496
C       13.50775658       0.69969745       7.17604166       0.15590527       1.69256415      -0.02889329
C       -0.04845774       2.84803031       7.40382897       0.09399130      -1.88533981      -0.79078571
C        2.41323563       2.79888284       7.45791649      -0.11695306       1.15440912       0.51924740
C        4.89728171       2.83244971       7.53970777      -1.04259184      -2.76992657      -0.63739499
C        7.32528016       2.78250372       7.45049084       1.43539033       0.24294662       0.07087580
C        9.80687409       2.90168784       7.45359904       0.90042295       0.10848950      -1.30696321
C       12.23782357       2.82253167       7.26570699       2.41842926       2.76489081       0.00827201
C       -1.28364589       5.00541800       7.53867161       1.80917679      -2.41110495       0.19289753
C        1.19165723       5.00409838       7.62088750      -0.03170402      -1.39192866      -0.02953066
C        3.65727520       4.92860956       7.69512756      -0.80282413       2.49224923      -0.49533588
C        6.12582478       4.88550420       7.60077395      -0.42102071       3.32717256      -0.55449568
C        8.56810714       4.98541096       7.42020378      -0.86001472       0.20424638       0.04792819
C       11.05520894       4.94298647       7.35939022      -0.12746990       2.44073975       0.70383409
C       -2.38906413       7.12584365       7.59298015      -2.27461949      -0.14786697       0.32766473
C        0.01490439       7.09086554       7.70216927      -1.08595813       2.65763055      -0.44761852
C        2.42539937       7.16373740       7.72442520       2.14156413      -1.87669962       0.29183923
C        4.93793298       7.05475898       7.76689440      -1.41801970       1.57228075      -1.16259654
C        7.40727296       7.10512456       7.57808454      -1.75757578       0.77613917      -1.69746390
C        9.86702642       7.06156196       7.53994491      -1.10744792       0.95859673      -1.03402801
C       -3.63159486       9.19906882       7.50924858      -2.06868286       1.44408323       0.78377560
C       -1.17700513       9.26993979       7.70076452      -0.18280569      -0.79060754      -0.17132726
C        1.25611300       9.22608767       7.81465733      -0.17635634       1.98133709      -1.33828414
C        3.72275237       9.30099315       7.85607305       0.73728543      -1.35214598      -2.00441300
C        6.15465560       9.24822045       7.55726019       0.11702736      -0.18116559      -1.22489103
C        8.62444197       9.23128851       7.26174224       0.40474203      -0.47909653       1.86516025
C       -4.85764812      11.33681502       7.32012425      -2.37195065       0.98476234       0.76754551
C       -2.38662286      11.32754804       7.48680786      -2.81773675       1.50727066       0.55934349
C        0.05505539      11.37550692       7.61491956       0.43174247      -2.01288684      -0.13596636
C        2.54176746      11.41297143       7.62372347      -3.53842185       0.14575584      -0.34113577
C        4.93541142      11.40611864       7.32237756       0.92963557      -0.74034993       0.97986413
C        7.42305119      11.34908772       7.22306037      -1.24786795      -0.27607657       0.74131512
