72
Lattice="14.76 0.0 0.0 -7.38 12.782534959858314 0.0 0.0 0.0 15.0" Properties=species:S:1:pos:R:3:REF_forces:R:3 REF_energy=-11166.919025448997 config_type=fd_force_conv_snapshot_000 degauss_Ry=0.0019000869 kgrid=12 lattice_temperature_K=300.0 pbc="T T T"
C        0.00510370      -0.01942390       7.38759368      -0.76218502       0.90129944       1.11572996
C        2.43371386       0.01215294       7.61238722       0.58335940      -1.57862289      -0.26151179
C        4.87309044       0.05556129       7.51714612       1.17160389      -2.09434350       0.13546525
C        7.34906766      -0.05943043       7.47504195      -0.92567710       1.89510898       0.11256650
C        9.81560454      -0.00132801       7.50160947       1.91682426      -0.35796955       1.44200244
C       12.32280025       0.04266828       7.58981355      -0.90820620      -0.62006858      -0.38622315
C       -1.22715689       2.18758723       7.41907184       0.00365148      -2.56517831      -0.41371441
C        1.25526139       2.11571119       7.51838058      -0.30526528       0.33923572       0.02382307
C        3.67610675       2.12974472       7.44114445       0.85932875       0.73090986       1.02598715
C        6.11110642       2.16736901       7.34492546       1.31223500      -0.72807368       0.02567092
C        8.59193641       2.08931831       7.37507468       0.25610681       1.04634180       0.23318414
C       11.07974256       2.14909911       7.46336385      -0.21643983      -0.55134505       0.24326184
C       -2.41750163       4.32438255       7.37452923      -1.83518247      -3.65809539       0.87121239
C       -0.00247084       4.25592285       7.56377364       1.08247120      -0.60294940      -0.13391719
C        2.47282021       4.25631368       7.53338688       0.51056221       0.51626517       0.63516481
C        4.93948213       4.29136259       7.41999041      -1.78370153      -0.35443788       0.31731321
C        7.38390711       4.28975340       7.37415406      -0.39717965      -1.22559757      -0.27737369
C        9.84244958       4.22754468       7.39876094      -0.05973547       0.99309014      -0.16990390
C       -3.66812019       6.33155426       7.33975923      -0.12938820       0.53180749       0.13257559
C       -1.21444728       6.39103959       7.50487690       0.15178970      -0.32057363       0.31156474
C        1.22511831       6.34887418       7.68550746       0.35771990       1.49076109      -0.17584700
C        3.68167651       6.37993589       7.56512677      -0.24846190       2.78024492       0.80307533
C        6.09100433       6.41692227       7.49403525       2.70985094       1.00213168      -0.23235882
C        8.61339903       6.37636937       7.33715784       0.36228463       1.04437362       0.94495369
C       -4.90404964       8.45011705       7.30791755       0.02721898       2.62169964       0.80646713
C       -2.50854061       8.48418222       7.45310316       1.74038153      -0.48980415      -0.56551414
C        0.01503638       8.51278871       7.67227298       0.19001069      -0.65316973      -0.52038768
C        2.50986597       8.55081328       7.63815844      -1.97719607      -2.18732796       0.23714261
C        4.94692576       8.57133277       7.65613477       0.43752257      -0.29332610      -0.38018620
C        7.43843838       8.53335065       7.45564824      -1.68409468       0.69189389       0.27807201
C       -6.12861464      10.62651835       7.43499293      -0.51254530       0.78681465       0.69866155
C       -3.73083469      10.66011414       7.49149531       1.63616238      -1.52913789      -0.33738478
C       -1.27558986      10.61308085       7.58274163      -1.23121466      -0.30406586      -0.22575880
C        1.23829366      10.65457183       7.68398190      -1.14117540      -0.22912951      -0.72753401
C        3.67635965      10.67156185       7.61881380       2.46413396       0.03891390       0.80192810
C        6.14558784      10.67113236       7.56341647       0.91837851       0.59441257       0.35210204
C        1.22007770       0.69719682       7.57375741      -0.10283461       0.42155885      -1.08786357
C        3.64971847       0.72622539       7.57531001       0.21519362       0.22313602      -0.60371559
C        6.12195224       0.74717362       7.41397502       0.12835153      -1.46150708       0.26497352
C        8.59268321       0.67317284       7.50600804      -0.87309367       0.03178243      -0.97741027
C       11.07111800       0.71931912       7.58457611      -0.63685480       0.57275077      -0.94606800
C       13.51706680       0.73168089       7.36864206       1.44893979       0.51959192       1.07195359
C        0.02835986       2.81740831       7.41865541      -0.34238301       1.97056083       0.96188595
C        2.49494038       2.84403548       7.54399987      -1.82265683      -0.14055295      -0.62494776
C        4.89861362       2.87329987       7.40803354       0.12461057      -0.36997892      -0.39540327
C        7.37327746       2.83188572       7.29535043      -0.20767983       1.10670102       0.75929819
C        9.83771063       2.83642076       7.40065439      -0.67989815      -1.38337151       0.09481997
C       12.30202299       2.87224032       7.45603434       0.64211296       0.77017627      -0.53036742
C       -1.22670718       4.98010695       7.54422723       1.68567591       0.31166244      -0.81800984
C        1.25465053       4.95316638       7.65054942      -1.24497032      -0.76143966      -0.52868977
C        3.69450472       5.00715076       7.53711167       0.38124780      -2.13174945      -0.63134981
C        6.13439525       5.00136513       7.40067187       0.97857523      -0.01208239       0.19985673
C        8.61648497       4.97307832       7.42550991       0.04697765      -0.40929494      -0.78056352
C       11.08394496       4.92356517       7.36112371      -0.49575600       1.26300969      -0.07382511
C       -2.44344693       7.04189449       7.36662729      -0.96326277       1.63794852       0.62693908
C        0.00531883       7.07265443       7.64249897       0.25236149       1.13203538       0.01409042
C        2.43511838       7.08321793       7.63604852       1.35047116       0.93098900       0.04906693
C        4.91050404       7.16257204       7.63000755      -0.51366373      -1.62098516      -0.69826920
C        7.38341179       7.13375620       7.40464135      -0.39578971      -1.74099345       0.19676652
C        9.88818472       7.06942085       7.37566389      -1.74358641      -1.36574635      -0.94161691
C       -3.71803387       9.20889618       7.34777788       0.88489709       0.35779214       0.69502061
C       -1.24735197       9.16380946       7.56682475      -0.41292071       1.45142244       0.31468966
C        1.27671916       9.24799492       7.67528213      -1.37746466      -0.51583554       0.25529743
C        3.70556324       9.24700401       7.63591941       0.89787499       1.06143212       0.12609873
C        6.19614097       9.27396575       7.56751683      -0.77199532      -1.47226946       0.09077383
C        8.66019413       9.22738794       7.43755530      -0.45321838      -1.26892323      -0.85101201
C       -4.91822841      11.33921419       7.50844922      -1.35986315       2.08235445       0.10895770
C       -2.51078206      11.37835260       7.55936233       0.98384882      -0.11688646      -0.22847388
C       -0.07985393      11.30849899       7.56873853       2.99131578       1.00165063       0.46803848
C        2.47822267      11.34920178       7.63341173      -1.93315899       1.55112314      -0.48291899
C        4.94744836      11.41586854       7.68097287      -1.45438101      -1.48039801      -1.04371310
C        7.38948065      11.35034910       7.50322099       0.19902935       0.19224781      -0.79461794
72
Lattice="14.76 0.0 0.0 -7.38 12.782534959858314 0.0 0.0 0.0 15.0" Properties=species:S:1:pos:R:3:REF_forces:R:3 REF_energy=-11167.278441162338 config_type=fd_force_conv_snapshot_029 degauss_Ry=0.0019000869 kgrid=12 lattice_temperature_K=300.0 pbc="T T T"
C        0.02096621       0.03979058       7.58595272       0.26299480      -1.56480938      -0.99903067
C        2.47649111       0.06309942       7.58786326      -0.61473971      -2.75313469      -0.40799859
C        4.93902310      -0.03210456       7.39743446      -0.09776311       0.52483183       1.31096205
C        7.45726219      -0.00575981       7.47437864      -3.32465905       0.47306884       0.10148658
C        9.84959157       0.02265084       7.33051955       1.07449332      -1.02239866      -0.31953362
C       12.32711630      -0.00922162       7.29814476       0.13097534       0.17182451       0.48612259
C       -1.25071674       2.11656203       7.46497458       0.46237639      -1.09039277      -0.37952079
C        1.19004211       2.15107787       7.52680092       0.80889579       0.68134928      -0.73788835
C        3.68179741       2.14366101       7.49172302      -0.20987787       0.21550370      -0.34551204
C        6.09992062       2.06371792       7.60603736       2.00514293       1.80225770      -0.12045387
C        8.56914388       2.11441749       7.52072713       2.25328859      -0.10096774      -0.09538458
C       11.04750995       2.09154108       7.38544442       0.91028879       1.34974354       0.29628699
C       -2.44395308       4.24354239       7.53234837      -1.84125722      -0.39785636      -0.04202391
C       -0.00233542       4.24875414       7.51008823      -0.55447357       2.34674047      -0.18583702
C        2.42832615       4.27056815       7.44758270       1.42254459       2.05186965       1.03065756
C        4.90866245       4.25960095       7.63064077      -0.62512157       0.39503612      -0.40171687
C        7.36842848       4.19592988       7.70185280      -0.89719982       0.49779900      -0.08210818
C        9.77560661       4.22623863       7.66610986       2.19971965      -0.00591405      -0.18388581
C       -3.69371773       6.34679725       7.68464727      -1.33311005       1.17429815       0.30460168
C       -1.22002117       6.41238291       7.44864398      -1.57972512      -0.57262993       0.32313959
C        1.23350366       6.41156897       7.30937912       0.05915543       0.87137771       1.23808156
C        3.69570685       6.45190689       7.52553796      -0.31467603      -0.80050166      -0.28164712
C        6.14254290       6.36408328       7.64258259       1.10793052       0.16845842      -0.32172625
C        8.56654688       6.36584486       7.79983590       0.70009082      -0.16893228      -0.94144208
C       -4.91810458       8.50151402       7.71418626       0.20276311       0.58504347      -0.19425739
C       -2.43431980       8.52859295       7.59918235      -1.23778280      -0.49038933      -0.15255949
C       -0.00653428       8.53598899       7.26812410       0.20199949      -0.13095477       0.37190184
C        2.44221428       8.55873508       7.26327463       0.72156082      -0.04383217      -0.70187774
C        4.94017677       8.51183465       7.39776528       0.14026730       1.16668100       0.09843623
C        7.38516374       8.50740379       7.59772901      -0.04300890       1.14550282      -0.24386348
C       -6.13713685      10.64790344       7.56687615      -0.68421220       0.67370590       0.38842427
C       -3.65675975      10.67898685       7.62096324      -1.52035706      -1.80165066       0.00776010
C       -1.16339551      10.66954260       7.50730276      -2.34404981      -1.38964835      -0.58457373
C        1.24735505      10.67589355       7.31052477      -0.32471387      -0.28539836      -0.64358003
C        3.66175742      10.64345994       7.22967853       2.98175153       0.56012434      -0.08582702
C        6.16487461      10.68059835       7.44016496       0.60339112      -0.00638971       0.13728662
C        1.24325253       0.74396789       7.54942069      -0.02955972       0.51497191       0.64750816
C        3.71204872       0.71637174       7.47497911      -0.05812930       0.30438133       0.05792207
C        6.15462260       0.68091889       7.53535934       0.74911790      -1.06216745      -0.81049451
C        8.63305393       0.71545090       7.42209486       0.23617588      -0.11447245       0.17376826
C       11.09972999       0.69652955       7.31879892      -1.12468331      -0.01815353      -0.18223028
C       13.55428082       0.66866336       7.42476173      -0.72034649       2.52615488       0.30937390
C       -0.05261955       2.85846317       7.49015948       1.47423379      -0.90245438       0.43809181
C        2.42435549       2.87915640       7.43622202       0.56001635      -1.75409785       0.77303302
C        4.92499843       2.83041402       7.55477650      -1.56611961       0.19403524       0.30683622
C        7.36511768       2.77436733       7.64183676      -1.55619541       0.94111966      -0.02834693
C        9.82552041       2.81885343       7.49601107      -1.05882605      -0.30033699       0.30397844
C       12.30182157       2.78993632       7.43312636      -1.13938257       1.82844516       0.31493134
C       -1.24328854       4.98712248       7.49014953       0.85087728      -0.68581863       0.10166245
C        1.23623010       5.01916455       7.52255411      -1.16471513      -1.69159562      -1.39893440
C        3.66863137       5.03036563       7.57715582       0.33352350      -1.77890874      -0.60617922
C        6.13932059       4.93359389       7.65743771       0.28854642       0.42398957       0.45347986
C        8.56968708       4.92691219       7.74960884      -0.11342139       0.48024813       0.05933463
C       11.03226550       4.93226322       7.65958320       1.15340639      -0.09671462      -0.42073532
C       -2.47721388       7.09699547       7.58484604       0.81274165      -0.21621795      -0.18873543
C       -0.01635772       7.11542030       7.32181435       1.16276495       0.22461723      -0.27473831
C        2.46368343       7.16941025       7.36278780      -0.43995997      -1.89894455      -0.13423395
C        4.96325858       7.10138427       7.53689116      -1.55396035       0.34294531      -0.14877354
C        7.37953858       7.09598076       7.62361284      -0.99239491      -0.64108863       1.02063360
C        9.78329602       7.07989686       7.75843245       2.26990820      -0.56566712       0.04625183
C       -3.66653816       9.23106855       7.68815852      -0.45693183       0.35132608      -0.21101044
C       -1.22397067       9.22610434       7.43721821       0.94478348       1.09167189       0.29379482
C        1.22397854       9.26635541       7.20347233      -0.26551345      -0.28424445       0.60965844
C        3.69717986       9.22157126       7.20746920       0.03636877       0.56467365       1.06580711
C        6.15665969       9.25881540       7.51257288       0.19574451      -1.00784210      -0.60212793
C        8.62623710       9.22873908       7.60161755      -0.48493268      -0.48300615       0.43362992
C       -4.93752289      11.36056102       7.63453140       2.12179903       1.75083178      -0.45281112
C       -2.42468356      11.33433130       7.49568687       0.18022970       1.15551341       0.15518947
C        0.02337445      11.38271993       7.42699881       1.35870512      -0.36829973      -0.09340124
C        2.47232637      11.37758062       7.23938227      -0.65115604       0.23051688       0.48480850
C        4.95615717      11.38251537       7.32224703      -2.15878203      -1.65586551      -0.37687436
C        7.39882467      11.41205077       7.52320092       0.10316500      -1.62896200       0.23703437
72
Lattice="14.76 0.0 0.0 -7.38 12.782534959858314 0.0 0.0 0.0 15.0" Properties=species:S:1:pos:R:3:REF_forces:R:3 REF_energy=-11166.750320719479 config_type=fd_force_conv_snapshot_059 degauss_Ry=0.0019000869 kgrid=12 lattice_temperature_K=300.0 pbc="T T T"
C       -0.00440673       0.01729802       7.54026919      -0.68346658      -0.62716559      -0.14333617
C        2.40974171       0.04092027       7.61788164       1.14040227      -1.19928027       0.47694401
C        4.87377724      -0.02987609       7.57966609       0.41316188       0.42405976      -0.15551575
C        7.34540582      -0.00147929       7.49143193       0.64870604      -0.16055871       0.10581581
C        9.81480962      -0.00126106       7.42329096       1.50062590       0.63223144      -0.62238334
C       12.29077688       0.00547930       7.40708722      -0.45683155      -0.46765667       0.00903563
C       -1.22699854       2.13058518       7.41138127      -0.08910698      -1.02216263      -0.38424648
C        1.22607226       2.15593389       7.42148114      -0.20252940      -0.12558271       0.37670081
C        3.69315275       2.16886314       7.72227809      -0.28093519      -0.75646200      -0.71138002
C        6.10177402       2.10676353       7.72581899       1.08465869       0.50537784      -0.33758533
C        8.59582982       2.10345015       7.66882367       0.77326468       0.12320624      -0.78524679
C       11.10200521       2.17156159       7.39030910      -1.78653489      -2.65768275       0.72720902
C       -2.45659264       4.25996735       7.46544141       1.88490247      -0.99926181      -1.23138769
C        0.06657753       4.24310987       7.25379432      -3.37329018       0.44299002       0.25841387
C        2.46301072       4.31279158       7.43154162       1.64258911      -1.77555036       0.86372585
C        4.91223859       4.30050585       7.65804299      -0.96193917      -0.01598609       0.55178779
C        7.31653407       4.24009268       7.66188247       1.04189148       0.18309648       0.78500459
C        9.79642899       4.25739726       7.64936790       1.18433445      -0.74769557      -0.53355816
C       -3.63611280       6.36042709       7.47990981      -0.61079641      -0.13537809      -0.30332821
C       -1.18054746       6.37922453       7.28079145      -0.58232273      -1.04116128      -0.33471238
C        1.27110735       6.39365167       7.33521691       0.16537258      -0.13824770      -0.60794763
C        3.72544443       6.44712471       7.62040520      -1.32209596      -0.57027068      -1.18292394
C        6.19901816       6.38399005       7.53486434      -2.16309274       1.83030561       0.47235047
C        8.60848822       6.41129813       7.67700520       1.32281175      -1.40116406      -0.46423762
C       -4.90424493       8.45209439       7.67140687       1.48231348       2.69921609      -1.46441269
C       -2.42152374       8.49356374       7.43819658      -1.55705725      -0.16990158      -1.09359636
C       -0.00012961       8.51804368       7.34497758       1.19359222      -0.59143446      -0.03000117
C        2.42181687       8.54996971       7.43945393       0.70868088       0.58888958      -1.55816231
C        4.87108252       8.52655052       7.44579669       2.31001355       0.02598485      -0.07564314
C        7.40910599       8.52181129       7.52049344      -1.13037008       0.19496084       0.12020987
C       -6.15940985      10.61656726       7.64864562       1.01595933       2.12968434      -0.11554486
C       -3.67532903      10.63955081       7.53919459      -2.33220834      -0.90158586      -0.56622685
C       -1.23409355      10.64679488       7.47090066      -0.04687764      -0.90406415      -0.19811867
C        1.20591355      10.67481606       7.34507127       1.32804240       0.47088212       0.66997112
C        3.67498413      10.63248192       7.40686126       0.82107228       0.95874457      -0.65843124
C        6.18285672      10.66495875       7.52877539      -2.50658004      -1.10213731      -0.61035109
C        1.18089307       0.74008032       7.55568486       1.66369144       0.52941611      -0.15223348
C        3.66948546       0.71929193       7.67702643      -0.30269649       0.41461172      -0.23325536
C        6.10917903       0.68463654       7.57289219      -0.30019301       0.48118941       0.60657620
C        8.59780432       0.70190789       7.47059140      -1.31424561      -0.07837828       0.83268955
C       11.05368265       0.72618933       7.35412556       0.53131615       0.05770995       0.50058864
C       13.53469496       0.69486259       7.44373009      -0.71982712       1.03505311       0.02487645
C       -0.03059904       2.84621657       7.32094280       2.61467796      -0.45484640       0.34022045
C        2.48384592       2.86496375       7.51943045      -1.25474462       0.56776540      -0.14283455
C        4.91049466       2.89220038       7.73694769       0.02245139      -1.40456692      -0.12853176
C        7.35925927       2.80184394       7.74032715      -0.62520693       0.71804972      -0.44667107
C        9.85443645       2.80323309       7.59423737      -1.29590156       2.30597846      -0.03194467
C       12.31893486       2.81751673       7.42817922       0.04139168       2.10334211      -0.07933422
C       -1.18392605       4.95641653       7.29428870      -0.73453898       0.03724886       0.43327073
C        1.24307939       4.95664375       7.30778211       1.26796266       1.77066295       0.00733459
C        3.69844343       5.02124225       7.62620345      -0.88360742      -0.10684759      -0.61553572
C        6.11172218       5.00336787       7.63972725       1.70850936      -1.26182441      -0.20185088
C        8.54049412       4.97339594       7.70356254       1.55706702      -0.22307277      -0.34667264
C       11.08788830       4.93594692       7.46091109      -1.76482886       0.68621689       1.15007116
C       -2.42969454       7.06344159       7.30513040       0.66099386       0.88261883       1.18771185
C        0.04676481       7.06225080       7.26249151      -0.41283072       2.18678495       0.50553827
C        2.49126696       7.16389118       7.37518616      -0.76246219      -2.31627830       1.56059920
C        4.93602504       7.12702692       7.58174304       1.01719140      -0.50466178      -0.50810115
C        7.40637791       7.10645088       7.50913765       0.26646630       0.14594533       0.75376363
C        9.91421064       7.08045831       7.65070055      -2.17422896      -1.68316908      -0.09989970
C       -3.69026096       9.19174916       7.41321948       0.71022585       0.38026333       2.20175339
C       -1.20378240       9.20480388       7.44408153      -0.99037814       1.01162496      -0.39765144
C        1.20555066       9.28382969       7.34628764      -0.03349890      -1.90824423       0.24436947
C        3.66318694       9.21875047       7.34186485      -0.32650310       0.89271453       1.34452600
C        6.13773155       9.20744995       7.45853463       1.03608078       1.54024352       0.42081425
C        8.65417070       9.21363580       7.64315000      -1.70058857      -0.64885748      -0.06483525
C       -4.93016913      11.38161151       7.65266134      -0.00221681      -0.76787333      -0.49532585
C       -2.48607154      11.32917901       7.44464672       1.22775241       1.02409739       1.00015244
C       -0.01087376      11.35181336       7.48400546      -0.66491916       1.06437037      -0.89136753
C        2.48012834      11.37945989       7.36436878      -1.78306904      -0.87358244       0.19457749
C        4.90610003      11.35577329       7.44817991       0.78687969       0.01523199       0.10109732
C        7.37094881      11.38456892       7.58026289       1.35746816      -1.31817631       0.17662322
