
     Program PWSCF v.7.5 starts on  6Aug2026 at 15:42: 6 

     This program is part of the open-source Quantum ESPRESSO suite
     for quantum simulation of materials; please cite
         "P. Giannozzi et al., J. Phys.:Condens. Matter 21 395502 (2009);
         "P. Giannozzi et al., J. Phys.:Condens. Matter 29 465901 (2017);
         "P. Giannozzi et al., J. Chem. Phys. 152 154105 (2020);
          URL http://www.quantum-espresso.org", 
     in publications or presentations arising from this work. More details at
     http://www.quantum-espresso.org/quote

     Parallel version (MPI & OpenMP), running on      16 processor cores
     Number of MPI processes:                 8
     Threads/MPI process:                     2

     MPI processes distributed on     1 nodes
     16439 MiB available memory on the printing compute node when the environment starts

     Reading input from nscf.in

     Current dimensions of program PWSCF are:
     Max number of different atomic species (ntypx) = 10
     Max number of k-points (npk) =  40000
     Max angular momentum in pseudopotentials (lmaxx) =  4

     Atomic positions and unit cell read from directory:
     ./tmp/graphene.save/


     R & G space division:  proc/nbgrp/npool/nimage =       8
     Subspace diagonalization in iterative solution of the eigenvalue problem:
     a serial algorithm will be used


     Parallelization info
     --------------------
     sticks:   dense  smooth     PW     G-vecs:    dense   smooth      PW
     Min          45      45     18                 4167     4167    1176
     Max          46      46     19                 4184     4184    1203
     Sum         361     361    151                33427    33427    9567

     Using Slab Decomposition



     bravais-lattice index     =            4
     lattice parameter (alat)  =       4.6487  a.u.
     unit-cell volume          =     530.5041 (a.u.)^3
     number of atoms/cell      =            2
     number of atomic types    =            1
     number of electrons       =         8.00
     number of Kohn-Sham states=           14
     kinetic-energy cutoff     =      60.0000  Ry
     charge density cutoff     =     240.0000  Ry
     Exchange-correlation= PBE
                           (   1   4   3   4   0   0   0)

     celldm(1)=   4.648726  celldm(2)=   0.000000  celldm(3)=   6.097561
     celldm(4)=   0.000000  celldm(5)=   0.000000  celldm(6)=   0.000000

     crystal axes: (cart. coord. in units of alat)
               a(1) = (   1.000000   0.000000   0.000000 )  
               a(2) = (  -0.500000   0.866025   0.000000 )  
               a(3) = (   0.000000   0.000000   6.097561 )  

     reciprocal axes: (cart. coord. in units 2 pi/alat)
               b(1) = (  1.000000  0.577350 -0.000000 )  
               b(2) = (  0.000000  1.154701  0.000000 )  
               b(3) = (  0.000000 -0.000000  0.164000 )  


     PseudoPot. # 1 for C  read from file:
     /root/phonon/pseudo/C_ONCV_PBE-1.2.upf
     MD5 check sum: 1a5f83a7b1f58d24996abe00ed223ac6
     Pseudo is Norm-conserving, Zval =  4.0
     Generated using ONCVPSP code by D. R. Hamann
     Using radial grid of  602 points,  4 beta functions with: 
                l(1) =   0
                l(2) =   0
                l(3) =   1
                l(4) =   1

     atomic species   valence    mass     pseudopotential
     C                 4.00    12.01100     C ( 1.00)

     24 Sym. Ops., with inversion, found (12 have fractional translation)


                                    s                        frac. trans.

      isym =  1     identity                                     

 cryst.   s( 1) = (     1          0          0      )
                  (     0          1          0      )
                  (     0          0          1      )

 cart.    s( 1) = (  1.0000000  0.0000000  0.0000000 )
                  (  0.0000000  1.0000000  0.0000000 )
                  (  0.0000000  0.0000000  1.0000000 )


      isym =  2     180 deg rotation - cart. axis [0,0,1]        

 cryst.   s( 2) = (    -1          0          0      )    f =( -0.3333333 )
                  (     0         -1          0      )       (  0.3333333 )
                  (     0          0          1      )       (  0.0000000 )

 cart.    s( 2) = ( -1.0000000  0.0000000  0.0000000 )    f =( -0.5000000 )
                  (  0.0000000 -1.0000000  0.0000000 )       (  0.2886751 )
                  (  0.0000000  0.0000000  1.0000000 )       (  0.0000000 )


      isym =  3     180 deg rotation - cart. axis [0,1,0]        

 cryst.   s( 3) = (    -1          0          0      )
                  (     1          1          0      )
                  (     0          0         -1      )

 cart.    s( 3) = ( -1.0000000  0.0000000  0.0000000 )
                  (  0.0000000  1.0000000  0.0000000 )
                  (  0.0000000  0.0000000 -1.0000000 )


      isym =  4     180 deg rotation - cart. axis [1,0,0]        

 cryst.   s( 4) = (     1          0          0      )    f =( -0.3333333 )
                  (    -1         -1          0      )       (  0.3333333 )
                  (     0          0         -1      )       (  0.0000000 )

 cart.    s( 4) = (  1.0000000  0.0000000  0.0000000 )    f =( -0.5000000 )
                  (  0.0000000 -1.0000000  0.0000000 )       (  0.2886751 )
                  (  0.0000000  0.0000000 -1.0000000 )       (  0.0000000 )


      isym =  5      60 deg rotation - cryst. axis [0,0,1]       

 cryst.   s( 5) = (     1          1          0      )    f =( -0.3333333 )
                  (    -1          0          0      )       (  0.3333333 )
                  (     0          0          1      )       (  0.0000000 )

 cart.    s( 5) = (  0.5000000 -0.8660254  0.0000000 )    f =( -0.5000000 )
                  (  0.8660254  0.5000000  0.0000000 )       (  0.2886751 )
                  (  0.0000000  0.0000000  1.0000000 )       (  0.0000000 )


      isym =  6      60 deg rotation - cryst. axis [0,0,-1]      

 cryst.   s( 6) = (     0         -1          0      )    f =( -0.3333333 )
                  (     1          1          0      )       (  0.3333333 )
                  (     0          0          1      )       (  0.0000000 )

 cart.    s( 6) = (  0.5000000  0.8660254  0.0000000 )    f =( -0.5000000 )
                  ( -0.8660254  0.5000000  0.0000000 )       (  0.2886751 )
                  (  0.0000000  0.0000000  1.0000000 )       (  0.0000000 )


      isym =  7     120 deg rotation - cryst. axis [0,0,1]       

 cryst.   s( 7) = (     0          1          0      )
                  (    -1         -1          0      )
                  (     0          0          1      )

 cart.    s( 7) = ( -0.5000000 -0.8660254  0.0000000 )
                  (  0.8660254 -0.5000000  0.0000000 )
                  (  0.0000000  0.0000000  1.0000000 )


      isym =  8     120 deg rotation - cryst. axis [0,0,-1]      

 cryst.   s( 8) = (    -1         -1          0      )
                  (     1          0          0      )
                  (     0          0          1      )

 cart.    s( 8) = ( -0.5000000  0.8660254  0.0000000 )
                  ( -0.8660254 -0.5000000  0.0000000 )
                  (  0.0000000  0.0000000  1.0000000 )


      isym =  9     180 deg rotation - cryst. axis [1,-1,0]      

 cryst.   s( 9) = (     0         -1          0      )
                  (    -1          0          0      )
                  (     0          0         -1      )

 cart.    s( 9) = (  0.5000000 -0.8660254  0.0000000 )
                  ( -0.8660254 -0.5000000  0.0000000 )
                  (  0.0000000  0.0000000 -1.0000000 )


      isym = 10     180 deg rotation - cryst. axis [2,1,0]       

 cryst.   s(10) = (     1          1          0      )
                  (     0         -1          0      )
                  (     0          0         -1      )

 cart.    s(10) = (  0.5000000  0.8660254  0.0000000 )
                  (  0.8660254 -0.5000000  0.0000000 )
                  (  0.0000000  0.0000000 -1.0000000 )


      isym = 11     180 deg rotation - cryst. axis [0,1,0]       

 cryst.   s(11) = (    -1         -1          0      )    f =( -0.3333333 )
                  (     0          1          0      )       (  0.3333333 )
                  (     0          0         -1      )       (  0.0000000 )

 cart.    s(11) = ( -0.5000000 -0.8660254  0.0000000 )    f =( -0.5000000 )
                  ( -0.8660254  0.5000000  0.0000000 )       (  0.2886751 )
                  (  0.0000000  0.0000000 -1.0000000 )       (  0.0000000 )


      isym = 12     180 deg rotation - cryst. axis [1,1,0]       

 cryst.   s(12) = (     0          1          0      )    f =( -0.3333333 )
                  (     1          0          0      )       (  0.3333333 )
                  (     0          0         -1      )       (  0.0000000 )

 cart.    s(12) = ( -0.5000000  0.8660254  0.0000000 )    f =( -0.5000000 )
                  (  0.8660254  0.5000000  0.0000000 )       (  0.2886751 )
                  (  0.0000000  0.0000000 -1.0000000 )       (  0.0000000 )


      isym = 13     inversion                                    

 cryst.   s(13) = (    -1          0          0      )    f =( -0.3333333 )
                  (     0         -1          0      )       (  0.3333333 )
                  (     0          0         -1      )       (  0.0000000 )

 cart.    s(13) = ( -1.0000000  0.0000000  0.0000000 )    f =( -0.5000000 )
                  (  0.0000000 -1.0000000  0.0000000 )       (  0.2886751 )
                  (  0.0000000  0.0000000 -1.0000000 )       (  0.0000000 )


      isym = 14     inv. 180 deg rotation - cart. axis [0,0,1]   

 cryst.   s(14) = (     1          0          0      )
                  (     0          1          0      )
                  (     0          0         -1      )

 cart.    s(14) = (  1.0000000  0.0000000  0.0000000 )
                  (  0.0000000  1.0000000  0.0000000 )
                  (  0.0000000  0.0000000 -1.0000000 )


      isym = 15     inv. 180 deg rotation - cart. axis [0,1,0]   

 cryst.   s(15) = (     1          0          0      )    f =( -0.3333333 )
                  (    -1         -1          0      )       (  0.3333333 )
                  (     0          0          1      )       (  0.0000000 )

 cart.    s(15) = (  1.0000000  0.0000000  0.0000000 )    f =( -0.5000000 )
                  (  0.0000000 -1.0000000  0.0000000 )       (  0.2886751 )
                  (  0.0000000  0.0000000  1.0000000 )       (  0.0000000 )


      isym = 16     inv. 180 deg rotation - cart. axis [1,0,0]   

 cryst.   s(16) = (    -1          0          0      )
                  (     1          1          0      )
                  (     0          0          1      )

 cart.    s(16) = ( -1.0000000  0.0000000  0.0000000 )
                  (  0.0000000  1.0000000  0.0000000 )
                  (  0.0000000  0.0000000  1.0000000 )


      isym = 17     inv.  60 deg rotation - cryst. axis [0,0,1]  

 cryst.   s(17) = (    -1         -1          0      )
                  (     1          0          0      )
                  (     0          0         -1      )

 cart.    s(17) = ( -0.5000000  0.8660254  0.0000000 )
                  ( -0.8660254 -0.5000000  0.0000000 )
                  (  0.0000000  0.0000000 -1.0000000 )


      isym = 18     inv.  60 deg rotation - cryst. axis [0,0,-1] 

 cryst.   s(18) = (     0          1          0      )
                  (    -1         -1          0      )
                  (     0          0         -1      )

 cart.    s(18) = ( -0.5000000 -0.8660254  0.0000000 )
                  (  0.8660254 -0.5000000  0.0000000 )
                  (  0.0000000  0.0000000 -1.0000000 )


      isym = 19     inv. 120 deg rotation - cryst. axis [0,0,1]  

 cryst.   s(19) = (     0         -1          0      )    f =( -0.3333333 )
                  (     1          1          0      )       (  0.3333333 )
                  (     0          0         -1      )       (  0.0000000 )

 cart.    s(19) = (  0.5000000  0.8660254  0.0000000 )    f =( -0.5000000 )
                  ( -0.8660254  0.5000000  0.0000000 )       (  0.2886751 )
                  (  0.0000000  0.0000000 -1.0000000 )       (  0.0000000 )


      isym = 20     inv. 120 deg rotation - cryst. axis [0,0,-1] 

 cryst.   s(20) = (     1          1          0      )    f =( -0.3333333 )
                  (    -1          0          0      )       (  0.3333333 )
                  (     0          0         -1      )       (  0.0000000 )

 cart.    s(20) = (  0.5000000 -0.8660254  0.0000000 )    f =( -0.5000000 )
                  (  0.8660254  0.5000000  0.0000000 )       (  0.2886751 )
                  (  0.0000000  0.0000000 -1.0000000 )       (  0.0000000 )


      isym = 21     inv. 180 deg rotation - cryst. axis [1,-1,0] 

 cryst.   s(21) = (     0          1          0      )    f =( -0.3333333 )
                  (     1          0          0      )       (  0.3333333 )
                  (     0          0          1      )       (  0.0000000 )

 cart.    s(21) = ( -0.5000000  0.8660254  0.0000000 )    f =( -0.5000000 )
                  (  0.8660254  0.5000000  0.0000000 )       (  0.2886751 )
                  (  0.0000000  0.0000000  1.0000000 )       (  0.0000000 )


      isym = 22     inv. 180 deg rotation - cryst. axis [2,1,0]  

 cryst.   s(22) = (    -1         -1          0      )    f =( -0.3333333 )
                  (     0          1          0      )       (  0.3333333 )
                  (     0          0          1      )       (  0.0000000 )

 cart.    s(22) = ( -0.5000000 -0.8660254  0.0000000 )    f =( -0.5000000 )
                  ( -0.8660254  0.5000000  0.0000000 )       (  0.2886751 )
                  (  0.0000000  0.0000000  1.0000000 )       (  0.0000000 )


      isym = 23     inv. 180 deg rotation - cryst. axis [0,1,0]  

 cryst.   s(23) = (     1          1          0      )
                  (     0         -1          0      )
                  (     0          0          1      )

 cart.    s(23) = (  0.5000000  0.8660254  0.0000000 )
                  (  0.8660254 -0.5000000  0.0000000 )
                  (  0.0000000  0.0000000  1.0000000 )


      isym = 24     inv. 180 deg rotation - cryst. axis [1,1,0]  

 cryst.   s(24) = (     0         -1          0      )
                  (    -1          0          0      )
                  (     0          0          1      )

 cart.    s(24) = (  0.5000000 -0.8660254  0.0000000 )
                  ( -0.8660254 -0.5000000  0.0000000 )
                  (  0.0000000  0.0000000  1.0000000 )


     point group D_6h(6/mmm)
     there are 12 classes
     the character table:

       E     2C6   2C3   C2    3C2'  3C2'' i     2S3   2S6   s_h   3s_d  3s_v 
A_1g   1.00  1.00  1.00  1.00  1.00  1.00  1.00  1.00  1.00  1.00  1.00  1.00
A_2g   1.00  1.00  1.00  1.00 -1.00 -1.00  1.00  1.00  1.00  1.00 -1.00 -1.00
B_1g   1.00 -1.00  1.00 -1.00  1.00 -1.00  1.00 -1.00  1.00 -1.00  1.00 -1.00
B_2g   1.00 -1.00  1.00 -1.00 -1.00  1.00  1.00 -1.00  1.00 -1.00 -1.00  1.00
E_1g   2.00  1.00 -1.00 -2.00  0.00  0.00  2.00  1.00 -1.00 -2.00  0.00  0.00
E_2g   2.00 -1.00 -1.00  2.00  0.00  0.00  2.00 -1.00 -1.00  2.00  0.00  0.00
A_1u   1.00  1.00  1.00  1.00  1.00  1.00 -1.00 -1.00 -1.00 -1.00 -1.00 -1.00
A_2u   1.00  1.00  1.00  1.00 -1.00 -1.00 -1.00 -1.00 -1.00 -1.00  1.00  1.00
B_1u   1.00 -1.00  1.00 -1.00  1.00 -1.00 -1.00  1.00 -1.00  1.00 -1.00  1.00
B_2u   1.00 -1.00  1.00 -1.00 -1.00  1.00 -1.00  1.00 -1.00  1.00  1.00 -1.00
E_1u   2.00  1.00 -1.00 -2.00  0.00  0.00 -2.00 -1.00  1.00  2.00  0.00  0.00
E_2u   2.00 -1.00 -1.00  2.00  0.00  0.00 -2.00  1.00  1.00 -2.00  0.00  0.00

     the symmetry operations in each class and the name of the first element:

     E        1
          identity                                               
     2C6      5    6
           60 deg rotation - cryst. axis [0,0,1]                 
     2C3      7    8
          120 deg rotation - cryst. axis [0,0,1]                 
     C2       2
          180 deg rotation - cart. axis [0,0,1]                  
     3C2'     4   12   11
          180 deg rotation - cart. axis [1,0,0]                  
     3C2''    3    9   10
          180 deg rotation - cart. axis [0,1,0]                  
     i       13
          inversion                                              
     2S3     17   18
          inv.  60 deg rotation - cryst. axis [0,0,1]            
     2S6     19   20
          inv. 120 deg rotation - cryst. axis [0,0,1]            
     s_h     14
          inv. 180 deg rotation - cart. axis [0,0,1]             
     3s_d    16   24   23
          inv. 180 deg rotation - cart. axis [1,0,0]             
     3s_v    15   21   22
          inv. 180 deg rotation - cart. axis [0,1,0]             

   Cartesian axes

     site n.     atom                  positions (alat units)
         1        C      tau(   1) = (   0.0000000   0.0000000   0.0000000  )
         2        C      tau(   2) = (  -0.0000000   0.5773503   0.0000000  )

   Crystallographic axes

     site n.     atom                  positions (cryst. coord.)
         1        C      tau(   1) = (  0.0000000  0.0000000  0.0000000  )
         2        C      tau(   2) = (  0.3333333  0.6666667  0.0000000  )

     number of k points=   144  Fermi-Dirac smearing, width (Ry)=  0.0200
                       cart. coord. in units 2pi/alat
        k(    1) = (   0.0000000   0.0000000   0.0000000), wk =   0.0138889
        k(    2) = (   0.0000000   0.0962250   0.0000000), wk =   0.0138889
        k(    3) = (   0.0000000   0.1924501   0.0000000), wk =   0.0138889
        k(    4) = (   0.0000000   0.2886751   0.0000000), wk =   0.0138889
        k(    5) = (   0.0000000   0.3849002   0.0000000), wk =   0.0138889
        k(    6) = (   0.0000000   0.4811252   0.0000000), wk =   0.0138889
        k(    7) = (   0.0000000   0.5773503   0.0000000), wk =   0.0138889
        k(    8) = (   0.0000000   0.6735753   0.0000000), wk =   0.0138889
        k(    9) = (   0.0000000   0.7698004   0.0000000), wk =   0.0138889
        k(   10) = (   0.0000000   0.8660254   0.0000000), wk =   0.0138889
        k(   11) = (   0.0000000   0.9622504   0.0000000), wk =   0.0138889
        k(   12) = (   0.0000000   1.0584755   0.0000000), wk =   0.0138889
        k(   13) = (   0.0833333   0.0481125   0.0000000), wk =   0.0138889
        k(   14) = (   0.0833333   0.1443376   0.0000000), wk =   0.0138889
        k(   15) = (   0.0833333   0.2405626   0.0000000), wk =   0.0138889
        k(   16) = (   0.0833333   0.3367877   0.0000000), wk =   0.0138889
        k(   17) = (   0.0833333   0.4330127   0.0000000), wk =   0.0138889
        k(   18) = (   0.0833333   0.5292377   0.0000000), wk =   0.0138889
        k(   19) = (   0.0833333   0.6254628   0.0000000), wk =   0.0138889
        k(   20) = (   0.0833333   0.7216878   0.0000000), wk =   0.0138889
        k(   21) = (   0.0833333   0.8179129   0.0000000), wk =   0.0138889
        k(   22) = (   0.0833333   0.9141379   0.0000000), wk =   0.0138889
        k(   23) = (   0.0833333   1.0103630   0.0000000), wk =   0.0138889
        k(   24) = (   0.0833333   1.1065880   0.0000000), wk =   0.0138889
        k(   25) = (   0.1666667   0.0962250   0.0000000), wk =   0.0138889
        k(   26) = (   0.1666667   0.1924501   0.0000000), wk =   0.0138889
        k(   27) = (   0.1666667   0.2886751   0.0000000), wk =   0.0138889
        k(   28) = (   0.1666667   0.3849002   0.0000000), wk =   0.0138889
        k(   29) = (   0.1666667   0.4811252   0.0000000), wk =   0.0138889
        k(   30) = (   0.1666667   0.5773503   0.0000000), wk =   0.0138889
        k(   31) = (   0.1666667   0.6735753   0.0000000), wk =   0.0138889
        k(   32) = (   0.1666667   0.7698004   0.0000000), wk =   0.0138889
        k(   33) = (   0.1666667   0.8660254   0.0000000), wk =   0.0138889
        k(   34) = (   0.1666667   0.9622504   0.0000000), wk =   0.0138889
        k(   35) = (   0.1666667   1.0584755   0.0000000), wk =   0.0138889
        k(   36) = (   0.1666667   1.1547005   0.0000000), wk =   0.0138889
        k(   37) = (   0.2500000   0.1443376   0.0000000), wk =   0.0138889
        k(   38) = (   0.2500000   0.2405626   0.0000000), wk =   0.0138889
        k(   39) = (   0.2500000   0.3367877   0.0000000), wk =   0.0138889
        k(   40) = (   0.2500000   0.4330127   0.0000000), wk =   0.0138889
        k(   41) = (   0.2500000   0.5292377   0.0000000), wk =   0.0138889
        k(   42) = (   0.2500000   0.6254628   0.0000000), wk =   0.0138889
        k(   43) = (   0.2500000   0.7216878   0.0000000), wk =   0.0138889
        k(   44) = (   0.2500000   0.8179129   0.0000000), wk =   0.0138889
        k(   45) = (   0.2500000   0.9141379   0.0000000), wk =   0.0138889
        k(   46) = (   0.2500000   1.0103630   0.0000000), wk =   0.0138889
        k(   47) = (   0.2500000   1.1065880   0.0000000), wk =   0.0138889
        k(   48) = (   0.2500000   1.2028131   0.0000000), wk =   0.0138889
        k(   49) = (   0.3333333   0.1924501   0.0000000), wk =   0.0138889
        k(   50) = (   0.3333333   0.2886751   0.0000000), wk =   0.0138889
        k(   51) = (   0.3333333   0.3849002   0.0000000), wk =   0.0138889
        k(   52) = (   0.3333333   0.4811252   0.0000000), wk =   0.0138889
        k(   53) = (   0.3333333   0.5773503   0.0000000), wk =   0.0138889
        k(   54) = (   0.3333333   0.6735753   0.0000000), wk =   0.0138889
        k(   55) = (   0.3333333   0.7698004   0.0000000), wk =   0.0138889
        k(   56) = (   0.3333333   0.8660254   0.0000000), wk =   0.0138889
        k(   57) = (   0.3333333   0.9622504   0.0000000), wk =   0.0138889
        k(   58) = (   0.3333333   1.0584755   0.0000000), wk =   0.0138889
        k(   59) = (   0.3333333   1.1547005   0.0000000), wk =   0.0138889
        k(   60) = (   0.3333333   1.2509256   0.0000000), wk =   0.0138889
        k(   61) = (   0.4166667   0.2405626   0.0000000), wk =   0.0138889
        k(   62) = (   0.4166667   0.3367877   0.0000000), wk =   0.0138889
        k(   63) = (   0.4166667   0.4330127   0.0000000), wk =   0.0138889
        k(   64) = (   0.4166667   0.5292377   0.0000000), wk =   0.0138889
        k(   65) = (   0.4166667   0.6254628   0.0000000), wk =   0.0138889
        k(   66) = (   0.4166667   0.7216878   0.0000000), wk =   0.0138889
        k(   67) = (   0.4166667   0.8179129   0.0000000), wk =   0.0138889
        k(   68) = (   0.4166667   0.9141379   0.0000000), wk =   0.0138889
        k(   69) = (   0.4166667   1.0103630   0.0000000), wk =   0.0138889
        k(   70) = (   0.4166667   1.1065880   0.0000000), wk =   0.0138889
        k(   71) = (   0.4166667   1.2028131   0.0000000), wk =   0.0138889
        k(   72) = (   0.4166667   1.2990381   0.0000000), wk =   0.0138889
        k(   73) = (   0.5000000   0.2886751   0.0000000), wk =   0.0138889
        k(   74) = (   0.5000000   0.3849002   0.0000000), wk =   0.0138889
        k(   75) = (   0.5000000   0.4811252   0.0000000), wk =   0.0138889
        k(   76) = (   0.5000000   0.5773503   0.0000000), wk =   0.0138889
        k(   77) = (   0.5000000   0.6735753   0.0000000), wk =   0.0138889
        k(   78) = (   0.5000000   0.7698004   0.0000000), wk =   0.0138889
        k(   79) = (   0.5000000   0.8660254   0.0000000), wk =   0.0138889
        k(   80) = (   0.5000000   0.9622504   0.0000000), wk =   0.0138889
        k(   81) = (   0.5000000   1.0584755   0.0000000), wk =   0.0138889
        k(   82) = (   0.5000000   1.1547005   0.0000000), wk =   0.0138889
        k(   83) = (   0.5000000   1.2509256   0.0000000), wk =   0.0138889
        k(   84) = (   0.5000000   1.3471506   0.0000000), wk =   0.0138889
        k(   85) = (   0.5833333   0.3367877   0.0000000), wk =   0.0138889
        k(   86) = (   0.5833333   0.4330127   0.0000000), wk =   0.0138889
        k(   87) = (   0.5833333   0.5292377   0.0000000), wk =   0.0138889
        k(   88) = (   0.5833333   0.6254628   0.0000000), wk =   0.0138889
        k(   89) = (   0.5833333   0.7216878   0.0000000), wk =   0.0138889
        k(   90) = (   0.5833333   0.8179129   0.0000000), wk =   0.0138889
        k(   91) = (   0.5833333   0.9141379   0.0000000), wk =   0.0138889
        k(   92) = (   0.5833333   1.0103630   0.0000000), wk =   0.0138889
        k(   93) = (   0.5833333   1.1065880   0.0000000), wk =   0.0138889
        k(   94) = (   0.5833333   1.2028131   0.0000000), wk =   0.0138889
        k(   95) = (   0.5833333   1.2990381   0.0000000), wk =   0.0138889
        k(   96) = (   0.5833333   1.3952632   0.0000000), wk =   0.0138889
        k(   97) = (   0.6666667   0.3849002   0.0000000), wk =   0.0138889
        k(   98) = (   0.6666667   0.4811252   0.0000000), wk =   0.0138889
        k(   99) = (   0.6666667   0.5773503   0.0000000), wk =   0.0138889
        k(  100) = (   0.6666667   0.6735753   0.0000000), wk =   0.0138889
        k(  101) = (   0.6666667   0.7698004   0.0000000), wk =   0.0138889
        k(  102) = (   0.6666667   0.8660254   0.0000000), wk =   0.0138889
        k(  103) = (   0.6666667   0.9622504   0.0000000), wk =   0.0138889
        k(  104) = (   0.6666667   1.0584755   0.0000000), wk =   0.0138889
        k(  105) = (   0.6666667   1.1547005   0.0000000), wk =   0.0138889
        k(  106) = (   0.6666667   1.2509256   0.0000000), wk =   0.0138889
        k(  107) = (   0.6666667   1.3471506   0.0000000), wk =   0.0138889
        k(  108) = (   0.6666667   1.4433757   0.0000000), wk =   0.0138889
        k(  109) = (   0.7500000   0.4330127   0.0000000), wk =   0.0138889
        k(  110) = (   0.7500000   0.5292377   0.0000000), wk =   0.0138889
        k(  111) = (   0.7500000   0.6254628   0.0000000), wk =   0.0138889
        k(  112) = (   0.7500000   0.7216878   0.0000000), wk =   0.0138889
        k(  113) = (   0.7500000   0.8179129   0.0000000), wk =   0.0138889
        k(  114) = (   0.7500000   0.9141379   0.0000000), wk =   0.0138889
        k(  115) = (   0.7500000   1.0103630   0.0000000), wk =   0.0138889
        k(  116) = (   0.7500000   1.1065880   0.0000000), wk =   0.0138889
        k(  117) = (   0.7500000   1.2028131   0.0000000), wk =   0.0138889
        k(  118) = (   0.7500000   1.2990381   0.0000000), wk =   0.0138889
        k(  119) = (   0.7500000   1.3952632   0.0000000), wk =   0.0138889
        k(  120) = (   0.7500000   1.4914882   0.0000000), wk =   0.0138889
        k(  121) = (   0.8333333   0.4811252   0.0000000), wk =   0.0138889
        k(  122) = (   0.8333333   0.5773503   0.0000000), wk =   0.0138889
        k(  123) = (   0.8333333   0.6735753   0.0000000), wk =   0.0138889
        k(  124) = (   0.8333333   0.7698004   0.0000000), wk =   0.0138889
        k(  125) = (   0.8333333   0.8660254   0.0000000), wk =   0.0138889
        k(  126) = (   0.8333333   0.9622504   0.0000000), wk =   0.0138889
        k(  127) = (   0.8333333   1.0584755   0.0000000), wk =   0.0138889
        k(  128) = (   0.8333333   1.1547005   0.0000000), wk =   0.0138889
        k(  129) = (   0.8333333   1.2509256   0.0000000), wk =   0.0138889
        k(  130) = (   0.8333333   1.3471506   0.0000000), wk =   0.0138889
        k(  131) = (   0.8333333   1.4433757   0.0000000), wk =   0.0138889
        k(  132) = (   0.8333333   1.5396007   0.0000000), wk =   0.0138889
        k(  133) = (   0.9166667   0.5292377   0.0000000), wk =   0.0138889
        k(  134) = (   0.9166667   0.6254628   0.0000000), wk =   0.0138889
        k(  135) = (   0.9166667   0.7216878   0.0000000), wk =   0.0138889
        k(  136) = (   0.9166667   0.8179129   0.0000000), wk =   0.0138889
        k(  137) = (   0.9166667   0.9141379   0.0000000), wk =   0.0138889
        k(  138) = (   0.9166667   1.0103630   0.0000000), wk =   0.0138889
        k(  139) = (   0.9166667   1.1065880   0.0000000), wk =   0.0138889
        k(  140) = (   0.9166667   1.2028131   0.0000000), wk =   0.0138889
        k(  141) = (   0.9166667   1.2990381   0.0000000), wk =   0.0138889
        k(  142) = (   0.9166667   1.3952632   0.0000000), wk =   0.0138889
        k(  143) = (   0.9166667   1.4914882   0.0000000), wk =   0.0138889
        k(  144) = (   0.9166667   1.5877132   0.0000000), wk =   0.0138889

                       cryst. coord.
        k(    1) = (   0.0000000   0.0000000   0.0000000), wk =   0.0138889
        k(    2) = (   0.0000000   0.0833333   0.0000000), wk =   0.0138889
        k(    3) = (   0.0000000   0.1666667   0.0000000), wk =   0.0138889
        k(    4) = (   0.0000000   0.2500000   0.0000000), wk =   0.0138889
        k(    5) = (   0.0000000   0.3333333   0.0000000), wk =   0.0138889
        k(    6) = (   0.0000000   0.4166667   0.0000000), wk =   0.0138889
        k(    7) = (   0.0000000   0.5000000   0.0000000), wk =   0.0138889
        k(    8) = (   0.0000000   0.5833333   0.0000000), wk =   0.0138889
        k(    9) = (   0.0000000   0.6666667   0.0000000), wk =   0.0138889
        k(   10) = (   0.0000000   0.7500000   0.0000000), wk =   0.0138889
        k(   11) = (   0.0000000   0.8333333   0.0000000), wk =   0.0138889
        k(   12) = (   0.0000000   0.9166667   0.0000000), wk =   0.0138889
        k(   13) = (   0.0833333   0.0000000   0.0000000), wk =   0.0138889
        k(   14) = (   0.0833333   0.0833333   0.0000000), wk =   0.0138889
        k(   15) = (   0.0833333   0.1666667   0.0000000), wk =   0.0138889
        k(   16) = (   0.0833333   0.2500000   0.0000000), wk =   0.0138889
        k(   17) = (   0.0833333   0.3333333   0.0000000), wk =   0.0138889
        k(   18) = (   0.0833333   0.4166667   0.0000000), wk =   0.0138889
        k(   19) = (   0.0833333   0.5000000   0.0000000), wk =   0.0138889
        k(   20) = (   0.0833333   0.5833333   0.0000000), wk =   0.0138889
        k(   21) = (   0.0833333   0.6666667   0.0000000), wk =   0.0138889
        k(   22) = (   0.0833333   0.7500000   0.0000000), wk =   0.0138889
        k(   23) = (   0.0833333   0.8333333   0.0000000), wk =   0.0138889
        k(   24) = (   0.0833333   0.9166667   0.0000000), wk =   0.0138889
        k(   25) = (   0.1666667   0.0000000   0.0000000), wk =   0.0138889
        k(   26) = (   0.1666667   0.0833333   0.0000000), wk =   0.0138889
        k(   27) = (   0.1666667   0.1666667   0.0000000), wk =   0.0138889
        k(   28) = (   0.1666667   0.2500000   0.0000000), wk =   0.0138889
        k(   29) = (   0.1666667   0.3333333   0.0000000), wk =   0.0138889
        k(   30) = (   0.1666667   0.4166667   0.0000000), wk =   0.0138889
        k(   31) = (   0.1666667   0.5000000   0.0000000), wk =   0.0138889
        k(   32) = (   0.1666667   0.5833333   0.0000000), wk =   0.0138889
        k(   33) = (   0.1666667   0.6666667   0.0000000), wk =   0.0138889
        k(   34) = (   0.1666667   0.7500000   0.0000000), wk =   0.0138889
        k(   35) = (   0.1666667   0.8333333   0.0000000), wk =   0.0138889
        k(   36) = (   0.1666667   0.9166667   0.0000000), wk =   0.0138889
        k(   37) = (   0.2500000   0.0000000   0.0000000), wk =   0.0138889
        k(   38) = (   0.2500000   0.0833333   0.0000000), wk =   0.0138889
        k(   39) = (   0.2500000   0.1666667   0.0000000), wk =   0.0138889
        k(   40) = (   0.2500000   0.2500000   0.0000000), wk =   0.0138889
        k(   41) = (   0.2500000   0.3333333   0.0000000), wk =   0.0138889
        k(   42) = (   0.2500000   0.4166667   0.0000000), wk =   0.0138889
        k(   43) = (   0.2500000   0.5000000   0.0000000), wk =   0.0138889
        k(   44) = (   0.2500000   0.5833333   0.0000000), wk =   0.0138889
        k(   45) = (   0.2500000   0.6666667   0.0000000), wk =   0.0138889
        k(   46) = (   0.2500000   0.7500000   0.0000000), wk =   0.0138889
        k(   47) = (   0.2500000   0.8333333   0.0000000), wk =   0.0138889
        k(   48) = (   0.2500000   0.9166667   0.0000000), wk =   0.0138889
        k(   49) = (   0.3333333   0.0000000   0.0000000), wk =   0.0138889
        k(   50) = (   0.3333333   0.0833333   0.0000000), wk =   0.0138889
        k(   51) = (   0.3333333   0.1666667   0.0000000), wk =   0.0138889
        k(   52) = (   0.3333333   0.2500000   0.0000000), wk =   0.0138889
        k(   53) = (   0.3333333   0.3333333   0.0000000), wk =   0.0138889
        k(   54) = (   0.3333333   0.4166667   0.0000000), wk =   0.0138889
        k(   55) = (   0.3333333   0.5000000   0.0000000), wk =   0.0138889
        k(   56) = (   0.3333333   0.5833333   0.0000000), wk =   0.0138889
        k(   57) = (   0.3333333   0.6666667   0.0000000), wk =   0.0138889
        k(   58) = (   0.3333333   0.7500000   0.0000000), wk =   0.0138889
        k(   59) = (   0.3333333   0.8333333   0.0000000), wk =   0.0138889
        k(   60) = (   0.3333333   0.9166667   0.0000000), wk =   0.0138889
        k(   61) = (   0.4166667   0.0000000   0.0000000), wk =   0.0138889
        k(   62) = (   0.4166667   0.0833333   0.0000000), wk =   0.0138889
        k(   63) = (   0.4166667   0.1666667   0.0000000), wk =   0.0138889
        k(   64) = (   0.4166667   0.2500000   0.0000000), wk =   0.0138889
        k(   65) = (   0.4166667   0.3333333   0.0000000), wk =   0.0138889
        k(   66) = (   0.4166667   0.4166667   0.0000000), wk =   0.0138889
        k(   67) = (   0.4166667   0.5000000   0.0000000), wk =   0.0138889
        k(   68) = (   0.4166667   0.5833333   0.0000000), wk =   0.0138889
        k(   69) = (   0.4166667   0.6666667   0.0000000), wk =   0.0138889
        k(   70) = (   0.4166667   0.7500000   0.0000000), wk =   0.0138889
        k(   71) = (   0.4166667   0.8333333   0.0000000), wk =   0.0138889
        k(   72) = (   0.4166667   0.9166667   0.0000000), wk =   0.0138889
        k(   73) = (   0.5000000   0.0000000   0.0000000), wk =   0.0138889
        k(   74) = (   0.5000000   0.0833333   0.0000000), wk =   0.0138889
        k(   75) = (   0.5000000   0.1666667   0.0000000), wk =   0.0138889
        k(   76) = (   0.5000000   0.2500000   0.0000000), wk =   0.0138889
        k(   77) = (   0.5000000   0.3333333   0.0000000), wk =   0.0138889
        k(   78) = (   0.5000000   0.4166667   0.0000000), wk =   0.0138889
        k(   79) = (   0.5000000   0.5000000   0.0000000), wk =   0.0138889
        k(   80) = (   0.5000000   0.5833333   0.0000000), wk =   0.0138889
        k(   81) = (   0.5000000   0.6666667   0.0000000), wk =   0.0138889
        k(   82) = (   0.5000000   0.7500000   0.0000000), wk =   0.0138889
        k(   83) = (   0.5000000   0.8333333   0.0000000), wk =   0.0138889
        k(   84) = (   0.5000000   0.9166667   0.0000000), wk =   0.0138889
        k(   85) = (   0.5833333   0.0000000   0.0000000), wk =   0.0138889
        k(   86) = (   0.5833333   0.0833333   0.0000000), wk =   0.0138889
        k(   87) = (   0.5833333   0.1666667   0.0000000), wk =   0.0138889
        k(   88) = (   0.5833333   0.2500000   0.0000000), wk =   0.0138889
        k(   89) = (   0.5833333   0.3333333   0.0000000), wk =   0.0138889
        k(   90) = (   0.5833333   0.4166667   0.0000000), wk =   0.0138889
        k(   91) = (   0.5833333   0.5000000   0.0000000), wk =   0.0138889
        k(   92) = (   0.5833333   0.5833333   0.0000000), wk =   0.0138889
        k(   93) = (   0.5833333   0.6666667   0.0000000), wk =   0.0138889
        k(   94) = (   0.5833333   0.7500000   0.0000000), wk =   0.0138889
        k(   95) = (   0.5833333   0.8333333   0.0000000), wk =   0.0138889
        k(   96) = (   0.5833333   0.9166667   0.0000000), wk =   0.0138889
        k(   97) = (   0.6666667   0.0000000   0.0000000), wk =   0.0138889
        k(   98) = (   0.6666667   0.0833333   0.0000000), wk =   0.0138889
        k(   99) = (   0.6666667   0.1666667   0.0000000), wk =   0.0138889
        k(  100) = (   0.6666667   0.2500000   0.0000000), wk =   0.0138889
        k(  101) = (   0.6666667   0.3333333   0.0000000), wk =   0.0138889
        k(  102) = (   0.6666667   0.4166667   0.0000000), wk =   0.0138889
        k(  103) = (   0.6666667   0.5000000   0.0000000), wk =   0.0138889
        k(  104) = (   0.6666667   0.5833333   0.0000000), wk =   0.0138889
        k(  105) = (   0.6666667   0.6666667   0.0000000), wk =   0.0138889
        k(  106) = (   0.6666667   0.7500000   0.0000000), wk =   0.0138889
        k(  107) = (   0.6666667   0.8333333   0.0000000), wk =   0.0138889
        k(  108) = (   0.6666667   0.9166667   0.0000000), wk =   0.0138889
        k(  109) = (   0.7500000   0.0000000   0.0000000), wk =   0.0138889
        k(  110) = (   0.7500000   0.0833333   0.0000000), wk =   0.0138889
        k(  111) = (   0.7500000   0.1666667   0.0000000), wk =   0.0138889
        k(  112) = (   0.7500000   0.2500000   0.0000000), wk =   0.0138889
        k(  113) = (   0.7500000   0.3333333   0.0000000), wk =   0.0138889
        k(  114) = (   0.7500000   0.4166667   0.0000000), wk =   0.0138889
        k(  115) = (   0.7500000   0.5000000   0.0000000), wk =   0.0138889
        k(  116) = (   0.7500000   0.5833333   0.0000000), wk =   0.0138889
        k(  117) = (   0.7500000   0.6666667   0.0000000), wk =   0.0138889
        k(  118) = (   0.7500000   0.7500000   0.0000000), wk =   0.0138889
        k(  119) = (   0.7500000   0.8333333   0.0000000), wk =   0.0138889
        k(  120) = (   0.7500000   0.9166667   0.0000000), wk =   0.0138889
        k(  121) = (   0.8333333   0.0000000   0.0000000), wk =   0.0138889
        k(  122) = (   0.8333333   0.0833333   0.0000000), wk =   0.0138889
        k(  123) = (   0.8333333   0.1666667   0.0000000), wk =   0.0138889
        k(  124) = (   0.8333333   0.2500000   0.0000000), wk =   0.0138889
        k(  125) = (   0.8333333   0.3333333   0.0000000), wk =   0.0138889
        k(  126) = (   0.8333333   0.4166667   0.0000000), wk =   0.0138889
        k(  127) = (   0.8333333   0.5000000   0.0000000), wk =   0.0138889
        k(  128) = (   0.8333333   0.5833333   0.0000000), wk =   0.0138889
        k(  129) = (   0.8333333   0.6666667   0.0000000), wk =   0.0138889
        k(  130) = (   0.8333333   0.7500000   0.0000000), wk =   0.0138889
        k(  131) = (   0.8333333   0.8333333   0.0000000), wk =   0.0138889
        k(  132) = (   0.8333333   0.9166667   0.0000000), wk =   0.0138889
        k(  133) = (   0.9166667   0.0000000   0.0000000), wk =   0.0138889
        k(  134) = (   0.9166667   0.0833333   0.0000000), wk =   0.0138889
        k(  135) = (   0.9166667   0.1666667   0.0000000), wk =   0.0138889
        k(  136) = (   0.9166667   0.2500000   0.0000000), wk =   0.0138889
        k(  137) = (   0.9166667   0.3333333   0.0000000), wk =   0.0138889
        k(  138) = (   0.9166667   0.4166667   0.0000000), wk =   0.0138889
        k(  139) = (   0.9166667   0.5000000   0.0000000), wk =   0.0138889
        k(  140) = (   0.9166667   0.5833333   0.0000000), wk =   0.0138889
        k(  141) = (   0.9166667   0.6666667   0.0000000), wk =   0.0138889
        k(  142) = (   0.9166667   0.7500000   0.0000000), wk =   0.0138889
        k(  143) = (   0.9166667   0.8333333   0.0000000), wk =   0.0138889
        k(  144) = (   0.9166667   0.9166667   0.0000000), wk =   0.0138889

     Dense  grid:    33427 G-vectors     FFT dimensions: (  24,  24, 144)

     Dynamical RAM for                 wfc:       0.11 MB

     Dynamical RAM for     wfc (w. buffer):      16.11 MB

     Dynamical RAM for           str. fact:       0.06 MB

     Dynamical RAM for           local pot:       0.00 MB

     Dynamical RAM for          nlocal pot:       0.13 MB

     Dynamical RAM for                qrad:       0.36 MB

     Dynamical RAM for          rho,v,vnew:       0.43 MB

     Dynamical RAM for           G-vectors:       0.27 MB

     Dynamical RAM for          h,s,v(r/c):       0.57 MB

     Dynamical RAM for          <psi|beta>:       0.00 MB

     Dynamical RAM for                 psi:       0.89 MB

     Dynamical RAM for                hpsi:       0.89 MB

     Dynamical RAM for      wfcinit/wfcrot:       0.23 MB

     Estimated static dynamical RAM per process >      17.88 MB

     Estimated max dynamical RAM per process >      20.23 MB

     Estimated total dynamical RAM >     161.85 MB

     The potential is recalculated from file :
     ./tmp/graphene.save/charge-density

     Starting wfcs are random

     Band Structure Calculation
     Davidson diagonalization with overlap

     Computing kpt #:     1  of   144
     total cpu time spent up to now is        0.5 secs

     Computing kpt #:     2  of   144
     total cpu time spent up to now is        0.5 secs

     Computing kpt #:     3  of   144
     total cpu time spent up to now is        0.6 secs

     Computing kpt #:     4  of   144
     total cpu time spent up to now is        0.7 secs

     Computing kpt #:     5  of   144
     total cpu time spent up to now is        0.8 secs

     Computing kpt #:     6  of   144
     total cpu time spent up to now is        0.9 secs

     Computing kpt #:     7  of   144
     total cpu time spent up to now is        0.9 secs

     Computing kpt #:     8  of   144
     total cpu time spent up to now is        1.0 secs

     Computing kpt #:     9  of   144
     total cpu time spent up to now is        1.1 secs

     Computing kpt #:    10  of   144
     total cpu time spent up to now is        1.2 secs

     Computing kpt #:    11  of   144
     total cpu time spent up to now is        1.2 secs

     Computing kpt #:    12  of   144
     total cpu time spent up to now is        1.3 secs

     Computing kpt #:    13  of   144
     total cpu time spent up to now is        1.4 secs

     Computing kpt #:    14  of   144
     total cpu time spent up to now is        1.5 secs

     Computing kpt #:    15  of   144
     total cpu time spent up to now is        1.6 secs

     Computing kpt #:    16  of   144
     total cpu time spent up to now is        1.6 secs

     Computing kpt #:    17  of   144
     total cpu time spent up to now is        1.7 secs

     Computing kpt #:    18  of   144
     total cpu time spent up to now is        1.8 secs

     Computing kpt #:    19  of   144
     total cpu time spent up to now is        1.8 secs

     Computing kpt #:    20  of   144
     total cpu time spent up to now is        1.9 secs

     Computing kpt #:    21  of   144
     total cpu time spent up to now is        2.0 secs

     Computing kpt #:    22  of   144
     total cpu time spent up to now is        2.0 secs

     Computing kpt #:    23  of   144
     total cpu time spent up to now is        2.1 secs

     Computing kpt #:    24  of   144
     total cpu time spent up to now is        2.1 secs

     Computing kpt #:    25  of   144
     total cpu time spent up to now is        2.2 secs

     Computing kpt #:    26  of   144
     total cpu time spent up to now is        2.3 secs

     Computing kpt #:    27  of   144
     total cpu time spent up to now is        2.3 secs

     Computing kpt #:    28  of   144
     total cpu time spent up to now is        2.4 secs

     Computing kpt #:    29  of   144
     total cpu time spent up to now is        2.5 secs

     Computing kpt #:    30  of   144
     total cpu time spent up to now is        2.6 secs

     Computing kpt #:    31  of   144
     total cpu time spent up to now is        2.6 secs

     Computing kpt #:    32  of   144
     total cpu time spent up to now is        2.7 secs

     Computing kpt #:    33  of   144
     total cpu time spent up to now is        2.8 secs

     Computing kpt #:    34  of   144
     total cpu time spent up to now is        2.8 secs

     Computing kpt #:    35  of   144
     total cpu time spent up to now is        2.9 secs

     Computing kpt #:    36  of   144
     total cpu time spent up to now is        3.0 secs

     Computing kpt #:    37  of   144
     total cpu time spent up to now is        3.1 secs

     Computing kpt #:    38  of   144
     total cpu time spent up to now is        3.1 secs

     Computing kpt #:    39  of   144
     total cpu time spent up to now is        3.2 secs

     Computing kpt #:    40  of   144
     total cpu time spent up to now is        3.3 secs

     Computing kpt #:    41  of   144
     total cpu time spent up to now is        3.4 secs

     Computing kpt #:    42  of   144
     total cpu time spent up to now is        3.4 secs

     Computing kpt #:    43  of   144
     total cpu time spent up to now is        3.5 secs

     Computing kpt #:    44  of   144
     total cpu time spent up to now is        3.6 secs

     Computing kpt #:    45  of   144
     total cpu time spent up to now is        3.7 secs

     Computing kpt #:    46  of   144
     total cpu time spent up to now is        3.7 secs

     Computing kpt #:    47  of   144
     total cpu time spent up to now is        3.8 secs

     Computing kpt #:    48  of   144
     total cpu time spent up to now is        3.9 secs

     Computing kpt #:    49  of   144
     total cpu time spent up to now is        4.0 secs

     Computing kpt #:    50  of   144
     total cpu time spent up to now is        4.0 secs

     Computing kpt #:    51  of   144
     total cpu time spent up to now is        4.1 secs

     Computing kpt #:    52  of   144
     total cpu time spent up to now is        4.2 secs

     Computing kpt #:    53  of   144
     total cpu time spent up to now is        4.2 secs

     Computing kpt #:    54  of   144
     total cpu time spent up to now is        4.3 secs

     Computing kpt #:    55  of   144
     total cpu time spent up to now is        4.4 secs

     Computing kpt #:    56  of   144
     total cpu time spent up to now is        4.4 secs

     Computing kpt #:    57  of   144
     total cpu time spent up to now is        4.5 secs

     Computing kpt #:    58  of   144
     total cpu time spent up to now is        4.6 secs

     Computing kpt #:    59  of   144
     total cpu time spent up to now is        4.6 secs

     Computing kpt #:    60  of   144
     total cpu time spent up to now is        4.7 secs

     Computing kpt #:    61  of   144
     total cpu time spent up to now is        4.8 secs

     Computing kpt #:    62  of   144
     total cpu time spent up to now is        4.8 secs

     Computing kpt #:    63  of   144
     total cpu time spent up to now is        4.9 secs

     Computing kpt #:    64  of   144
     total cpu time spent up to now is        4.9 secs

     Computing kpt #:    65  of   144
     total cpu time spent up to now is        5.0 secs

     Computing kpt #:    66  of   144
     total cpu time spent up to now is        5.1 secs

     Computing kpt #:    67  of   144
     total cpu time spent up to now is        5.1 secs

     Computing kpt #:    68  of   144
     total cpu time spent up to now is        5.2 secs

     Computing kpt #:    69  of   144
     total cpu time spent up to now is        5.3 secs

     Computing kpt #:    70  of   144
     total cpu time spent up to now is        5.3 secs

     Computing kpt #:    71  of   144
     total cpu time spent up to now is        5.4 secs

     Computing kpt #:    72  of   144
     total cpu time spent up to now is        5.4 secs

     Computing kpt #:    73  of   144
     total cpu time spent up to now is        5.5 secs

     Computing kpt #:    74  of   144
     total cpu time spent up to now is        5.6 secs

     Computing kpt #:    75  of   144
     total cpu time spent up to now is        5.6 secs

     Computing kpt #:    76  of   144
     total cpu time spent up to now is        5.7 secs

     Computing kpt #:    77  of   144
     total cpu time spent up to now is        5.8 secs

     Computing kpt #:    78  of   144
     total cpu time spent up to now is        5.9 secs

     Computing kpt #:    79  of   144
     total cpu time spent up to now is        5.9 secs

     Computing kpt #:    80  of   144
     total cpu time spent up to now is        6.0 secs

     Computing kpt #:    81  of   144
     total cpu time spent up to now is        6.1 secs

     Computing kpt #:    82  of   144
     total cpu time spent up to now is        6.1 secs

     Computing kpt #:    83  of   144
     total cpu time spent up to now is        6.2 secs

     Computing kpt #:    84  of   144
     total cpu time spent up to now is        6.3 secs

     Computing kpt #:    85  of   144
     total cpu time spent up to now is        6.3 secs

     Computing kpt #:    86  of   144
     total cpu time spent up to now is        6.4 secs

     Computing kpt #:    87  of   144
     total cpu time spent up to now is        6.5 secs

     Computing kpt #:    88  of   144
     total cpu time spent up to now is        6.5 secs

     Computing kpt #:    89  of   144
     total cpu time spent up to now is        6.6 secs

     Computing kpt #:    90  of   144
     total cpu time spent up to now is        6.7 secs

     Computing kpt #:    91  of   144
     total cpu time spent up to now is        6.7 secs

     Computing kpt #:    92  of   144
     total cpu time spent up to now is        6.8 secs

     Computing kpt #:    93  of   144
     total cpu time spent up to now is        6.8 secs

     Computing kpt #:    94  of   144
     total cpu time spent up to now is        6.9 secs

     Computing kpt #:    95  of   144
     total cpu time spent up to now is        7.0 secs

     Computing kpt #:    96  of   144
     total cpu time spent up to now is        7.0 secs

     Computing kpt #:    97  of   144
     total cpu time spent up to now is        7.1 secs

     Computing kpt #:    98  of   144
     total cpu time spent up to now is        7.2 secs

     Computing kpt #:    99  of   144
     total cpu time spent up to now is        7.2 secs

     Computing kpt #:   100  of   144
     total cpu time spent up to now is        7.3 secs

     Computing kpt #:   101  of   144
     total cpu time spent up to now is        7.4 secs

     Computing kpt #:   102  of   144
     total cpu time spent up to now is        7.4 secs

     Computing kpt #:   103  of   144
     total cpu time spent up to now is        7.5 secs

     Computing kpt #:   104  of   144
     total cpu time spent up to now is        7.5 secs

     Computing kpt #:   105  of   144
     total cpu time spent up to now is        7.6 secs

     Computing kpt #:   106  of   144
     total cpu time spent up to now is        7.7 secs

     Computing kpt #:   107  of   144
     total cpu time spent up to now is        7.7 secs

     Computing kpt #:   108  of   144
     total cpu time spent up to now is        7.8 secs

     Computing kpt #:   109  of   144
     total cpu time spent up to now is        7.9 secs

     Computing kpt #:   110  of   144
     total cpu time spent up to now is        7.9 secs

     Computing kpt #:   111  of   144
     total cpu time spent up to now is        8.0 secs

     Computing kpt #:   112  of   144
     total cpu time spent up to now is        8.1 secs

     Computing kpt #:   113  of   144
     total cpu time spent up to now is        8.1 secs

     Computing kpt #:   114  of   144
     total cpu time spent up to now is        8.2 secs

     Computing kpt #:   115  of   144
     total cpu time spent up to now is        8.3 secs

     Computing kpt #:   116  of   144
     total cpu time spent up to now is        8.4 secs

     Computing kpt #:   117  of   144
     total cpu time spent up to now is        8.5 secs

     Computing kpt #:   118  of   144
     total cpu time spent up to now is        8.5 secs

     Computing kpt #:   119  of   144
     total cpu time spent up to now is        8.6 secs

     Computing kpt #:   120  of   144
     total cpu time spent up to now is        8.7 secs

     Computing kpt #:   121  of   144
     total cpu time spent up to now is        8.7 secs

     Computing kpt #:   122  of   144
     total cpu time spent up to now is        8.8 secs

     Computing kpt #:   123  of   144
     total cpu time spent up to now is        8.9 secs

     Computing kpt #:   124  of   144
     total cpu time spent up to now is        8.9 secs

     Computing kpt #:   125  of   144
     total cpu time spent up to now is        9.0 secs

     Computing kpt #:   126  of   144
     total cpu time spent up to now is        9.1 secs

     Computing kpt #:   127  of   144
     total cpu time spent up to now is        9.1 secs

     Computing kpt #:   128  of   144
     total cpu time spent up to now is        9.2 secs

     Computing kpt #:   129  of   144
     total cpu time spent up to now is        9.3 secs

     Computing kpt #:   130  of   144
     total cpu time spent up to now is        9.3 secs

     Computing kpt #:   131  of   144
     total cpu time spent up to now is        9.4 secs

     Computing kpt #:   132  of   144
     total cpu time spent up to now is        9.5 secs

     Computing kpt #:   133  of   144
     total cpu time spent up to now is        9.5 secs

     Computing kpt #:   134  of   144
     total cpu time spent up to now is        9.6 secs

     Computing kpt #:   135  of   144
     total cpu time spent up to now is        9.6 secs

     Computing kpt #:   136  of   144
     total cpu time spent up to now is        9.7 secs

     Computing kpt #:   137  of   144
     total cpu time spent up to now is        9.8 secs

     Computing kpt #:   138  of   144
     total cpu time spent up to now is        9.8 secs

     Computing kpt #:   139  of   144
     total cpu time spent up to now is        9.9 secs

     Computing kpt #:   140  of   144
     total cpu time spent up to now is       10.0 secs

     Computing kpt #:   141  of   144
     total cpu time spent up to now is       10.0 secs

     Computing kpt #:   142  of   144
     total cpu time spent up to now is       10.1 secs

     Computing kpt #:   143  of   144
     total cpu time spent up to now is       10.2 secs

     Computing kpt #:   144  of   144
     total cpu time spent up to now is       10.2 secs

     ethr =  1.00E-05,  avg # of iterations =  9.1

     total cpu time spent up to now is       10.2 secs

     End of band structure calculation

          k = 0.0000 0.0000 0.0000 (  4149 PWs)   bands (ev):

   -21.2667  -9.3658  -4.7775  -4.7775   1.5384   2.4390   2.9589   4.8208
     5.6410   6.6564   6.6564   8.7545   9.7881   9.8673

     occupation numbers 
     1.0000   1.0000   1.0000   1.0000   0.0000   0.0000   0.0000   0.0000
     0.0000   0.0000   0.0000   0.0000   0.0000   0.0000

          k = 0.0000 0.0962 0.0000 (  4156 PWs)   bands (ev):

   -21.1024  -9.1689  -5.4277  -5.1182   1.7623   2.6648   3.1869   5.0451
     5.8592   6.7346   7.3553   8.9715   9.2236  10.0935

     occupation numbers 
     1.0000   1.0000   1.0000   1.0000   0.0000   0.0000   0.0000   0.0000
     0.0000   0.0000   0.0000   0.0000   0.0000   0.0000

          k = 0.0000 0.1925 0.0000 (  4166 PWs)   bands (ev):

   -20.6112  -8.5831  -7.0648  -5.9157   2.4339   3.3408   3.8709   5.7150
     6.4651   6.7653   7.7069   9.2056   9.6231  10.7629

     occupation numbers 
     1.0000   1.0000   1.0000   1.0000   0.0000   0.0000   0.0000   0.0000
     0.0000   0.0000   0.0000   0.0000   0.0000   0.0000

          k = 0.0000 0.2887 0.0000 (  4174 PWs)   bands (ev):

   -19.7989  -9.1642  -7.6280  -6.8007   3.5511   4.4472   5.0095   5.5983
     6.4082   6.8516   7.6816  10.6900  11.7632  11.8643

     occupation numbers 
     1.0000   1.0000   1.0000   1.0000   0.0000   0.0000   0.0000   0.0000
     0.0000   0.0000   0.0000   0.0000   0.0000   0.0000

          k = 0.0000 0.3849 0.0000 (  4166 PWs)   bands (ev):

   -18.6774 -11.3699  -7.5387  -6.3531   3.2352   5.1022   6.0597   6.0920
     6.6214   8.3968   9.2349  12.1210  13.3853  14.1625

     occupation numbers 
     1.0000   1.0000   1.0000   1.0000   0.0000   0.0000   0.0000   0.0000
     0.0000   0.0000   0.0000   0.0000   0.0000   0.0000

          k = 0.0000 0.4811 0.0000 (  4162 PWs)   bands (ev):

   -17.2771 -13.4745  -8.0142  -4.9238   1.0897   5.8412   7.1224   8.0533
     8.6611  10.3546  11.2244  12.1806  12.9932  14.0088

     occupation numbers 
     1.0000   1.0000   1.0000   1.0000   0.0000   0.0000   0.0000   0.0000
     0.0000   0.0000   0.0000   0.0000   0.0000   0.0000

          k = 0.0000 0.5774 0.0000 (  4168 PWs)   bands (ev):

   -16.0013 -14.9933  -8.1774  -4.0750  -0.0134   5.7644   9.4359   9.5843
    10.3232  10.5548  11.1450  11.1678  12.4711  12.9418

     occupation numbers 
     1.0000   1.0000   1.0000   0.9998   0.0019   0.0000   0.0000   0.0000
     0.0000   0.0000   0.0000   0.0000   0.0000   0.0000

          k = 0.0000 0.6736 0.0000 (  4162 PWs)   bands (ev):

   -17.2771 -13.4745  -8.0142  -4.9238   1.0897   5.8412   7.1224   8.0533
     8.6611  10.3546  11.2244  12.1806  12.9932  14.0088

     occupation numbers 
     1.0000   1.0000   1.0000   1.0000   0.0000   0.0000   0.0000   0.0000
     0.0000   0.0000   0.0000   0.0000   0.0000   0.0000

          k = 0.0000 0.7698 0.0000 (  4166 PWs)   bands (ev):

   -18.6774 -11.3699  -7.5387  -6.3531   3.2352   5.1022   6.0597   6.0920
     6.6214   8.3968   9.2349  12.1210  13.3853  14.1625

     occupation numbers 
     1.0000   1.0000   1.0000   1.0000   0.0000   0.0000   0.0000   0.0000
     0.0000   0.0000   0.0000   0.0000   0.0000   0.0000

          k = 0.0000 0.8660 0.0000 (  4174 PWs)   bands (ev):

   -19.7989  -9.1642  -7.6280  -6.8007   3.5511   4.4472   5.0095   5.5983
     6.4082   6.8516   7.6816  10.6900  11.7632  11.8643

     occupation numbers 
     1.0000   1.0000   1.0000   1.0000   0.0000   0.0000   0.0000   0.0000
     0.0000   0.0000   0.0000   0.0000   0.0000   0.0000

          k = 0.0000 0.9623 0.0000 (  4166 PWs)   bands (ev):

   -20.6112  -8.5831  -7.0648  -5.9157   2.4339   3.3408   3.8709   5.7150
     6.4651   6.7653   7.7069   9.2056   9.6231  10.7629

     occupation numbers 
     1.0000   1.0000   1.0000   1.0000   0.0000   0.0000   0.0000   0.0000
     0.0000   0.0000   0.0000   0.0000   0.0000   0.0000

          k = 0.0000 1.0585 0.0000 (  4156 PWs)   bands (ev):

   -21.1024  -9.1689  -5.4277  -5.1182   1.7623   2.6648   3.1869   5.0451
     5.8592   6.7346   7.3553   8.9715   9.2236  10.0935

     occupation numbers 
     1.0000   1.0000   1.0000   1.0000   0.0000   0.0000   0.0000   0.0000
     0.0000   0.0000   0.0000   0.0000   0.0000   0.0000

          k = 0.0833 0.0481 0.0000 (  4156 PWs)   bands (ev):

   -21.1024  -9.1689  -5.4277  -5.1182   1.7623   2.6648   3.1869   5.0451
     5.8592   6.7346   7.3553   8.9715   9.2236  10.0935

     occupation numbers 
     1.0000   1.0000   1.0000   1.0000   0.0000   0.0000   0.0000   0.0000
     0.0000   0.0000   0.0000   0.0000   0.0000   0.0000

          k = 0.0833 0.1443 0.0000 (  4157 PWs)   bands (ev):

   -20.7747  -8.7773  -6.4607  -5.7989   2.2103   3.1159   3.6430   5.4929
     6.2963   7.0494   8.1958   8.2491   9.4040  10.5427

     occupation numbers 
     1.0000   1.0000   1.0000   1.0000   0.0000   0.0000   0.0000   0.0000
     0.0000   0.0000   0.0000   0.0000   0.0000   0.0000

          k = 0.0833 0.2406 0.0000 (  4166 PWs)   bands (ev):

   -20.1229  -8.1703  -8.0057  -6.8020   3.1056   4.0139   4.5552   6.3414
     6.4810   7.0542   7.3490   9.7899  10.2545  11.4309

     occupation numbers 
     1.0000   1.0000   1.0000   1.0000   0.0000   0.0000   0.0000   0.0000
     0.0000   0.0000   0.0000   0.0000   0.0000   0.0000

          k = 0.0833 0.3368 0.0000 (  4169 PWs)   bands (ev):

   -19.1559 -10.2450  -7.6923  -6.8844   4.2522   4.4440   5.3833   5.9206
     6.9500   7.7195   8.5714  11.4777  11.9117  12.7541

     occupation numbers 
     1.0000   1.0000   1.0000   1.0000   0.0000   0.0000   0.0000   0.0000
     0.0000   0.0000   0.0000   0.0000   0.0000   0.0000

          k = 0.0833 0.4330 0.0000 (  4164 PWs)   bands (ev):

   -17.8920 -12.3713  -8.3300  -5.4982   2.0415   6.1987   6.6948   7.1490
     7.7534   9.4589  10.3416  12.7944  13.1127  14.4615

     occupation numbers 
     1.0000   1.0000   1.0000   1.0000   0.0000   0.0000   0.0000   0.0000
     0.0000   0.0000   0.0000   0.0000   0.0000   0.0000

          k = 0.0833 0.5292 0.0000 (  4185 PWs)   bands (ev):

   -16.4058 -14.3199  -8.6602  -4.1828   0.2636   6.5003   8.4253   9.3084
    10.0211  10.9584  11.3462  11.9928  12.5266  12.7262

     occupation numbers 
     1.0000   1.0000   1.0000   0.9999   0.0007   0.0000   0.0000   0.0000
     0.0000   0.0000   0.0000   0.0000   0.0000   0.0000

          k = 0.0833 0.6255 0.0000 (  4185 PWs)   bands (ev):

   -16.4058 -14.3199  -8.6602  -4.1828   0.2636   6.5003   8.4253   9.3084
    10.0211  10.9584  11.3462  11.9928  12.5266  12.7262

     occupation numbers 
     1.0000   1.0000   1.0000   0.9999   0.0007   0.0000   0.0000   0.0000
     0.0000   0.0000   0.0000   0.0000   0.0000   0.0000

          k = 0.0833 0.7217 0.0000 (  4164 PWs)   bands (ev):

   -17.8920 -12.3713  -8.3300  -5.4982   2.0415   6.1987   6.6948   7.1490
     7.7534   9.4589  10.3416  12.7944  13.1126  14.4615

     occupation numbers 
     1.0000   1.0000   1.0000   1.0000   0.0000   0.0000   0.0000   0.0000
     0.0000   0.0000   0.0000   0.0000   0.0000   0.0000

          k = 0.0833 0.8179 0.0000 (  4169 PWs)   bands (ev):

   -19.1559 -10.2450  -7.6923  -6.8844   4.2522   4.4440   5.3833   5.9206
     6.9500   7.7195   8.5714  11.4777  11.9117  12.7541

     occupation numbers 
     1.0000   1.0000   1.0000   1.0000   0.0000   0.0000   0.0000   0.0000
     0.0000   0.0000   0.0000   0.0000   0.0000   0.0000

          k = 0.0833 0.9141 0.0000 (  4166 PWs)   bands (ev):

   -20.1229  -8.1703  -8.0057  -6.8020   3.1056   4.0139   4.5552   6.3414
     6.4810   7.0542   7.3490   9.7899  10.2545  11.4309

     occupation numbers 
     1.0000   1.0000   1.0000   1.0000   0.0000   0.0000   0.0000   0.0000
     0.0000   0.0000   0.0000   0.0000   0.0000   0.0000

          k = 0.0833 1.0104 0.0000 (  4157 PWs)   bands (ev):

   -20.7747  -8.7773  -6.4607  -5.7989   2.2103   3.1159   3.6430   5.4929
     6.2963   7.0494   8.1958   8.2491   9.4040  10.5427

     occupation numbers 
     1.0000   1.0000   1.0000   1.0000   0.0000   0.0000   0.0000   0.0000
     0.0000   0.0000   0.0000   0.0000   0.0000   0.0000

          k = 0.0833 1.1066 0.0000 (  4156 PWs)   bands (ev):

   -21.1024  -9.1689  -5.4277  -5.1182   1.7623   2.6648   3.1869   5.0451
     5.8592   6.7346   7.3553   8.9715   9.2236  10.0935

     occupation numbers 
     1.0000   1.0000   1.0000   1.0000   0.0000   0.0000   0.0000   0.0000
     0.0000   0.0000   0.0000   0.0000   0.0000   0.0000

          k = 0.1667 0.0962 0.0000 (  4166 PWs)   bands (ev):

   -20.6112  -8.5831  -7.0648  -5.9157   2.4339   3.3408   3.8709   5.7150
     6.4651   6.7653   7.7069   9.2056   9.6231  10.7629

     occupation numbers 
     1.0000   1.0000   1.0000   1.0000   0.0000   0.0000   0.0000   0.0000
     0.0000   0.0000   0.0000   0.0000   0.0000   0.0000

          k = 0.1667 0.1925 0.0000 (  4166 PWs)   bands (ev):

   -20.1229  -8.1703  -8.0057  -6.8020   3.1056   4.0139   4.5552   6.3414
     6.4810   7.0542   7.3490   9.7899  10.2545  11.4309

     occupation numbers 
     1.0000   1.0000   1.0000   1.0000   0.0000   0.0000   0.0000   0.0000
     0.0000   0.0000   0.0000   0.0000   0.0000   0.0000

          k = 0.1667 0.2887 0.0000 (  4166 PWs)   bands (ev):

   -19.3165  -9.4988  -8.1690  -7.0640   4.2231   4.7122   5.1294   5.6958
     7.4814   8.1913   8.5249   9.9210  11.2352  12.5302

     occupation numbers 
     1.0000   1.0000   1.0000   1.0000   0.0000   0.0000   0.0000   0.0000
     0.0000   0.0000   0.0000   0.0000   0.0000   0.0000

          k = 0.1667 0.3849 0.0000 (  4150 PWs)   bands (ev):

   -18.2058 -11.2282  -9.2274  -5.8050   2.7547   5.7785   6.6673   7.2892
     8.5972   8.9692   9.9049  11.3613  12.1914  14.0428

     occupation numbers 
     1.0000   1.0000   1.0000   1.0000   0.0000   0.0000   0.0000   0.0000
     0.0000   0.0000   0.0000   0.0000   0.0000   0.0000

          k = 0.1667 0.4811 0.0000 (  4152 PWs)   bands (ev):

   -16.8255 -13.1443  -9.8039  -4.3711   0.8324   7.7447   8.4114   8.5459
     9.3418  10.5977  11.8420  12.2225  12.2829  14.4501

     occupation numbers 
     1.0000   1.0000   1.0000   0.9999   0.0001   0.0000   0.0000   0.0000
     0.0000   0.0000   0.0000   0.0000   0.0000   0.0000

          k = 0.1667 0.5774 0.0000 (  4174 PWs)   bands (ev):

   -15.5803 -14.5905  -9.9892  -3.4743  -0.2412   8.3050   9.9461   9.9998
    10.1949  11.2346  11.7994  11.8352  12.3355  13.6201

     occupation numbers 
     1.0000   1.0000   1.0000   0.9985   0.0045   0.0000   0.0000   0.0000
     0.0000   0.0000   0.0000   0.0000   0.0000   0.0000

          k = 0.1667 0.6736 0.0000 (  4152 PWs)   bands (ev):

   -16.8255 -13.1443  -9.8039  -4.3711   0.8324   7.7447   8.4114   8.5459
     9.3418  10.5977  11.8420  12.2225  12.2829  14.4493

     occupation numbers 
     1.0000   1.0000   1.0000   0.9999   0.0001   0.0000   0.0000   0.0000
     0.0000   0.0000   0.0000   0.0000   0.0000   0.0000

          k = 0.1667 0.7698 0.0000 (  4150 PWs)   bands (ev):

   -18.2058 -11.2282  -9.2274  -5.8050   2.7547   5.7785   6.6673   7.2892
     8.5972   8.9692   9.9049  11.3615  12.1914  14.0428

     occupation numbers 
     1.0000   1.0000   1.0000   1.0000   0.0000   0.0000   0.0000   0.0000
     0.0000   0.0000   0.0000   0.0000   0.0000   0.0000

          k = 0.1667 0.8660 0.0000 (  4166 PWs)   bands (ev):

   -19.3165  -9.4988  -8.1690  -7.0640   4.2231   4.7122   5.1294   5.6958
     7.4814   8.1913   8.5249   9.9210  11.2352  12.5302

     occupation numbers 
     1.0000   1.0000   1.0000   1.0000   0.0000   0.0000   0.0000   0.0000
     0.0000   0.0000   0.0000   0.0000   0.0000   0.0000

          k = 0.1667 0.9623 0.0000 (  4166 PWs)   bands (ev):

   -20.1229  -8.1703  -8.0057  -6.8020   3.1056   4.0139   4.5552   6.3414
     6.4810   7.0542   7.3490   9.7899  10.2545  11.4309

     occupation numbers 
     1.0000   1.0000   1.0000   1.0000   0.0000   0.0000   0.0000   0.0000
     0.0000   0.0000   0.0000   0.0000   0.0000   0.0000

          k = 0.1667 1.0585 0.0000 (  4166 PWs)   bands (ev):

   -20.6112  -8.5831  -7.0648  -5.9157   2.4339   3.3408   3.8709   5.7150
     6.4651   6.7653   7.7069   9.2056   9.6231  10.7629

     occupation numbers 
     1.0000   1.0000   1.0000   1.0000   0.0000   0.0000   0.0000   0.0000
     0.0000   0.0000   0.0000   0.0000   0.0000   0.0000

          k = 0.1667 1.1547 0.0000 (  4157 PWs)   bands (ev):

   -20.7747  -8.7773  -6.4607  -5.7989   2.2103   3.1159   3.6430   5.4929
     6.2963   7.0494   8.1958   8.2491   9.4040  10.5427

     occupation numbers 
     1.0000   1.0000   1.0000   1.0000   0.0000   0.0000   0.0000   0.0000
     0.0000   0.0000   0.0000   0.0000   0.0000   0.0000

          k = 0.2500 0.1443 0.0000 (  4174 PWs)   bands (ev):

   -19.7989  -9.1642  -7.6280  -6.8007   3.5511   4.4472   5.0095   5.5983
     6.4082   6.8516   7.6816  10.6900  11.7632  11.8643

     occupation numbers 
     1.0000   1.0000   1.0000   1.0000   0.0000   0.0000   0.0000   0.0000
     0.0000   0.0000   0.0000   0.0000   0.0000   0.0000

          k = 0.2500 0.2406 0.0000 (  4169 PWs)   bands (ev):

   -19.1559 -10.2450  -7.6923  -6.8844   4.2522   4.4440   5.3833   5.9206
     6.9500   7.7195   8.5714  11.4777  11.9117  12.7541

     occupation numbers 
     1.0000   1.0000   1.0000   1.0000   0.0000   0.0000   0.0000   0.0000
     0.0000   0.0000   0.0000   0.0000   0.0000   0.0000

          k = 0.2500 0.3368 0.0000 (  4150 PWs)   bands (ev):

   -18.2058 -11.2282  -9.2274  -5.8050   2.7547   5.7785   6.6673   7.2892
     8.5972   8.9692   9.9049  11.3613  12.1914  14.0428

     occupation numbers 
     1.0000   1.0000   1.0000   1.0000   0.0000   0.0000   0.0000   0.0000
     0.0000   0.0000   0.0000   0.0000   0.0000   0.0000

          k = 0.2500 0.4330 0.0000 (  4142 PWs)   bands (ev):

   -16.9741 -12.2602 -10.7172  -4.4559   1.1319   7.5347   8.2529   9.1061
    10.2529  10.5774  10.9997  11.6819  12.0252  15.1571

     occupation numbers 
     1.0000   1.0000   1.0000   1.0000   0.0000   0.0000   0.0000   0.0000
     0.0000   0.0000   0.0000   0.0000   0.0000   0.0000

          k = 0.2500 0.5292 0.0000 (  4149 PWs)   bands (ev):

   -15.5460 -13.6872 -11.4254  -3.0631  -0.3961   9.2108   9.6377  10.5663
    11.3313  11.3479  11.6479  13.2911  13.6366  13.8997

     occupation numbers 
     1.0000   1.0000   1.0000   0.9931   0.0079   0.0000   0.0000   0.0000
     0.0000   0.0000   0.0000   0.0000   0.0000   0.0000

          k = 0.2500 0.6255 0.0000 (  4149 PWs)   bands (ev):

   -15.5460 -13.6872 -11.4254  -3.0631  -0.3961   9.2108   9.6377  10.5663
    11.3312  11.3479  11.6479  13.2911  13.6367  13.8998

     occupation numbers 
     1.0000   1.0000   1.0000   0.9931   0.0079   0.0000   0.0000   0.0000
     0.0000   0.0000   0.0000   0.0000   0.0000   0.0000

          k = 0.2500 0.7217 0.0000 (  4142 PWs)   bands (ev):

   -16.9741 -12.2602 -10.7172  -4.4559   1.1319   7.5347   8.2528   9.1061
    10.2529  10.5774  10.9997  11.6819  12.0252  15.1570

     occupation numbers 
     1.0000   1.0000   1.0000   1.0000   0.0000   0.0000   0.0000   0.0000
     0.0000   0.0000   0.0000   0.0000   0.0000   0.0000

          k = 0.2500 0.8179 0.0000 (  4150 PWs)   bands (ev):

   -18.2058 -11.2282  -9.2274  -5.8050   2.7547   5.7785   6.6673   7.2892
     8.5972   8.9692   9.9049  11.3613  12.1914  14.0428

     occupation numbers 
     1.0000   1.0000   1.0000   1.0000   0.0000   0.0000   0.0000   0.0000
     0.0000   0.0000   0.0000   0.0000   0.0000   0.0000

          k = 0.2500 0.9141 0.0000 (  4169 PWs)   bands (ev):

   -19.1559 -10.2450  -7.6923  -6.8844   4.2522   4.4440   5.3833   5.9206
     6.9500   7.7195   8.5714  11.4777  11.9117  12.7541

     occupation numbers 
     1.0000   1.0000   1.0000   1.0000   0.0000   0.0000   0.0000   0.0000
     0.0000   0.0000   0.0000   0.0000   0.0000   0.0000

          k = 0.2500 1.0104 0.0000 (  4174 PWs)   bands (ev):

   -19.7989  -9.1642  -7.6280  -6.8007   3.5511   4.4472   5.0095   5.5983
     6.4082   6.8516   7.6816  10.6900  11.7632  11.8643

     occupation numbers 
     1.0000   1.0000   1.0000   1.0000   0.0000   0.0000   0.0000   0.0000
     0.0000   0.0000   0.0000   0.0000   0.0000   0.0000

          k = 0.2500 1.1066 0.0000 (  4166 PWs)   bands (ev):

   -20.1229  -8.1703  -8.0057  -6.8020   3.1056   4.0139   4.5552   6.3414
     6.4810   7.0542   7.3490   9.7899  10.2545  11.4309

     occupation numbers 
     1.0000   1.0000   1.0000   1.0000   0.0000   0.0000   0.0000   0.0000
     0.0000   0.0000   0.0000   0.0000   0.0000   0.0000

          k = 0.2500 1.2028 0.0000 (  4166 PWs)   bands (ev):

   -20.1229  -8.1703  -8.0057  -6.8020   3.1056   4.0139   4.5552   6.3414
     6.4810   7.0542   7.3490   9.7899  10.2545  11.4309

     occupation numbers 
     1.0000   1.0000   1.0000   1.0000   0.0000   0.0000   0.0000   0.0000
     0.0000   0.0000   0.0000   0.0000   0.0000   0.0000

          k = 0.3333 0.1925 0.0000 (  4166 PWs)   bands (ev):

   -18.6774 -11.3699  -7.5387  -6.3531   3.2352   5.1022   6.0597   6.0920
     6.6214   8.3968   9.2349  12.1210  13.3853  14.1625

     occupation numbers 
     1.0000   1.0000   1.0000   1.0000   0.0000   0.0000   0.0000   0.0000
     0.0000   0.0000   0.0000   0.0000   0.0000   0.0000

          k = 0.3333 0.2887 0.0000 (  4164 PWs)   bands (ev):

   -17.8920 -12.3713  -8.3300  -5.4982   2.0415   6.1987   6.6948   7.1490
     7.7534   9.4589  10.3416  12.7944  13.1126  14.4615

     occupation numbers 
     1.0000   1.0000   1.0000   1.0000   0.0000   0.0000   0.0000   0.0000
     0.0000   0.0000   0.0000   0.0000   0.0000   0.0000

          k = 0.3333 0.3849 0.0000 (  4152 PWs)   bands (ev):

   -16.8255 -13.1443  -9.8039  -4.3711   0.8324   7.7447   8.4114   8.5459
     9.3418  10.5977  11.8420  12.2226  12.2829  14.4498

     occupation numbers 
     1.0000   1.0000   1.0000   0.9999   0.0001   0.0000   0.0000   0.0000
     0.0000   0.0000   0.0000   0.0000   0.0000   0.0000

          k = 0.3333 0.4811 0.0000 (  4149 PWs)   bands (ev):

   -15.5460 -13.6872 -11.4254  -3.0631  -0.3961   9.2108   9.6377  10.5663
    11.3312  11.3479  11.6480  13.2911  13.6366  13.8998

     occupation numbers 
     1.0000   1.0000   1.0000   0.9931   0.0079   0.0000   0.0000   0.0000
     0.0000   0.0000   0.0000   0.0000   0.0000   0.0000

          k = 0.3333 0.5774 0.0000 (  4140 PWs)   bands (ev):

   -14.3234 -14.3234 -12.3329  -1.7003  -1.7003   8.9515  11.2243  11.2244
    11.8254  13.2671  13.2671  13.5488  13.5488  13.7738

     occupation numbers 
     1.0000   1.0000   1.0000   0.4895   0.4895   0.0000   0.0000   0.0000
     0.0000   0.0000   0.0000   0.0000   0.0000   0.0000

          k = 0.3333 0.6736 0.0000 (  4149 PWs)   bands (ev):

   -15.5460 -13.6872 -11.4254  -3.0631  -0.3961   9.2108   9.6377  10.5663
    11.3313  11.3479  11.6480  13.2911  13.6366  13.8997

     occupation numbers 
     1.0000   1.0000   1.0000   0.9931   0.0079   0.0000   0.0000   0.0000
     0.0000   0.0000   0.0000   0.0000   0.0000   0.0000

          k = 0.3333 0.7698 0.0000 (  4152 PWs)   bands (ev):

   -16.8255 -13.1443  -9.8039  -4.3711   0.8324   7.7447   8.4114   8.5459
     9.3418  10.5977  11.8420  12.2225  12.2829  14.4500

     occupation numbers 
     1.0000   1.0000   1.0000   0.9999   0.0001   0.0000   0.0000   0.0000
     0.0000   0.0000   0.0000   0.0000   0.0000   0.0000

          k = 0.3333 0.8660 0.0000 (  4164 PWs)   bands (ev):

   -17.8920 -12.3713  -8.3300  -5.4982   2.0415   6.1987   6.6948   7.1490
     7.7534   9.4589  10.3416  12.7944  13.1126  14.4615

     occupation numbers 
     1.0000   1.0000   1.0000   1.0000   0.0000   0.0000   0.0000   0.0000
     0.0000   0.0000   0.0000   0.0000   0.0000   0.0000

          k = 0.3333 0.9623 0.0000 (  4166 PWs)   bands (ev):

   -18.6774 -11.3699  -7.5387  -6.3531   3.2352   5.1022   6.0597   6.0920
     6.6214   8.3968   9.2349  12.1210  13.3853  14.1625

     occupation numbers 
     1.0000   1.0000   1.0000   1.0000   0.0000   0.0000   0.0000   0.0000
     0.0000   0.0000   0.0000   0.0000   0.0000   0.0000

          k = 0.3333 1.0585 0.0000 (  4169 PWs)   bands (ev):

   -19.1559 -10.2450  -7.6923  -6.8844   4.2522   4.4440   5.3833   5.9206
     6.9500   7.7195   8.5714  11.4777  11.9117  12.7541

     occupation numbers 
     1.0000   1.0000   1.0000   1.0000   0.0000   0.0000   0.0000   0.0000
     0.0000   0.0000   0.0000   0.0000   0.0000   0.0000

          k = 0.3333 1.1547 0.0000 (  4166 PWs)   bands (ev):

   -19.3165  -9.4988  -8.1690  -7.0640   4.2231   4.7122   5.1294   5.6958
     7.4814   8.1913   8.5249   9.9210  11.2352  12.5302

     occupation numbers 
     1.0000   1.0000   1.0000   1.0000   0.0000   0.0000   0.0000   0.0000
     0.0000   0.0000   0.0000   0.0000   0.0000   0.0000

          k = 0.3333 1.2509 0.0000 (  4169 PWs)   bands (ev):

   -19.1559 -10.2450  -7.6923  -6.8844   4.2522   4.4440   5.3833   5.9206
     6.9500   7.7195   8.5714  11.4777  11.9117  12.7541

     occupation numbers 
     1.0000   1.0000   1.0000   1.0000   0.0000   0.0000   0.0000   0.0000
     0.0000   0.0000   0.0000   0.0000   0.0000   0.0000

          k = 0.4167 0.2406 0.0000 (  4162 PWs)   bands (ev):

   -17.2771 -13.4745  -8.0142  -4.9238   1.0897   5.8412   7.1224   8.0533
     8.6611  10.3546  11.2244  12.1806  12.9932  14.0088

     occupation numbers 
     1.0000   1.0000   1.0000   1.0000   0.0000   0.0000   0.0000   0.0000
     0.0000   0.0000   0.0000   0.0000   0.0000   0.0000

          k = 0.4167 0.3368 0.0000 (  4185 PWs)   bands (ev):

   -16.4058 -14.3199  -8.6602  -4.1828   0.2636   6.5003   8.4253   9.3084
    10.0211  10.9584  11.3462  11.9928  12.5266  12.7262

     occupation numbers 
     1.0000   1.0000   1.0000   0.9999   0.0007   0.0000   0.0000   0.0000
     0.0000   0.0000   0.0000   0.0000   0.0000   0.0000

          k = 0.4167 0.4330 0.0000 (  4174 PWs)   bands (ev):

   -15.5803 -14.5905  -9.9892  -3.4743  -0.2412   8.3050   9.9461   9.9998
    10.1949  11.2346  11.7994  11.8352  12.3355  13.6201

     occupation numbers 
     1.0000   1.0000   1.0000   0.9985   0.0045   0.0000   0.0000   0.0000
     0.0000   0.0000   0.0000   0.0000   0.0000   0.0000

          k = 0.4167 0.5292 0.0000 (  4149 PWs)   bands (ev):

   -15.5460 -13.6872 -11.4254  -3.0631  -0.3961   9.2108   9.6377  10.5663
    11.3312  11.3479  11.6479  13.2911  13.6366  13.8997

     occupation numbers 
     1.0000   1.0000   1.0000   0.9931   0.0079   0.0000   0.0000   0.0000
     0.0000   0.0000   0.0000   0.0000   0.0000   0.0000

          k = 0.4167 0.6255 0.0000 (  4149 PWs)   bands (ev):

   -15.5460 -13.6872 -11.4254  -3.0631  -0.3961   9.2108   9.6377  10.5663
    11.3313  11.3479  11.6479  13.2911  13.6367  13.8997

     occupation numbers 
     1.0000   1.0000   1.0000   0.9931   0.0079   0.0000   0.0000   0.0000
     0.0000   0.0000   0.0000   0.0000   0.0000   0.0000

          k = 0.4167 0.7217 0.0000 (  4174 PWs)   bands (ev):

   -15.5803 -14.5905  -9.9892  -3.4743  -0.2412   8.3050   9.9461   9.9998
    10.1949  11.2346  11.7994  11.8352  12.3355  13.6201

     occupation numbers 
     1.0000   1.0000   1.0000   0.9985   0.0045   0.0000   0.0000   0.0000
     0.0000   0.0000   0.0000   0.0000   0.0000   0.0000

          k = 0.4167 0.8179 0.0000 (  4185 PWs)   bands (ev):

   -16.4058 -14.3199  -8.6602  -4.1828   0.2636   6.5003   8.4253   9.3084
    10.0211  10.9584  11.3462  11.9928  12.5266  12.7262

     occupation numbers 
     1.0000   1.0000   1.0000   0.9999   0.0007   0.0000   0.0000   0.0000
     0.0000   0.0000   0.0000   0.0000   0.0000   0.0000

          k = 0.4167 0.9141 0.0000 (  4162 PWs)   bands (ev):

   -17.2771 -13.4745  -8.0142  -4.9238   1.0897   5.8412   7.1224   8.0533
     8.6611  10.3546  11.2244  12.1806  12.9932  14.0088

     occupation numbers 
     1.0000   1.0000   1.0000   1.0000   0.0000   0.0000   0.0000   0.0000
     0.0000   0.0000   0.0000   0.0000   0.0000   0.0000

          k = 0.4167 1.0104 0.0000 (  4164 PWs)   bands (ev):

   -17.8920 -12.3713  -8.3300  -5.4982   2.0415   6.1987   6.6948   7.1490
     7.7534   9.4589  10.3416  12.7944  13.1126  14.4614

     occupation numbers 
     1.0000   1.0000   1.0000   1.0000   0.0000   0.0000   0.0000   0.0000
     0.0000   0.0000   0.0000   0.0000   0.0000   0.0000

          k = 0.4167 1.1066 0.0000 (  4150 PWs)   bands (ev):

   -18.2058 -11.2282  -9.2274  -5.8050   2.7547   5.7785   6.6673   7.2892
     8.5972   8.9692   9.9049  11.3613  12.1914  14.0428

     occupation numbers 
     1.0000   1.0000   1.0000   1.0000   0.0000   0.0000   0.0000   0.0000
     0.0000   0.0000   0.0000   0.0000   0.0000   0.0000

          k = 0.4167 1.2028 0.0000 (  4150 PWs)   bands (ev):

   -18.2058 -11.2282  -9.2274  -5.8050   2.7547   5.7785   6.6673   7.2892
     8.5972   8.9692   9.9050  11.3614  12.1914  14.0428

     occupation numbers 
     1.0000   1.0000   1.0000   1.0000   0.0000   0.0000   0.0000   0.0000
     0.0000   0.0000   0.0000   0.0000   0.0000   0.0000

          k = 0.4167 1.2990 0.0000 (  4164 PWs)   bands (ev):

   -17.8920 -12.3713  -8.3300  -5.4982   2.0415   6.1987   6.6948   7.1490
     7.7534   9.4589  10.3416  12.7944  13.1127  14.4615

     occupation numbers 
     1.0000   1.0000   1.0000   1.0000   0.0000   0.0000   0.0000   0.0000
     0.0000   0.0000   0.0000   0.0000   0.0000   0.0000

          k = 0.5000 0.2887 0.0000 (  4168 PWs)   bands (ev):

   -16.0013 -14.9933  -8.1774  -4.0750  -0.0134   5.7644   9.4359   9.5843
    10.3232  10.5548  11.1450  11.1678  12.4711  12.9418

     occupation numbers 
     1.0000   1.0000   1.0000   0.9998   0.0019   0.0000   0.0000   0.0000
     0.0000   0.0000   0.0000   0.0000   0.0000   0.0000

          k = 0.5000 0.3849 0.0000 (  4185 PWs)   bands (ev):

   -16.4058 -14.3199  -8.6602  -4.1828   0.2636   6.5003   8.4253   9.3084
    10.0211  10.9584  11.3462  11.9928  12.5267  12.7262

     occupation numbers 
     1.0000   1.0000   1.0000   0.9999   0.0007   0.0000   0.0000   0.0000
     0.0000   0.0000   0.0000   0.0000   0.0000   0.0000

          k = 0.5000 0.4811 0.0000 (  4152 PWs)   bands (ev):

   -16.8255 -13.1443  -9.8039  -4.3711   0.8324   7.7447   8.4114   8.5459
     9.3418  10.5977  11.8420  12.2225  12.2829  14.4501

     occupation numbers 
     1.0000   1.0000   1.0000   0.9999   0.0001   0.0000   0.0000   0.0000
     0.0000   0.0000   0.0000   0.0000   0.0000   0.0000

          k = 0.5000 0.5774 0.0000 (  4142 PWs)   bands (ev):

   -16.9741 -12.2602 -10.7172  -4.4559   1.1319   7.5347   8.2528   9.1061
    10.2529  10.5774  10.9997  11.6820  12.0252  15.1570

     occupation numbers 
     1.0000   1.0000   1.0000   1.0000   0.0000   0.0000   0.0000   0.0000
     0.0000   0.0000   0.0000   0.0000   0.0000   0.0000

          k = 0.5000 0.6736 0.0000 (  4152 PWs)   bands (ev):

   -16.8255 -13.1443  -9.8039  -4.3711   0.8324   7.7447   8.4114   8.5459
     9.3418  10.5977  11.8420  12.2225  12.2829  14.4492

     occupation numbers 
     1.0000   1.0000   1.0000   0.9999   0.0001   0.0000   0.0000   0.0000
     0.0000   0.0000   0.0000   0.0000   0.0000   0.0000

          k = 0.5000 0.7698 0.0000 (  4185 PWs)   bands (ev):

   -16.4058 -14.3199  -8.6602  -4.1828   0.2636   6.5003   8.4253   9.3084
    10.0211  10.9584  11.3462  11.9928  12.5266  12.7262

     occupation numbers 
     1.0000   1.0000   1.0000   0.9999   0.0007   0.0000   0.0000   0.0000
     0.0000   0.0000   0.0000   0.0000   0.0000   0.0000

          k = 0.5000 0.8660 0.0000 (  4168 PWs)   bands (ev):

   -16.0013 -14.9933  -8.1774  -4.0750  -0.0134   5.7644   9.4359   9.5843
    10.3232  10.5548  11.1450  11.1678  12.4711  12.9418

     occupation numbers 
     1.0000   1.0000   1.0000   0.9998   0.0019   0.0000   0.0000   0.0000
     0.0000   0.0000   0.0000   0.0000   0.0000   0.0000

          k = 0.5000 0.9623 0.0000 (  4185 PWs)   bands (ev):

   -16.4058 -14.3199  -8.6602  -4.1828   0.2636   6.5003   8.4253   9.3084
    10.0211  10.9584  11.3462  11.9928  12.5267  12.7263

     occupation numbers 
     1.0000   1.0000   1.0000   0.9999   0.0007   0.0000   0.0000   0.0000
     0.0000   0.0000   0.0000   0.0000   0.0000   0.0000

          k = 0.5000 1.0585 0.0000 (  4152 PWs)   bands (ev):

   -16.8255 -13.1443  -9.8039  -4.3711   0.8324   7.7447   8.4114   8.5459
     9.3418  10.5977  11.8420  12.2225  12.2829  14.4493

     occupation numbers 
     1.0000   1.0000   1.0000   0.9999   0.0001   0.0000   0.0000   0.0000
     0.0000   0.0000   0.0000   0.0000   0.0000   0.0000

          k = 0.5000 1.1547 0.0000 (  4142 PWs)   bands (ev):

   -16.9741 -12.2602 -10.7172  -4.4559   1.1319   7.5347   8.2528   9.1061
    10.2529  10.5774  10.9997  11.6819  12.0252  15.1570

     occupation numbers 
     1.0000   1.0000   1.0000   1.0000   0.0000   0.0000   0.0000   0.0000
     0.0000   0.0000   0.0000   0.0000   0.0000   0.0000

          k = 0.5000 1.2509 0.0000 (  4152 PWs)   bands (ev):

   -16.8255 -13.1443  -9.8039  -4.3711   0.8324   7.7447   8.4114   8.5459
     9.3418  10.5977  11.8420  12.2225  12.2829  14.4491

     occupation numbers 
     1.0000   1.0000   1.0000   0.9999   0.0001   0.0000   0.0000   0.0000
     0.0000   0.0000   0.0000   0.0000   0.0000   0.0000

          k = 0.5000 1.3472 0.0000 (  4185 PWs)   bands (ev):

   -16.4058 -14.3199  -8.6602  -4.1828   0.2636   6.5003   8.4253   9.3084
    10.0211  10.9584  11.3462  11.9928  12.5266  12.7262

     occupation numbers 
     1.0000   1.0000   1.0000   0.9999   0.0007   0.0000   0.0000   0.0000
     0.0000   0.0000   0.0000   0.0000   0.0000   0.0000

          k = 0.5833 0.3368 0.0000 (  4162 PWs)   bands (ev):

   -17.2771 -13.4745  -8.0142  -4.9238   1.0897   5.8412   7.1224   8.0533
     8.6611  10.3546  11.2244  12.1806  12.9932  14.0088

     occupation numbers 
     1.0000   1.0000   1.0000   1.0000   0.0000   0.0000   0.0000   0.0000
     0.0000   0.0000   0.0000   0.0000   0.0000   0.0000

          k = 0.5833 0.4330 0.0000 (  4164 PWs)   bands (ev):

   -17.8920 -12.3713  -8.3300  -5.4982   2.0415   6.1987   6.6948   7.1490
     7.7534   9.4589  10.3416  12.7944  13.1126  14.4614

     occupation numbers 
     1.0000   1.0000   1.0000   1.0000   0.0000   0.0000   0.0000   0.0000
     0.0000   0.0000   0.0000   0.0000   0.0000   0.0000

          k = 0.5833 0.5292 0.0000 (  4150 PWs)   bands (ev):

   -18.2058 -11.2282  -9.2274  -5.8050   2.7547   5.7785   6.6673   7.2892
     8.5972   8.9692   9.9049  11.3613  12.1914  14.0428

     occupation numbers 
     1.0000   1.0000   1.0000   1.0000   0.0000   0.0000   0.0000   0.0000
     0.0000   0.0000   0.0000   0.0000   0.0000   0.0000

          k = 0.5833 0.6255 0.0000 (  4150 PWs)   bands (ev):

   -18.2058 -11.2282  -9.2274  -5.8050   2.7547   5.7785   6.6673   7.2892
     8.5972   8.9692   9.9049  11.3613  12.1914  14.0428

     occupation numbers 
     1.0000   1.0000   1.0000   1.0000   0.0000   0.0000   0.0000   0.0000
     0.0000   0.0000   0.0000   0.0000   0.0000   0.0000

          k = 0.5833 0.7217 0.0000 (  4164 PWs)   bands (ev):

   -17.8920 -12.3713  -8.3300  -5.4982   2.0415   6.1987   6.6948   7.1490
     7.7534   9.4589  10.3416  12.7944  13.1126  14.4614

     occupation numbers 
     1.0000   1.0000   1.0000   1.0000   0.0000   0.0000   0.0000   0.0000
     0.0000   0.0000   0.0000   0.0000   0.0000   0.0000

          k = 0.5833 0.8179 0.0000 (  4162 PWs)   bands (ev):

   -17.2771 -13.4745  -8.0142  -4.9238   1.0897   5.8412   7.1224   8.0533
     8.6611  10.3546  11.2244  12.1806  12.9932  14.0088

     occupation numbers 
     1.0000   1.0000   1.0000   1.0000   0.0000   0.0000   0.0000   0.0000
     0.0000   0.0000   0.0000   0.0000   0.0000   0.0000

          k = 0.5833 0.9141 0.0000 (  4185 PWs)   bands (ev):

   -16.4058 -14.3199  -8.6602  -4.1828   0.2636   6.5003   8.4253   9.3084
    10.0211  10.9584  11.3462  11.9928  12.5266  12.7262

     occupation numbers 
     1.0000   1.0000   1.0000   0.9999   0.0007   0.0000   0.0000   0.0000
     0.0000   0.0000   0.0000   0.0000   0.0000   0.0000

          k = 0.5833 1.0104 0.0000 (  4174 PWs)   bands (ev):

   -15.5803 -14.5905  -9.9892  -3.4743  -0.2412   8.3050   9.9461   9.9998
    10.1949  11.2346  11.7994  11.8352  12.3355  13.6201

     occupation numbers 
     1.0000   1.0000   1.0000   0.9985   0.0045   0.0000   0.0000   0.0000
     0.0000   0.0000   0.0000   0.0000   0.0000   0.0000

          k = 0.5833 1.1066 0.0000 (  4149 PWs)   bands (ev):

   -15.5460 -13.6872 -11.4254  -3.0631  -0.3961   9.2108   9.6377  10.5664
    11.3313  11.3479  11.6479  13.2911  13.6367  13.8998

     occupation numbers 
     1.0000   1.0000   1.0000   0.9931   0.0079   0.0000   0.0000   0.0000
     0.0000   0.0000   0.0000   0.0000   0.0000   0.0000

          k = 0.5833 1.2028 0.0000 (  4149 PWs)   bands (ev):

   -15.5460 -13.6872 -11.4254  -3.0631  -0.3961   9.2108   9.6377  10.5664
    11.3313  11.3479  11.6480  13.2911  13.6367  13.8998

     occupation numbers 
     1.0000   1.0000   1.0000   0.9931   0.0079   0.0000   0.0000   0.0000
     0.0000   0.0000   0.0000   0.0000   0.0000   0.0000

          k = 0.5833 1.2990 0.0000 (  4174 PWs)   bands (ev):

   -15.5803 -14.5905  -9.9892  -3.4743  -0.2412   8.3050   9.9461   9.9998
    10.1949  11.2346  11.7994  11.8352  12.3355  13.6201

     occupation numbers 
     1.0000   1.0000   1.0000   0.9985   0.0045   0.0000   0.0000   0.0000
     0.0000   0.0000   0.0000   0.0000   0.0000   0.0000

          k = 0.5833 1.3953 0.0000 (  4185 PWs)   bands (ev):

   -16.4058 -14.3199  -8.6602  -4.1828   0.2636   6.5003   8.4253   9.3084
    10.0211  10.9584  11.3462  11.9928  12.5266  12.7263

     occupation numbers 
     1.0000   1.0000   1.0000   0.9999   0.0007   0.0000   0.0000   0.0000
     0.0000   0.0000   0.0000   0.0000   0.0000   0.0000

          k = 0.6667 0.3849 0.0000 (  4166 PWs)   bands (ev):

   -18.6774 -11.3699  -7.5387  -6.3531   3.2352   5.1022   6.0597   6.0920
     6.6214   8.3968   9.2349  12.1210  13.3853  14.1625

     occupation numbers 
     1.0000   1.0000   1.0000   1.0000   0.0000   0.0000   0.0000   0.0000
     0.0000   0.0000   0.0000   0.0000   0.0000   0.0000

          k = 0.6667 0.4811 0.0000 (  4169 PWs)   bands (ev):

   -19.1559 -10.2450  -7.6923  -6.8844   4.2522   4.4440   5.3833   5.9206
     6.9500   7.7195   8.5714  11.4777  11.9117  12.7541

     occupation numbers 
     1.0000   1.0000   1.0000   1.0000   0.0000   0.0000   0.0000   0.0000
     0.0000   0.0000   0.0000   0.0000   0.0000   0.0000

          k = 0.6667 0.5774 0.0000 (  4166 PWs)   bands (ev):

   -19.3165  -9.4988  -8.1690  -7.0640   4.2231   4.7122   5.1294   5.6958
     7.4814   8.1913   8.5249   9.9210  11.2352  12.5302

     occupation numbers 
     1.0000   1.0000   1.0000   1.0000   0.0000   0.0000   0.0000   0.0000
     0.0000   0.0000   0.0000   0.0000   0.0000   0.0000

          k = 0.6667 0.6736 0.0000 (  4169 PWs)   bands (ev):

   -19.1559 -10.2450  -7.6923  -6.8844   4.2522   4.4440   5.3833   5.9206
     6.9500   7.7195   8.5714  11.4777  11.9117  12.7541

     occupation numbers 
     1.0000   1.0000   1.0000   1.0000   0.0000   0.0000   0.0000   0.0000
     0.0000   0.0000   0.0000   0.0000   0.0000   0.0000

          k = 0.6667 0.7698 0.0000 (  4166 PWs)   bands (ev):

   -18.6774 -11.3699  -7.5387  -6.3531   3.2352   5.1022   6.0597   6.0920
     6.6214   8.3968   9.2349  12.1210  13.3853  14.1626

     occupation numbers 
     1.0000   1.0000   1.0000   1.0000   0.0000   0.0000   0.0000   0.0000
     0.0000   0.0000   0.0000   0.0000   0.0000   0.0000

          k = 0.6667 0.8660 0.0000 (  4164 PWs)   bands (ev):

   -17.8920 -12.3713  -8.3300  -5.4982   2.0415   6.1987   6.6948   7.1490
     7.7534   9.4589  10.3416  12.7944  13.1126  14.4615

     occupation numbers 
     1.0000   1.0000   1.0000   1.0000   0.0000   0.0000   0.0000   0.0000
     0.0000   0.0000   0.0000   0.0000   0.0000   0.0000

          k = 0.6667 0.9623 0.0000 (  4152 PWs)   bands (ev):

   -16.8255 -13.1443  -9.8039  -4.3711   0.8324   7.7447   8.4114   8.5459
     9.3418  10.5977  11.8420  12.2225  12.2829  14.4495

     occupation numbers 
     1.0000   1.0000   1.0000   0.9999   0.0001   0.0000   0.0000   0.0000
     0.0000   0.0000   0.0000   0.0000   0.0000   0.0000

          k = 0.6667 1.0585 0.0000 (  4149 PWs)   bands (ev):

   -15.5460 -13.6872 -11.4254  -3.0631  -0.3961   9.2108   9.6377  10.5663
    11.3312  11.3479  11.6479  13.2911  13.6366  13.8997

     occupation numbers 
     1.0000   1.0000   1.0000   0.9931   0.0079   0.0000   0.0000   0.0000
     0.0000   0.0000   0.0000   0.0000   0.0000   0.0000

          k = 0.6667 1.1547 0.0000 (  4140 PWs)   bands (ev):

   -14.3234 -14.3234 -12.3329  -1.7003  -1.7003   8.9515  11.2243  11.2244
    11.8254  13.2671  13.2671  13.5488  13.5488  13.7738

     occupation numbers 
     1.0000   1.0000   1.0000   0.4895   0.4895   0.0000   0.0000   0.0000
     0.0000   0.0000   0.0000   0.0000   0.0000   0.0000

          k = 0.6667 1.2509 0.0000 (  4149 PWs)   bands (ev):

   -15.5460 -13.6872 -11.4254  -3.0631  -0.3961   9.2108   9.6377  10.5663
    11.3313  11.3479  11.6479  13.2911  13.6366  13.8998

     occupation numbers 
     1.0000   1.0000   1.0000   0.9931   0.0079   0.0000   0.0000   0.0000
     0.0000   0.0000   0.0000   0.0000   0.0000   0.0000

          k = 0.6667 1.3472 0.0000 (  4152 PWs)   bands (ev):

   -16.8255 -13.1443  -9.8039  -4.3711   0.8324   7.7447   8.4114   8.5459
     9.3418  10.5977  11.8420  12.2225  12.2829  14.4493

     occupation numbers 
     1.0000   1.0000   1.0000   0.9999   0.0001   0.0000   0.0000   0.0000
     0.0000   0.0000   0.0000   0.0000   0.0000   0.0000

          k = 0.6667 1.4434 0.0000 (  4164 PWs)   bands (ev):

   -17.8920 -12.3713  -8.3300  -5.4982   2.0415   6.1987   6.6948   7.1490
     7.7534   9.4589  10.3416  12.7944  13.1127  14.4615

     occupation numbers 
     1.0000   1.0000   1.0000   1.0000   0.0000   0.0000   0.0000   0.0000
     0.0000   0.0000   0.0000   0.0000   0.0000   0.0000

          k = 0.7500 0.4330 0.0000 (  4174 PWs)   bands (ev):

   -19.7989  -9.1642  -7.6280  -6.8007   3.5511   4.4472   5.0095   5.5983
     6.4082   6.8516   7.6816  10.6900  11.7632  11.8643

     occupation numbers 
     1.0000   1.0000   1.0000   1.0000   0.0000   0.0000   0.0000   0.0000
     0.0000   0.0000   0.0000   0.0000   0.0000   0.0000

          k = 0.7500 0.5292 0.0000 (  4166 PWs)   bands (ev):

   -20.1229  -8.1703  -8.0057  -6.8020   3.1056   4.0139   4.5552   6.3414
     6.4810   7.0542   7.3490   9.7899  10.2545  11.4309

     occupation numbers 
     1.0000   1.0000   1.0000   1.0000   0.0000   0.0000   0.0000   0.0000
     0.0000   0.0000   0.0000   0.0000   0.0000   0.0000

          k = 0.7500 0.6255 0.0000 (  4166 PWs)   bands (ev):

   -20.1229  -8.1703  -8.0057  -6.8020   3.1056   4.0139   4.5552   6.3414
     6.4810   7.0542   7.3490   9.7899  10.2545  11.4309

     occupation numbers 
     1.0000   1.0000   1.0000   1.0000   0.0000   0.0000   0.0000   0.0000
     0.0000   0.0000   0.0000   0.0000   0.0000   0.0000

          k = 0.7500 0.7217 0.0000 (  4174 PWs)   bands (ev):

   -19.7989  -9.1642  -7.6280  -6.8007   3.5511   4.4472   5.0095   5.5983
     6.4082   6.8516   7.6816  10.6900  11.7632  11.8643

     occupation numbers 
     1.0000   1.0000   1.0000   1.0000   0.0000   0.0000   0.0000   0.0000
     0.0000   0.0000   0.0000   0.0000   0.0000   0.0000

          k = 0.7500 0.8179 0.0000 (  4169 PWs)   bands (ev):

   -19.1559 -10.2450  -7.6923  -6.8844   4.2522   4.4440   5.3833   5.9206
     6.9500   7.7195   8.5714  11.4777  11.9117  12.7541

     occupation numbers 
     1.0000   1.0000   1.0000   1.0000   0.0000   0.0000   0.0000   0.0000
     0.0000   0.0000   0.0000   0.0000   0.0000   0.0000

          k = 0.7500 0.9141 0.0000 (  4150 PWs)   bands (ev):

   -18.2058 -11.2282  -9.2274  -5.8050   2.7547   5.7785   6.6673   7.2892
     8.5972   8.9692   9.9049  11.3613  12.1914  14.0428

     occupation numbers 
     1.0000   1.0000   1.0000   1.0000   0.0000   0.0000   0.0000   0.0000
     0.0000   0.0000   0.0000   0.0000   0.0000   0.0000

          k = 0.7500 1.0104 0.0000 (  4142 PWs)   bands (ev):

   -16.9741 -12.2602 -10.7172  -4.4559   1.1319   7.5347   8.2528   9.1061
    10.2529  10.5774  10.9997  11.6819  12.0252  15.1570

     occupation numbers 
     1.0000   1.0000   1.0000   1.0000   0.0000   0.0000   0.0000   0.0000
     0.0000   0.0000   0.0000   0.0000   0.0000   0.0000

          k = 0.7500 1.1066 0.0000 (  4149 PWs)   bands (ev):

   -15.5460 -13.6872 -11.4254  -3.0631  -0.3961   9.2108   9.6377  10.5663
    11.3312  11.3479  11.6479  13.2911  13.6366  13.8997

     occupation numbers 
     1.0000   1.0000   1.0000   0.9931   0.0079   0.0000   0.0000   0.0000
     0.0000   0.0000   0.0000   0.0000   0.0000   0.0000

          k = 0.7500 1.2028 0.0000 (  4149 PWs)   bands (ev):

   -15.5460 -13.6872 -11.4254  -3.0631  -0.3961   9.2108   9.6377  10.5663
    11.3313  11.3479  11.6480  13.2911  13.6366  13.8997

     occupation numbers 
     1.0000   1.0000   1.0000   0.9931   0.0079   0.0000   0.0000   0.0000
     0.0000   0.0000   0.0000   0.0000   0.0000   0.0000

          k = 0.7500 1.2990 0.0000 (  4142 PWs)   bands (ev):

   -16.9741 -12.2602 -10.7172  -4.4559   1.1319   7.5347   8.2528   9.1061
    10.2529  10.5774  10.9996  11.6819  12.0252  15.1570

     occupation numbers 
     1.0000   1.0000   1.0000   1.0000   0.0000   0.0000   0.0000   0.0000
     0.0000   0.0000   0.0000   0.0000   0.0000   0.0000

          k = 0.7500 1.3953 0.0000 (  4150 PWs)   bands (ev):

   -18.2058 -11.2282  -9.2274  -5.8050   2.7547   5.7785   6.6673   7.2892
     8.5972   8.9692   9.9049  11.3613  12.1914  14.0428

     occupation numbers 
     1.0000   1.0000   1.0000   1.0000   0.0000   0.0000   0.0000   0.0000
     0.0000   0.0000   0.0000   0.0000   0.0000   0.0000

          k = 0.7500 1.4915 0.0000 (  4169 PWs)   bands (ev):

   -19.1559 -10.2450  -7.6923  -6.8844   4.2522   4.4440   5.3833   5.9206
     6.9500   7.7195   8.5714  11.4777  11.9117  12.7541

     occupation numbers 
     1.0000   1.0000   1.0000   1.0000   0.0000   0.0000   0.0000   0.0000
     0.0000   0.0000   0.0000   0.0000   0.0000   0.0000

          k = 0.8333 0.4811 0.0000 (  4166 PWs)   bands (ev):

   -20.6112  -8.5831  -7.0648  -5.9157   2.4339   3.3408   3.8709   5.7150
     6.4651   6.7653   7.7069   9.2056   9.6231  10.7629

     occupation numbers 
     1.0000   1.0000   1.0000   1.0000   0.0000   0.0000   0.0000   0.0000
     0.0000   0.0000   0.0000   0.0000   0.0000   0.0000

          k = 0.8333 0.5774 0.0000 (  4157 PWs)   bands (ev):

   -20.7747  -8.7773  -6.4607  -5.7989   2.2103   3.1159   3.6430   5.4929
     6.2963   7.0494   8.1958   8.2491   9.4040  10.5427

     occupation numbers 
     1.0000   1.0000   1.0000   1.0000   0.0000   0.0000   0.0000   0.0000
     0.0000   0.0000   0.0000   0.0000   0.0000   0.0000

          k = 0.8333 0.6736 0.0000 (  4166 PWs)   bands (ev):

   -20.6112  -8.5831  -7.0648  -5.9157   2.4339   3.3408   3.8709   5.7150
     6.4651   6.7653   7.7069   9.2056   9.6231  10.7629

     occupation numbers 
     1.0000   1.0000   1.0000   1.0000   0.0000   0.0000   0.0000   0.0000
     0.0000   0.0000   0.0000   0.0000   0.0000   0.0000

          k = 0.8333 0.7698 0.0000 (  4166 PWs)   bands (ev):

   -20.1229  -8.1703  -8.0057  -6.8020   3.1056   4.0139   4.5552   6.3414
     6.4810   7.0542   7.3490   9.7899  10.2545  11.4309

     occupation numbers 
     1.0000   1.0000   1.0000   1.0000   0.0000   0.0000   0.0000   0.0000
     0.0000   0.0000   0.0000   0.0000   0.0000   0.0000

          k = 0.8333 0.8660 0.0000 (  4166 PWs)   bands (ev):

   -19.3165  -9.4988  -8.1690  -7.0640   4.2231   4.7122   5.1294   5.6958
     7.4814   8.1913   8.5249   9.9210  11.2352  12.5302

     occupation numbers 
     1.0000   1.0000   1.0000   1.0000   0.0000   0.0000   0.0000   0.0000
     0.0000   0.0000   0.0000   0.0000   0.0000   0.0000

          k = 0.8333 0.9623 0.0000 (  4150 PWs)   bands (ev):

   -18.2058 -11.2282  -9.2274  -5.8050   2.7547   5.7785   6.6673   7.2892
     8.5972   8.9692   9.9049  11.3613  12.1914  14.0428

     occupation numbers 
     1.0000   1.0000   1.0000   1.0000   0.0000   0.0000   0.0000   0.0000
     0.0000   0.0000   0.0000   0.0000   0.0000   0.0000

          k = 0.8333 1.0585 0.0000 (  4152 PWs)   bands (ev):

   -16.8255 -13.1443  -9.8039  -4.3711   0.8324   7.7447   8.4114   8.5459
     9.3418  10.5977  11.8420  12.2225  12.2829  14.4495

     occupation numbers 
     1.0000   1.0000   1.0000   0.9999   0.0001   0.0000   0.0000   0.0000
     0.0000   0.0000   0.0000   0.0000   0.0000   0.0000

          k = 0.8333 1.1547 0.0000 (  4174 PWs)   bands (ev):

   -15.5803 -14.5905  -9.9892  -3.4743  -0.2412   8.3050   9.9461   9.9998
    10.1949  11.2346  11.7994  11.8352  12.3355  13.6201

     occupation numbers 
     1.0000   1.0000   1.0000   0.9985   0.0045   0.0000   0.0000   0.0000
     0.0000   0.0000   0.0000   0.0000   0.0000   0.0000

          k = 0.8333 1.2509 0.0000 (  4152 PWs)   bands (ev):

   -16.8255 -13.1443  -9.8039  -4.3711   0.8324   7.7447   8.4114   8.5459
     9.3418  10.5977  11.8420  12.2225  12.2829  14.4492

     occupation numbers 
     1.0000   1.0000   1.0000   0.9999   0.0001   0.0000   0.0000   0.0000
     0.0000   0.0000   0.0000   0.0000   0.0000   0.0000

          k = 0.8333 1.3472 0.0000 (  4150 PWs)   bands (ev):

   -18.2058 -11.2282  -9.2274  -5.8050   2.7547   5.7785   6.6673   7.2892
     8.5972   8.9692   9.9049  11.3613  12.1914  14.0428

     occupation numbers 
     1.0000   1.0000   1.0000   1.0000   0.0000   0.0000   0.0000   0.0000
     0.0000   0.0000   0.0000   0.0000   0.0000   0.0000

          k = 0.8333 1.4434 0.0000 (  4166 PWs)   bands (ev):

   -19.3165  -9.4988  -8.1690  -7.0640   4.2231   4.7122   5.1294   5.6958
     7.4814   8.1913   8.5249   9.9210  11.2352  12.5302

     occupation numbers 
     1.0000   1.0000   1.0000   1.0000   0.0000   0.0000   0.0000   0.0000
     0.0000   0.0000   0.0000   0.0000   0.0000   0.0000

          k = 0.8333 1.5396 0.0000 (  4166 PWs)   bands (ev):

   -20.1229  -8.1703  -8.0057  -6.8020   3.1056   4.0139   4.5552   6.3414
     6.4810   7.0542   7.3490   9.7899  10.2545  11.4309

     occupation numbers 
     1.0000   1.0000   1.0000   1.0000   0.0000   0.0000   0.0000   0.0000
     0.0000   0.0000   0.0000   0.0000   0.0000   0.0000

          k = 0.9167 0.5292 0.0000 (  4156 PWs)   bands (ev):

   -21.1024  -9.1689  -5.4277  -5.1182   1.7623   2.6648   3.1869   5.0451
     5.8592   6.7346   7.3553   8.9715   9.2236  10.0935

     occupation numbers 
     1.0000   1.0000   1.0000   1.0000   0.0000   0.0000   0.0000   0.0000
     0.0000   0.0000   0.0000   0.0000   0.0000   0.0000

          k = 0.9167 0.6255 0.0000 (  4156 PWs)   bands (ev):

   -21.1024  -9.1689  -5.4277  -5.1182   1.7623   2.6648   3.1869   5.0451
     5.8592   6.7346   7.3553   8.9715   9.2236  10.0935

     occupation numbers 
     1.0000   1.0000   1.0000   1.0000   0.0000   0.0000   0.0000   0.0000
     0.0000   0.0000   0.0000   0.0000   0.0000   0.0000

          k = 0.9167 0.7217 0.0000 (  4157 PWs)   bands (ev):

   -20.7747  -8.7773  -6.4607  -5.7989   2.2103   3.1159   3.6430   5.4929
     6.2963   7.0494   8.1958   8.2491   9.4040  10.5427

     occupation numbers 
     1.0000   1.0000   1.0000   1.0000   0.0000   0.0000   0.0000   0.0000
     0.0000   0.0000   0.0000   0.0000   0.0000   0.0000

          k = 0.9167 0.8179 0.0000 (  4166 PWs)   bands (ev):

   -20.1229  -8.1703  -8.0057  -6.8020   3.1056   4.0139   4.5552   6.3414
     6.4810   7.0542   7.3490   9.7899  10.2545  11.4309

     occupation numbers 
     1.0000   1.0000   1.0000   1.0000   0.0000   0.0000   0.0000   0.0000
     0.0000   0.0000   0.0000   0.0000   0.0000   0.0000

          k = 0.9167 0.9141 0.0000 (  4169 PWs)   bands (ev):

   -19.1559 -10.2450  -7.6923  -6.8844   4.2522   4.4440   5.3833   5.9206
     6.9500   7.7195   8.5714  11.4777  11.9117  12.7541

     occupation numbers 
     1.0000   1.0000   1.0000   1.0000   0.0000   0.0000   0.0000   0.0000
     0.0000   0.0000   0.0000   0.0000   0.0000   0.0000

          k = 0.9167 1.0104 0.0000 (  4164 PWs)   bands (ev):

   -17.8920 -12.3713  -8.3300  -5.4982   2.0415   6.1987   6.6948   7.1490
     7.7534   9.4589  10.3416  12.7944  13.1126  14.4614

     occupation numbers 
     1.0000   1.0000   1.0000   1.0000   0.0000   0.0000   0.0000   0.0000
     0.0000   0.0000   0.0000   0.0000   0.0000   0.0000

          k = 0.9167 1.1066 0.0000 (  4185 PWs)   bands (ev):

   -16.4058 -14.3199  -8.6602  -4.1828   0.2636   6.5003   8.4253   9.3084
    10.0211  10.9584  11.3462  11.9928  12.5266  12.7262

     occupation numbers 
     1.0000   1.0000   1.0000   0.9999   0.0007   0.0000   0.0000   0.0000
     0.0000   0.0000   0.0000   0.0000   0.0000   0.0000

          k = 0.9167 1.2028 0.0000 (  4185 PWs)   bands (ev):

   -16.4058 -14.3199  -8.6602  -4.1828   0.2636   6.5003   8.4253   9.3084
    10.0211  10.9584  11.3462  11.9928  12.5266  12.7262

     occupation numbers 
     1.0000   1.0000   1.0000   0.9999   0.0007   0.0000   0.0000   0.0000
     0.0000   0.0000   0.0000   0.0000   0.0000   0.0000

          k = 0.9167 1.2990 0.0000 (  4164 PWs)   bands (ev):

   -17.8920 -12.3713  -8.3300  -5.4982   2.0415   6.1987   6.6948   7.1490
     7.7534   9.4589  10.3416  12.7944  13.1127  14.4614

     occupation numbers 
     1.0000   1.0000   1.0000   1.0000   0.0000   0.0000   0.0000   0.0000
     0.0000   0.0000   0.0000   0.0000   0.0000   0.0000

          k = 0.9167 1.3953 0.0000 (  4169 PWs)   bands (ev):

   -19.1559 -10.2450  -7.6923  -6.8844   4.2522   4.4440   5.3833   5.9206
     6.9500   7.7195   8.5714  11.4777  11.9117  12.7541

     occupation numbers 
     1.0000   1.0000   1.0000   1.0000   0.0000   0.0000   0.0000   0.0000
     0.0000   0.0000   0.0000   0.0000   0.0000   0.0000

          k = 0.9167 1.4915 0.0000 (  4166 PWs)   bands (ev):

   -20.1229  -8.1703  -8.0057  -6.8020   3.1056   4.0139   4.5552   6.3414
     6.4810   7.0542   7.3490   9.7899  10.2545  11.4309

     occupation numbers 
     1.0000   1.0000   1.0000   1.0000   0.0000   0.0000   0.0000   0.0000
     0.0000   0.0000   0.0000   0.0000   0.0000   0.0000

          k = 0.9167 1.5877 0.0000 (  4157 PWs)   bands (ev):

   -20.7747  -8.7773  -6.4607  -5.7989   2.2103   3.1159   3.6430   5.4929
     6.2963   7.0494   8.1958   8.2491   9.4040  10.5427

     occupation numbers 
     1.0000   1.0000   1.0000   1.0000   0.0000   0.0000   0.0000   0.0000
     0.0000   0.0000   0.0000   0.0000   0.0000   0.0000

     the Fermi energy is    -1.7118 ev
     (compare with:    -1.7118 eV, computed in scf)

     Writing all to output data dir ./tmp/graphene.save/ :
     XML data file, pseudopotentials, collected wavefunctions

     init_run     :      0.33s CPU      0.33s WALL (       1 calls)
     electrons    :     17.40s CPU      9.88s WALL (       1 calls)

     Called by init_run:
     wfcinit      :      0.00s CPU      0.00s WALL (       1 calls)
     wfcinit:wfcr :      1.20s CPU      0.69s WALL (     144 calls)
     potinit      :      0.02s CPU      0.01s WALL (       1 calls)
     hinit0       :      0.27s CPU      0.27s WALL (       1 calls)

     Called by electrons:
     c_bands      :     17.40s CPU      9.87s WALL (       1 calls)
     v_of_rho     :      0.01s CPU      0.01s WALL (       1 calls)
     v_h          :      0.00s CPU      0.00s WALL (       1 calls)
     v_xc         :      0.01s CPU      0.01s WALL (       1 calls)

     Called by c_bands:
     init_us_2    :      0.04s CPU      0.02s WALL (     144 calls)
     cegterg      :     15.85s CPU      9.05s WALL (     144 calls)

     Called by sum_band:

     Called by *egterg:
     cdiaghg      :      4.22s CPU      1.97s WALL (    1456 calls)
     cegterg:over :      1.23s CPU      0.67s WALL (    1312 calls)
     cegterg:upda :      0.54s CPU      0.36s WALL (    1312 calls)
     cegterg:last :      0.12s CPU      0.11s WALL (     288 calls)
     h_psi        :     10.30s CPU      6.18s WALL (    1600 calls)
     g_psi        :      0.11s CPU      0.07s WALL (    1312 calls)

     Called by h_psi:
     h_psi:calbec :      0.41s CPU      0.22s WALL (    1600 calls)
     vloc_psi     :      9.62s CPU      5.80s WALL (    1600 calls)
                                        0.00s GPU  (    1600 calls)
     add_vuspsi   :      0.18s CPU      0.08s WALL (    1600 calls)

     General routines
     calbec       :      0.41s CPU      0.22s WALL (    1600 calls)
     fft          :      0.26s CPU      0.26s WALL (      10 calls)
     fftw         :      8.63s CPU      5.20s WALL (   39610 calls)

     Parallel routines

     PWSCF        :     18.26s CPU     10.63s WALL


   This run was terminated on:  15:42:17   6Aug2026            

=------------------------------------------------------------------------------=
   JOB DONE.
=------------------------------------------------------------------------------=
