
     Program PWSCF v.7.5 starts on  6Aug2026 at 16:15: 1 

     This program is part of the open-source Quantum ESPRESSO suite
     for quantum simulation of materials; please cite
         "P. Giannozzi et al., J. Phys.:Condens. Matter 21 395502 (2009);
         "P. Giannozzi et al., J. Phys.:Condens. Matter 29 465901 (2017);
         "P. Giannozzi et al., J. Chem. Phys. 152 154105 (2020);
          URL http://www.quantum-espresso.org", 
     in publications or presentations arising from this work. More details at
     http://www.quantum-espresso.org/quote

     Parallel version (MPI & OpenMP), running on      16 processor cores
     Number of MPI processes:                 8
     Threads/MPI process:                     2

     MPI processes distributed on     1 nodes
     24344 MiB available memory on the printing compute node when the environment starts

     Reading input from nscf.in

     Current dimensions of program PWSCF are:
     Max number of different atomic species (ntypx) = 10
     Max number of k-points (npk) =  40000
     Max angular momentum in pseudopotentials (lmaxx) =  4

     Atomic positions and unit cell read from directory:
     ./tmp/graphene.save/


     R & G space division:  proc/nbgrp/npool/nimage =       8
     Subspace diagonalization in iterative solution of the eigenvalue problem:
     a serial algorithm will be used


     Parallelization info
     --------------------
     sticks:   dense  smooth     PW     G-vecs:    dense   smooth      PW
     Min          45      45     20                 4167     4167    1226
     Max          46      46     22                 4184     4184    1237
     Sum         361     361    163                33427    33427    9831

     Using Slab Decomposition



     bravais-lattice index     =            4
     lattice parameter (alat)  =       4.6487  a.u.
     unit-cell volume          =     530.5041 (a.u.)^3
     number of atoms/cell      =            2
     number of atomic types    =            1
     number of electrons       =         8.00
     number of Kohn-Sham states=           14
     kinetic-energy cutoff     =      60.0000  Ry
     charge density cutoff     =     240.0000  Ry
     Exchange-correlation= PBE
                           (   1   4   3   4   0   0   0)

     celldm(1)=   4.648726  celldm(2)=   0.000000  celldm(3)=   6.097561
     celldm(4)=   0.000000  celldm(5)=   0.000000  celldm(6)=   0.000000

     crystal axes: (cart. coord. in units of alat)
               a(1) = (   1.000000   0.000000   0.000000 )  
               a(2) = (  -0.500000   0.866025   0.000000 )  
               a(3) = (   0.000000   0.000000   6.097561 )  

     reciprocal axes: (cart. coord. in units 2 pi/alat)
               b(1) = (  1.000000  0.577350 -0.000000 )  
               b(2) = (  0.000000  1.154701  0.000000 )  
               b(3) = (  0.000000 -0.000000  0.164000 )  


     PseudoPot. # 1 for C  read from file:
     /root/phonon/pseudo/C_ONCV_PBE-1.2.upf
     MD5 check sum: 1a5f83a7b1f58d24996abe00ed223ac6
     Pseudo is Norm-conserving, Zval =  4.0
     Generated using ONCVPSP code by D. R. Hamann
     Using radial grid of  602 points,  4 beta functions with: 
                l(1) =   0
                l(2) =   0
                l(3) =   1
                l(4) =   1

     atomic species   valence    mass     pseudopotential
     C                 4.00    12.01100     C ( 1.00)

     24 Sym. Ops., with inversion, found (12 have fractional translation)


                                    s                        frac. trans.

      isym =  1     identity                                     

 cryst.   s( 1) = (     1          0          0      )
                  (     0          1          0      )
                  (     0          0          1      )

 cart.    s( 1) = (  1.0000000  0.0000000  0.0000000 )
                  (  0.0000000  1.0000000  0.0000000 )
                  (  0.0000000  0.0000000  1.0000000 )


      isym =  2     180 deg rotation - cart. axis [0,0,1]        

 cryst.   s( 2) = (    -1          0          0      )    f =( -0.3333333 )
                  (     0         -1          0      )       (  0.3333333 )
                  (     0          0          1      )       (  0.0000000 )

 cart.    s( 2) = ( -1.0000000  0.0000000  0.0000000 )    f =( -0.5000000 )
                  (  0.0000000 -1.0000000  0.0000000 )       (  0.2886751 )
                  (  0.0000000  0.0000000  1.0000000 )       (  0.0000000 )


      isym =  3     180 deg rotation - cart. axis [0,1,0]        

 cryst.   s( 3) = (    -1          0          0      )
                  (     1          1          0      )
                  (     0          0         -1      )

 cart.    s( 3) = ( -1.0000000  0.0000000  0.0000000 )
                  (  0.0000000  1.0000000  0.0000000 )
                  (  0.0000000  0.0000000 -1.0000000 )


      isym =  4     180 deg rotation - cart. axis [1,0,0]        

 cryst.   s( 4) = (     1          0          0      )    f =( -0.3333333 )
                  (    -1         -1          0      )       (  0.3333333 )
                  (     0          0         -1      )       (  0.0000000 )

 cart.    s( 4) = (  1.0000000  0.0000000  0.0000000 )    f =( -0.5000000 )
                  (  0.0000000 -1.0000000  0.0000000 )       (  0.2886751 )
                  (  0.0000000  0.0000000 -1.0000000 )       (  0.0000000 )


      isym =  5      60 deg rotation - cryst. axis [0,0,1]       

 cryst.   s( 5) = (     1          1          0      )    f =( -0.3333333 )
                  (    -1          0          0      )       (  0.3333333 )
                  (     0          0          1      )       (  0.0000000 )

 cart.    s( 5) = (  0.5000000 -0.8660254  0.0000000 )    f =( -0.5000000 )
                  (  0.8660254  0.5000000  0.0000000 )       (  0.2886751 )
                  (  0.0000000  0.0000000  1.0000000 )       (  0.0000000 )


      isym =  6      60 deg rotation - cryst. axis [0,0,-1]      

 cryst.   s( 6) = (     0         -1          0      )    f =( -0.3333333 )
                  (     1          1          0      )       (  0.3333333 )
                  (     0          0          1      )       (  0.0000000 )

 cart.    s( 6) = (  0.5000000  0.8660254  0.0000000 )    f =( -0.5000000 )
                  ( -0.8660254  0.5000000  0.0000000 )       (  0.2886751 )
                  (  0.0000000  0.0000000  1.0000000 )       (  0.0000000 )


      isym =  7     120 deg rotation - cryst. axis [0,0,1]       

 cryst.   s( 7) = (     0          1          0      )
                  (    -1         -1          0      )
                  (     0          0          1      )

 cart.    s( 7) = ( -0.5000000 -0.8660254  0.0000000 )
                  (  0.8660254 -0.5000000  0.0000000 )
                  (  0.0000000  0.0000000  1.0000000 )


      isym =  8     120 deg rotation - cryst. axis [0,0,-1]      

 cryst.   s( 8) = (    -1         -1          0      )
                  (     1          0          0      )
                  (     0          0          1      )

 cart.    s( 8) = ( -0.5000000  0.8660254  0.0000000 )
                  ( -0.8660254 -0.5000000  0.0000000 )
                  (  0.0000000  0.0000000  1.0000000 )


      isym =  9     180 deg rotation - cryst. axis [1,-1,0]      

 cryst.   s( 9) = (     0         -1          0      )
                  (    -1          0          0      )
                  (     0          0         -1      )

 cart.    s( 9) = (  0.5000000 -0.8660254  0.0000000 )
                  ( -0.8660254 -0.5000000  0.0000000 )
                  (  0.0000000  0.0000000 -1.0000000 )


      isym = 10     180 deg rotation - cryst. axis [2,1,0]       

 cryst.   s(10) = (     1          1          0      )
                  (     0         -1          0      )
                  (     0          0         -1      )

 cart.    s(10) = (  0.5000000  0.8660254  0.0000000 )
                  (  0.8660254 -0.5000000  0.0000000 )
                  (  0.0000000  0.0000000 -1.0000000 )


      isym = 11     180 deg rotation - cryst. axis [0,1,0]       

 cryst.   s(11) = (    -1         -1          0      )    f =( -0.3333333 )
                  (     0          1          0      )       (  0.3333333 )
                  (     0          0         -1      )       (  0.0000000 )

 cart.    s(11) = ( -0.5000000 -0.8660254  0.0000000 )    f =( -0.5000000 )
                  ( -0.8660254  0.5000000  0.0000000 )       (  0.2886751 )
                  (  0.0000000  0.0000000 -1.0000000 )       (  0.0000000 )


      isym = 12     180 deg rotation - cryst. axis [1,1,0]       

 cryst.   s(12) = (     0          1          0      )    f =( -0.3333333 )
                  (     1          0          0      )       (  0.3333333 )
                  (     0          0         -1      )       (  0.0000000 )

 cart.    s(12) = ( -0.5000000  0.8660254  0.0000000 )    f =( -0.5000000 )
                  (  0.8660254  0.5000000  0.0000000 )       (  0.2886751 )
                  (  0.0000000  0.0000000 -1.0000000 )       (  0.0000000 )


      isym = 13     inversion                                    

 cryst.   s(13) = (    -1          0          0      )    f =( -0.3333333 )
                  (     0         -1          0      )       (  0.3333333 )
                  (     0          0         -1      )       (  0.0000000 )

 cart.    s(13) = ( -1.0000000  0.0000000  0.0000000 )    f =( -0.5000000 )
                  (  0.0000000 -1.0000000  0.0000000 )       (  0.2886751 )
                  (  0.0000000  0.0000000 -1.0000000 )       (  0.0000000 )


      isym = 14     inv. 180 deg rotation - cart. axis [0,0,1]   

 cryst.   s(14) = (     1          0          0      )
                  (     0          1          0      )
                  (     0          0         -1      )

 cart.    s(14) = (  1.0000000  0.0000000  0.0000000 )
                  (  0.0000000  1.0000000  0.0000000 )
                  (  0.0000000  0.0000000 -1.0000000 )


      isym = 15     inv. 180 deg rotation - cart. axis [0,1,0]   

 cryst.   s(15) = (     1          0          0      )    f =( -0.3333333 )
                  (    -1         -1          0      )       (  0.3333333 )
                  (     0          0          1      )       (  0.0000000 )

 cart.    s(15) = (  1.0000000  0.0000000  0.0000000 )    f =( -0.5000000 )
                  (  0.0000000 -1.0000000  0.0000000 )       (  0.2886751 )
                  (  0.0000000  0.0000000  1.0000000 )       (  0.0000000 )


      isym = 16     inv. 180 deg rotation - cart. axis [1,0,0]   

 cryst.   s(16) = (    -1          0          0      )
                  (     1          1          0      )
                  (     0          0          1      )

 cart.    s(16) = ( -1.0000000  0.0000000  0.0000000 )
                  (  0.0000000  1.0000000  0.0000000 )
                  (  0.0000000  0.0000000  1.0000000 )


      isym = 17     inv.  60 deg rotation - cryst. axis [0,0,1]  

 cryst.   s(17) = (    -1         -1          0      )
                  (     1          0          0      )
                  (     0          0         -1      )

 cart.    s(17) = ( -0.5000000  0.8660254  0.0000000 )
                  ( -0.8660254 -0.5000000  0.0000000 )
                  (  0.0000000  0.0000000 -1.0000000 )


      isym = 18     inv.  60 deg rotation - cryst. axis [0,0,-1] 

 cryst.   s(18) = (     0          1          0      )
                  (    -1         -1          0      )
                  (     0          0         -1      )

 cart.    s(18) = ( -0.5000000 -0.8660254  0.0000000 )
                  (  0.8660254 -0.5000000  0.0000000 )
                  (  0.0000000  0.0000000 -1.0000000 )


      isym = 19     inv. 120 deg rotation - cryst. axis [0,0,1]  

 cryst.   s(19) = (     0         -1          0      )    f =( -0.3333333 )
                  (     1          1          0      )       (  0.3333333 )
                  (     0          0         -1      )       (  0.0000000 )

 cart.    s(19) = (  0.5000000  0.8660254  0.0000000 )    f =( -0.5000000 )
                  ( -0.8660254  0.5000000  0.0000000 )       (  0.2886751 )
                  (  0.0000000  0.0000000 -1.0000000 )       (  0.0000000 )


      isym = 20     inv. 120 deg rotation - cryst. axis [0,0,-1] 

 cryst.   s(20) = (     1          1          0      )    f =( -0.3333333 )
                  (    -1          0          0      )       (  0.3333333 )
                  (     0          0         -1      )       (  0.0000000 )

 cart.    s(20) = (  0.5000000 -0.8660254  0.0000000 )    f =( -0.5000000 )
                  (  0.8660254  0.5000000  0.0000000 )       (  0.2886751 )
                  (  0.0000000  0.0000000 -1.0000000 )       (  0.0000000 )


      isym = 21     inv. 180 deg rotation - cryst. axis [1,-1,0] 

 cryst.   s(21) = (     0          1          0      )    f =( -0.3333333 )
                  (     1          0          0      )       (  0.3333333 )
                  (     0          0          1      )       (  0.0000000 )

 cart.    s(21) = ( -0.5000000  0.8660254  0.0000000 )    f =( -0.5000000 )
                  (  0.8660254  0.5000000  0.0000000 )       (  0.2886751 )
                  (  0.0000000  0.0000000  1.0000000 )       (  0.0000000 )


      isym = 22     inv. 180 deg rotation - cryst. axis [2,1,0]  

 cryst.   s(22) = (    -1         -1          0      )    f =( -0.3333333 )
                  (     0          1          0      )       (  0.3333333 )
                  (     0          0          1      )       (  0.0000000 )

 cart.    s(22) = ( -0.5000000 -0.8660254  0.0000000 )    f =( -0.5000000 )
                  ( -0.8660254  0.5000000  0.0000000 )       (  0.2886751 )
                  (  0.0000000  0.0000000  1.0000000 )       (  0.0000000 )


      isym = 23     inv. 180 deg rotation - cryst. axis [0,1,0]  

 cryst.   s(23) = (     1          1          0      )
                  (     0         -1          0      )
                  (     0          0          1      )

 cart.    s(23) = (  0.5000000  0.8660254  0.0000000 )
                  (  0.8660254 -0.5000000  0.0000000 )
                  (  0.0000000  0.0000000  1.0000000 )


      isym = 24     inv. 180 deg rotation - cryst. axis [1,1,0]  

 cryst.   s(24) = (     0         -1          0      )
                  (    -1          0          0      )
                  (     0          0          1      )

 cart.    s(24) = (  0.5000000 -0.8660254  0.0000000 )
                  ( -0.8660254 -0.5000000  0.0000000 )
                  (  0.0000000  0.0000000  1.0000000 )


     point group D_6h(6/mmm)
     there are 12 classes
     the character table:

       E     2C6   2C3   C2    3C2'  3C2'' i     2S3   2S6   s_h   3s_d  3s_v 
A_1g   1.00  1.00  1.00  1.00  1.00  1.00  1.00  1.00  1.00  1.00  1.00  1.00
A_2g   1.00  1.00  1.00  1.00 -1.00 -1.00  1.00  1.00  1.00  1.00 -1.00 -1.00
B_1g   1.00 -1.00  1.00 -1.00  1.00 -1.00  1.00 -1.00  1.00 -1.00  1.00 -1.00
B_2g   1.00 -1.00  1.00 -1.00 -1.00  1.00  1.00 -1.00  1.00 -1.00 -1.00  1.00
E_1g   2.00  1.00 -1.00 -2.00  0.00  0.00  2.00  1.00 -1.00 -2.00  0.00  0.00
E_2g   2.00 -1.00 -1.00  2.00  0.00  0.00  2.00 -1.00 -1.00  2.00  0.00  0.00
A_1u   1.00  1.00  1.00  1.00  1.00  1.00 -1.00 -1.00 -1.00 -1.00 -1.00 -1.00
A_2u   1.00  1.00  1.00  1.00 -1.00 -1.00 -1.00 -1.00 -1.00 -1.00  1.00  1.00
B_1u   1.00 -1.00  1.00 -1.00  1.00 -1.00 -1.00  1.00 -1.00  1.00 -1.00  1.00
B_2u   1.00 -1.00  1.00 -1.00 -1.00  1.00 -1.00  1.00 -1.00  1.00  1.00 -1.00
E_1u   2.00  1.00 -1.00 -2.00  0.00  0.00 -2.00 -1.00  1.00  2.00  0.00  0.00
E_2u   2.00 -1.00 -1.00  2.00  0.00  0.00 -2.00  1.00  1.00 -2.00  0.00  0.00

     the symmetry operations in each class and the name of the first element:

     E        1
          identity                                               
     2C6      5    6
           60 deg rotation - cryst. axis [0,0,1]                 
     2C3      7    8
          120 deg rotation - cryst. axis [0,0,1]                 
     C2       2
          180 deg rotation - cart. axis [0,0,1]                  
     3C2'     4   12   11
          180 deg rotation - cart. axis [1,0,0]                  
     3C2''    3    9   10
          180 deg rotation - cart. axis [0,1,0]                  
     i       13
          inversion                                              
     2S3     17   18
          inv.  60 deg rotation - cryst. axis [0,0,1]            
     2S6     19   20
          inv. 120 deg rotation - cryst. axis [0,0,1]            
     s_h     14
          inv. 180 deg rotation - cart. axis [0,0,1]             
     3s_d    16   24   23
          inv. 180 deg rotation - cart. axis [1,0,0]             
     3s_v    15   21   22
          inv. 180 deg rotation - cart. axis [0,1,0]             

   Cartesian axes

     site n.     atom                  positions (alat units)
         1        C      tau(   1) = (   0.0000000   0.0000000   0.0000000  )
         2        C      tau(   2) = (  -0.0000000   0.5773503   0.0000000  )

   Crystallographic axes

     site n.     atom                  positions (cryst. coord.)
         1        C      tau(   1) = (  0.0000000  0.0000000  0.0000000  )
         2        C      tau(   2) = (  0.3333333  0.6666667  0.0000000  )

     number of k points=   324  Fermi-Dirac smearing, width (Ry)=  0.0200
                       cart. coord. in units 2pi/alat
        k(    1) = (   0.0000000   0.0000000   0.0000000), wk =   0.0061728
        k(    2) = (   0.0000000   0.0641500   0.0000000), wk =   0.0061728
        k(    3) = (   0.0000000   0.1283001   0.0000000), wk =   0.0061728
        k(    4) = (   0.0000000   0.1924501   0.0000000), wk =   0.0061728
        k(    5) = (   0.0000000   0.2566001   0.0000000), wk =   0.0061728
        k(    6) = (   0.0000000   0.3207501   0.0000000), wk =   0.0061728
        k(    7) = (   0.0000000   0.3849002   0.0000000), wk =   0.0061728
        k(    8) = (   0.0000000   0.4490502   0.0000000), wk =   0.0061728
        k(    9) = (   0.0000000   0.5132002   0.0000000), wk =   0.0061728
        k(   10) = (   0.0000000   0.5773503   0.0000000), wk =   0.0061728
        k(   11) = (   0.0000000   0.6415003   0.0000000), wk =   0.0061728
        k(   12) = (   0.0000000   0.7056503   0.0000000), wk =   0.0061728
        k(   13) = (   0.0000000   0.7698004   0.0000000), wk =   0.0061728
        k(   14) = (   0.0000000   0.8339504   0.0000000), wk =   0.0061728
        k(   15) = (   0.0000000   0.8981004   0.0000000), wk =   0.0061728
        k(   16) = (   0.0000000   0.9622504   0.0000000), wk =   0.0061728
        k(   17) = (   0.0000000   1.0264005   0.0000000), wk =   0.0061728
        k(   18) = (   0.0000000   1.0905505   0.0000000), wk =   0.0061728
        k(   19) = (   0.0555556   0.0320750   0.0000000), wk =   0.0061728
        k(   20) = (   0.0555556   0.0962250   0.0000000), wk =   0.0061728
        k(   21) = (   0.0555556   0.1603751   0.0000000), wk =   0.0061728
        k(   22) = (   0.0555556   0.2245251   0.0000000), wk =   0.0061728
        k(   23) = (   0.0555556   0.2886751   0.0000000), wk =   0.0061728
        k(   24) = (   0.0555556   0.3528252   0.0000000), wk =   0.0061728
        k(   25) = (   0.0555556   0.4169752   0.0000000), wk =   0.0061728
        k(   26) = (   0.0555556   0.4811252   0.0000000), wk =   0.0061728
        k(   27) = (   0.0555556   0.5452753   0.0000000), wk =   0.0061728
        k(   28) = (   0.0555556   0.6094253   0.0000000), wk =   0.0061728
        k(   29) = (   0.0555556   0.6735753   0.0000000), wk =   0.0061728
        k(   30) = (   0.0555556   0.7377253   0.0000000), wk =   0.0061728
        k(   31) = (   0.0555556   0.8018754   0.0000000), wk =   0.0061728
        k(   32) = (   0.0555556   0.8660254   0.0000000), wk =   0.0061728
        k(   33) = (   0.0555556   0.9301754   0.0000000), wk =   0.0061728
        k(   34) = (   0.0555556   0.9943255   0.0000000), wk =   0.0061728
        k(   35) = (   0.0555556   1.0584755   0.0000000), wk =   0.0061728
        k(   36) = (   0.0555556   1.1226255   0.0000000), wk =   0.0061728
        k(   37) = (   0.1111111   0.0641500   0.0000000), wk =   0.0061728
        k(   38) = (   0.1111111   0.1283001   0.0000000), wk =   0.0061728
        k(   39) = (   0.1111111   0.1924501   0.0000000), wk =   0.0061728
        k(   40) = (   0.1111111   0.2566001   0.0000000), wk =   0.0061728
        k(   41) = (   0.1111111   0.3207501   0.0000000), wk =   0.0061728
        k(   42) = (   0.1111111   0.3849002   0.0000000), wk =   0.0061728
        k(   43) = (   0.1111111   0.4490502   0.0000000), wk =   0.0061728
        k(   44) = (   0.1111111   0.5132002   0.0000000), wk =   0.0061728
        k(   45) = (   0.1111111   0.5773503   0.0000000), wk =   0.0061728
        k(   46) = (   0.1111111   0.6415003   0.0000000), wk =   0.0061728
        k(   47) = (   0.1111111   0.7056503   0.0000000), wk =   0.0061728
        k(   48) = (   0.1111111   0.7698004   0.0000000), wk =   0.0061728
        k(   49) = (   0.1111111   0.8339504   0.0000000), wk =   0.0061728
        k(   50) = (   0.1111111   0.8981004   0.0000000), wk =   0.0061728
        k(   51) = (   0.1111111   0.9622504   0.0000000), wk =   0.0061728
        k(   52) = (   0.1111111   1.0264005   0.0000000), wk =   0.0061728
        k(   53) = (   0.1111111   1.0905505   0.0000000), wk =   0.0061728
        k(   54) = (   0.1111111   1.1547005   0.0000000), wk =   0.0061728
        k(   55) = (   0.1666667   0.0962250   0.0000000), wk =   0.0061728
        k(   56) = (   0.1666667   0.1603751   0.0000000), wk =   0.0061728
        k(   57) = (   0.1666667   0.2245251   0.0000000), wk =   0.0061728
        k(   58) = (   0.1666667   0.2886751   0.0000000), wk =   0.0061728
        k(   59) = (   0.1666667   0.3528252   0.0000000), wk =   0.0061728
        k(   60) = (   0.1666667   0.4169752   0.0000000), wk =   0.0061728
        k(   61) = (   0.1666667   0.4811252   0.0000000), wk =   0.0061728
        k(   62) = (   0.1666667   0.5452753   0.0000000), wk =   0.0061728
        k(   63) = (   0.1666667   0.6094253   0.0000000), wk =   0.0061728
        k(   64) = (   0.1666667   0.6735753   0.0000000), wk =   0.0061728
        k(   65) = (   0.1666667   0.7377253   0.0000000), wk =   0.0061728
        k(   66) = (   0.1666667   0.8018754   0.0000000), wk =   0.0061728
        k(   67) = (   0.1666667   0.8660254   0.0000000), wk =   0.0061728
        k(   68) = (   0.1666667   0.9301754   0.0000000), wk =   0.0061728
        k(   69) = (   0.1666667   0.9943255   0.0000000), wk =   0.0061728
        k(   70) = (   0.1666667   1.0584755   0.0000000), wk =   0.0061728
        k(   71) = (   0.1666667   1.1226255   0.0000000), wk =   0.0061728
        k(   72) = (   0.1666667   1.1867756   0.0000000), wk =   0.0061728
        k(   73) = (   0.2222222   0.1283001   0.0000000), wk =   0.0061728
        k(   74) = (   0.2222222   0.1924501   0.0000000), wk =   0.0061728
        k(   75) = (   0.2222222   0.2566001   0.0000000), wk =   0.0061728
        k(   76) = (   0.2222222   0.3207501   0.0000000), wk =   0.0061728
        k(   77) = (   0.2222222   0.3849002   0.0000000), wk =   0.0061728
        k(   78) = (   0.2222222   0.4490502   0.0000000), wk =   0.0061728
        k(   79) = (   0.2222222   0.5132002   0.0000000), wk =   0.0061728
        k(   80) = (   0.2222222   0.5773503   0.0000000), wk =   0.0061728
        k(   81) = (   0.2222222   0.6415003   0.0000000), wk =   0.0061728
        k(   82) = (   0.2222222   0.7056503   0.0000000), wk =   0.0061728
        k(   83) = (   0.2222222   0.7698004   0.0000000), wk =   0.0061728
        k(   84) = (   0.2222222   0.8339504   0.0000000), wk =   0.0061728
        k(   85) = (   0.2222222   0.8981004   0.0000000), wk =   0.0061728
        k(   86) = (   0.2222222   0.9622504   0.0000000), wk =   0.0061728
        k(   87) = (   0.2222222   1.0264005   0.0000000), wk =   0.0061728
        k(   88) = (   0.2222222   1.0905505   0.0000000), wk =   0.0061728
        k(   89) = (   0.2222222   1.1547005   0.0000000), wk =   0.0061728
        k(   90) = (   0.2222222   1.2188506   0.0000000), wk =   0.0061728
        k(   91) = (   0.2777778   0.1603751   0.0000000), wk =   0.0061728
        k(   92) = (   0.2777778   0.2245251   0.0000000), wk =   0.0061728
        k(   93) = (   0.2777778   0.2886751   0.0000000), wk =   0.0061728
        k(   94) = (   0.2777778   0.3528252   0.0000000), wk =   0.0061728
        k(   95) = (   0.2777778   0.4169752   0.0000000), wk =   0.0061728
        k(   96) = (   0.2777778   0.4811252   0.0000000), wk =   0.0061728
        k(   97) = (   0.2777778   0.5452753   0.0000000), wk =   0.0061728
        k(   98) = (   0.2777778   0.6094253   0.0000000), wk =   0.0061728
        k(   99) = (   0.2777778   0.6735753   0.0000000), wk =   0.0061728
        k(  100) = (   0.2777778   0.7377253   0.0000000), wk =   0.0061728
        k(  101) = (   0.2777778   0.8018754   0.0000000), wk =   0.0061728
        k(  102) = (   0.2777778   0.8660254   0.0000000), wk =   0.0061728
        k(  103) = (   0.2777778   0.9301754   0.0000000), wk =   0.0061728
        k(  104) = (   0.2777778   0.9943255   0.0000000), wk =   0.0061728
        k(  105) = (   0.2777778   1.0584755   0.0000000), wk =   0.0061728
        k(  106) = (   0.2777778   1.1226255   0.0000000), wk =   0.0061728
        k(  107) = (   0.2777778   1.1867756   0.0000000), wk =   0.0061728
        k(  108) = (   0.2777778   1.2509256   0.0000000), wk =   0.0061728
        k(  109) = (   0.3333333   0.1924501   0.0000000), wk =   0.0061728
        k(  110) = (   0.3333333   0.2566001   0.0000000), wk =   0.0061728
        k(  111) = (   0.3333333   0.3207501   0.0000000), wk =   0.0061728
        k(  112) = (   0.3333333   0.3849002   0.0000000), wk =   0.0061728
        k(  113) = (   0.3333333   0.4490502   0.0000000), wk =   0.0061728
        k(  114) = (   0.3333333   0.5132002   0.0000000), wk =   0.0061728
        k(  115) = (   0.3333333   0.5773503   0.0000000), wk =   0.0061728
        k(  116) = (   0.3333333   0.6415003   0.0000000), wk =   0.0061728
        k(  117) = (   0.3333333   0.7056503   0.0000000), wk =   0.0061728
        k(  118) = (   0.3333333   0.7698004   0.0000000), wk =   0.0061728
        k(  119) = (   0.3333333   0.8339504   0.0000000), wk =   0.0061728
        k(  120) = (   0.3333333   0.8981004   0.0000000), wk =   0.0061728
        k(  121) = (   0.3333333   0.9622504   0.0000000), wk =   0.0061728
        k(  122) = (   0.3333333   1.0264005   0.0000000), wk =   0.0061728
        k(  123) = (   0.3333333   1.0905505   0.0000000), wk =   0.0061728
        k(  124) = (   0.3333333   1.1547005   0.0000000), wk =   0.0061728
        k(  125) = (   0.3333333   1.2188506   0.0000000), wk =   0.0061728
        k(  126) = (   0.3333333   1.2830006   0.0000000), wk =   0.0061728
        k(  127) = (   0.3888889   0.2245251   0.0000000), wk =   0.0061728
        k(  128) = (   0.3888889   0.2886751   0.0000000), wk =   0.0061728
        k(  129) = (   0.3888889   0.3528252   0.0000000), wk =   0.0061728
        k(  130) = (   0.3888889   0.4169752   0.0000000), wk =   0.0061728
        k(  131) = (   0.3888889   0.4811252   0.0000000), wk =   0.0061728
        k(  132) = (   0.3888889   0.5452753   0.0000000), wk =   0.0061728
        k(  133) = (   0.3888889   0.6094253   0.0000000), wk =   0.0061728
        k(  134) = (   0.3888889   0.6735753   0.0000000), wk =   0.0061728
        k(  135) = (   0.3888889   0.7377253   0.0000000), wk =   0.0061728
        k(  136) = (   0.3888889   0.8018754   0.0000000), wk =   0.0061728
        k(  137) = (   0.3888889   0.8660254   0.0000000), wk =   0.0061728
        k(  138) = (   0.3888889   0.9301754   0.0000000), wk =   0.0061728
        k(  139) = (   0.3888889   0.9943255   0.0000000), wk =   0.0061728
        k(  140) = (   0.3888889   1.0584755   0.0000000), wk =   0.0061728
        k(  141) = (   0.3888889   1.1226255   0.0000000), wk =   0.0061728
        k(  142) = (   0.3888889   1.1867756   0.0000000), wk =   0.0061728
        k(  143) = (   0.3888889   1.2509256   0.0000000), wk =   0.0061728
        k(  144) = (   0.3888889   1.3150756   0.0000000), wk =   0.0061728
        k(  145) = (   0.4444444   0.2566001   0.0000000), wk =   0.0061728
        k(  146) = (   0.4444444   0.3207501   0.0000000), wk =   0.0061728
        k(  147) = (   0.4444444   0.3849002   0.0000000), wk =   0.0061728
        k(  148) = (   0.4444444   0.4490502   0.0000000), wk =   0.0061728
        k(  149) = (   0.4444444   0.5132002   0.0000000), wk =   0.0061728
        k(  150) = (   0.4444444   0.5773503   0.0000000), wk =   0.0061728
        k(  151) = (   0.4444444   0.6415003   0.0000000), wk =   0.0061728
        k(  152) = (   0.4444444   0.7056503   0.0000000), wk =   0.0061728
        k(  153) = (   0.4444444   0.7698004   0.0000000), wk =   0.0061728
        k(  154) = (   0.4444444   0.8339504   0.0000000), wk =   0.0061728
        k(  155) = (   0.4444444   0.8981004   0.0000000), wk =   0.0061728
        k(  156) = (   0.4444444   0.9622504   0.0000000), wk =   0.0061728
        k(  157) = (   0.4444444   1.0264005   0.0000000), wk =   0.0061728
        k(  158) = (   0.4444444   1.0905505   0.0000000), wk =   0.0061728
        k(  159) = (   0.4444444   1.1547005   0.0000000), wk =   0.0061728
        k(  160) = (   0.4444444   1.2188506   0.0000000), wk =   0.0061728
        k(  161) = (   0.4444444   1.2830006   0.0000000), wk =   0.0061728
        k(  162) = (   0.4444444   1.3471506   0.0000000), wk =   0.0061728
        k(  163) = (   0.5000000   0.2886751   0.0000000), wk =   0.0061728
        k(  164) = (   0.5000000   0.3528252   0.0000000), wk =   0.0061728
        k(  165) = (   0.5000000   0.4169752   0.0000000), wk =   0.0061728
        k(  166) = (   0.5000000   0.4811252   0.0000000), wk =   0.0061728
        k(  167) = (   0.5000000   0.5452753   0.0000000), wk =   0.0061728
        k(  168) = (   0.5000000   0.6094253   0.0000000), wk =   0.0061728
        k(  169) = (   0.5000000   0.6735753   0.0000000), wk =   0.0061728
        k(  170) = (   0.5000000   0.7377253   0.0000000), wk =   0.0061728
        k(  171) = (   0.5000000   0.8018754   0.0000000), wk =   0.0061728
        k(  172) = (   0.5000000   0.8660254   0.0000000), wk =   0.0061728
        k(  173) = (   0.5000000   0.9301754   0.0000000), wk =   0.0061728
        k(  174) = (   0.5000000   0.9943255   0.0000000), wk =   0.0061728
        k(  175) = (   0.5000000   1.0584755   0.0000000), wk =   0.0061728
        k(  176) = (   0.5000000   1.1226255   0.0000000), wk =   0.0061728
        k(  177) = (   0.5000000   1.1867756   0.0000000), wk =   0.0061728
        k(  178) = (   0.5000000   1.2509256   0.0000000), wk =   0.0061728
        k(  179) = (   0.5000000   1.3150756   0.0000000), wk =   0.0061728
        k(  180) = (   0.5000000   1.3792256   0.0000000), wk =   0.0061728
        k(  181) = (   0.5555556   0.3207501   0.0000000), wk =   0.0061728
        k(  182) = (   0.5555556   0.3849002   0.0000000), wk =   0.0061728
        k(  183) = (   0.5555556   0.4490502   0.0000000), wk =   0.0061728
        k(  184) = (   0.5555556   0.5132002   0.0000000), wk =   0.0061728
        k(  185) = (   0.5555556   0.5773503   0.0000000), wk =   0.0061728
        k(  186) = (   0.5555556   0.6415003   0.0000000), wk =   0.0061728
        k(  187) = (   0.5555556   0.7056503   0.0000000), wk =   0.0061728
        k(  188) = (   0.5555556   0.7698004   0.0000000), wk =   0.0061728
        k(  189) = (   0.5555556   0.8339504   0.0000000), wk =   0.0061728
        k(  190) = (   0.5555556   0.8981004   0.0000000), wk =   0.0061728
        k(  191) = (   0.5555556   0.9622504   0.0000000), wk =   0.0061728
        k(  192) = (   0.5555556   1.0264005   0.0000000), wk =   0.0061728
        k(  193) = (   0.5555556   1.0905505   0.0000000), wk =   0.0061728
        k(  194) = (   0.5555556   1.1547005   0.0000000), wk =   0.0061728
        k(  195) = (   0.5555556   1.2188506   0.0000000), wk =   0.0061728
        k(  196) = (   0.5555556   1.2830006   0.0000000), wk =   0.0061728
        k(  197) = (   0.5555556   1.3471506   0.0000000), wk =   0.0061728
        k(  198) = (   0.5555556   1.4113007   0.0000000), wk =   0.0061728
        k(  199) = (   0.6111111   0.3528252   0.0000000), wk =   0.0061728
        k(  200) = (   0.6111111   0.4169752   0.0000000), wk =   0.0061728
        k(  201) = (   0.6111111   0.4811252   0.0000000), wk =   0.0061728
        k(  202) = (   0.6111111   0.5452753   0.0000000), wk =   0.0061728
        k(  203) = (   0.6111111   0.6094253   0.0000000), wk =   0.0061728
        k(  204) = (   0.6111111   0.6735753   0.0000000), wk =   0.0061728
        k(  205) = (   0.6111111   0.7377253   0.0000000), wk =   0.0061728
        k(  206) = (   0.6111111   0.8018754   0.0000000), wk =   0.0061728
        k(  207) = (   0.6111111   0.8660254   0.0000000), wk =   0.0061728
        k(  208) = (   0.6111111   0.9301754   0.0000000), wk =   0.0061728
        k(  209) = (   0.6111111   0.9943255   0.0000000), wk =   0.0061728
        k(  210) = (   0.6111111   1.0584755   0.0000000), wk =   0.0061728
        k(  211) = (   0.6111111   1.1226255   0.0000000), wk =   0.0061728
        k(  212) = (   0.6111111   1.1867756   0.0000000), wk =   0.0061728
        k(  213) = (   0.6111111   1.2509256   0.0000000), wk =   0.0061728
        k(  214) = (   0.6111111   1.3150756   0.0000000), wk =   0.0061728
        k(  215) = (   0.6111111   1.3792256   0.0000000), wk =   0.0061728
        k(  216) = (   0.6111111   1.4433757   0.0000000), wk =   0.0061728
        k(  217) = (   0.6666667   0.3849002   0.0000000), wk =   0.0061728
        k(  218) = (   0.6666667   0.4490502   0.0000000), wk =   0.0061728
        k(  219) = (   0.6666667   0.5132002   0.0000000), wk =   0.0061728
        k(  220) = (   0.6666667   0.5773503   0.0000000), wk =   0.0061728
        k(  221) = (   0.6666667   0.6415003   0.0000000), wk =   0.0061728
        k(  222) = (   0.6666667   0.7056503   0.0000000), wk =   0.0061728
        k(  223) = (   0.6666667   0.7698004   0.0000000), wk =   0.0061728
        k(  224) = (   0.6666667   0.8339504   0.0000000), wk =   0.0061728
        k(  225) = (   0.6666667   0.8981004   0.0000000), wk =   0.0061728
        k(  226) = (   0.6666667   0.9622504   0.0000000), wk =   0.0061728
        k(  227) = (   0.6666667   1.0264005   0.0000000), wk =   0.0061728
        k(  228) = (   0.6666667   1.0905505   0.0000000), wk =   0.0061728
        k(  229) = (   0.6666667   1.1547005   0.0000000), wk =   0.0061728
        k(  230) = (   0.6666667   1.2188506   0.0000000), wk =   0.0061728
        k(  231) = (   0.6666667   1.2830006   0.0000000), wk =   0.0061728
        k(  232) = (   0.6666667   1.3471506   0.0000000), wk =   0.0061728
        k(  233) = (   0.6666667   1.4113007   0.0000000), wk =   0.0061728
        k(  234) = (   0.6666667   1.4754507   0.0000000), wk =   0.0061728
        k(  235) = (   0.7222222   0.4169752   0.0000000), wk =   0.0061728
        k(  236) = (   0.7222222   0.4811252   0.0000000), wk =   0.0061728
        k(  237) = (   0.7222222   0.5452753   0.0000000), wk =   0.0061728
        k(  238) = (   0.7222222   0.6094253   0.0000000), wk =   0.0061728
        k(  239) = (   0.7222222   0.6735753   0.0000000), wk =   0.0061728
        k(  240) = (   0.7222222   0.7377253   0.0000000), wk =   0.0061728
        k(  241) = (   0.7222222   0.8018754   0.0000000), wk =   0.0061728
        k(  242) = (   0.7222222   0.8660254   0.0000000), wk =   0.0061728
        k(  243) = (   0.7222222   0.9301754   0.0000000), wk =   0.0061728
        k(  244) = (   0.7222222   0.9943255   0.0000000), wk =   0.0061728
        k(  245) = (   0.7222222   1.0584755   0.0000000), wk =   0.0061728
        k(  246) = (   0.7222222   1.1226255   0.0000000), wk =   0.0061728
        k(  247) = (   0.7222222   1.1867756   0.0000000), wk =   0.0061728
        k(  248) = (   0.7222222   1.2509256   0.0000000), wk =   0.0061728
        k(  249) = (   0.7222222   1.3150756   0.0000000), wk =   0.0061728
        k(  250) = (   0.7222222   1.3792256   0.0000000), wk =   0.0061728
        k(  251) = (   0.7222222   1.4433757   0.0000000), wk =   0.0061728
        k(  252) = (   0.7222222   1.5075257   0.0000000), wk =   0.0061728
        k(  253) = (   0.7777778   0.4490502   0.0000000), wk =   0.0061728
        k(  254) = (   0.7777778   0.5132002   0.0000000), wk =   0.0061728
        k(  255) = (   0.7777778   0.5773503   0.0000000), wk =   0.0061728
        k(  256) = (   0.7777778   0.6415003   0.0000000), wk =   0.0061728
        k(  257) = (   0.7777778   0.7056503   0.0000000), wk =   0.0061728
        k(  258) = (   0.7777778   0.7698004   0.0000000), wk =   0.0061728
        k(  259) = (   0.7777778   0.8339504   0.0000000), wk =   0.0061728
        k(  260) = (   0.7777778   0.8981004   0.0000000), wk =   0.0061728
        k(  261) = (   0.7777778   0.9622504   0.0000000), wk =   0.0061728
        k(  262) = (   0.7777778   1.0264005   0.0000000), wk =   0.0061728
        k(  263) = (   0.7777778   1.0905505   0.0000000), wk =   0.0061728
        k(  264) = (   0.7777778   1.1547005   0.0000000), wk =   0.0061728
        k(  265) = (   0.7777778   1.2188506   0.0000000), wk =   0.0061728
        k(  266) = (   0.7777778   1.2830006   0.0000000), wk =   0.0061728
        k(  267) = (   0.7777778   1.3471506   0.0000000), wk =   0.0061728
        k(  268) = (   0.7777778   1.4113007   0.0000000), wk =   0.0061728
        k(  269) = (   0.7777778   1.4754507   0.0000000), wk =   0.0061728
        k(  270) = (   0.7777778   1.5396007   0.0000000), wk =   0.0061728
        k(  271) = (   0.8333333   0.4811252   0.0000000), wk =   0.0061728
        k(  272) = (   0.8333333   0.5452753   0.0000000), wk =   0.0061728
        k(  273) = (   0.8333333   0.6094253   0.0000000), wk =   0.0061728
        k(  274) = (   0.8333333   0.6735753   0.0000000), wk =   0.0061728
        k(  275) = (   0.8333333   0.7377253   0.0000000), wk =   0.0061728
        k(  276) = (   0.8333333   0.8018754   0.0000000), wk =   0.0061728
        k(  277) = (   0.8333333   0.8660254   0.0000000), wk =   0.0061728
        k(  278) = (   0.8333333   0.9301754   0.0000000), wk =   0.0061728
        k(  279) = (   0.8333333   0.9943255   0.0000000), wk =   0.0061728
        k(  280) = (   0.8333333   1.0584755   0.0000000), wk =   0.0061728
        k(  281) = (   0.8333333   1.1226255   0.0000000), wk =   0.0061728
        k(  282) = (   0.8333333   1.1867756   0.0000000), wk =   0.0061728
        k(  283) = (   0.8333333   1.2509256   0.0000000), wk =   0.0061728
        k(  284) = (   0.8333333   1.3150756   0.0000000), wk =   0.0061728
        k(  285) = (   0.8333333   1.3792256   0.0000000), wk =   0.0061728
        k(  286) = (   0.8333333   1.4433757   0.0000000), wk =   0.0061728
        k(  287) = (   0.8333333   1.5075257   0.0000000), wk =   0.0061728
        k(  288) = (   0.8333333   1.5716757   0.0000000), wk =   0.0061728
        k(  289) = (   0.8888889   0.5132002   0.0000000), wk =   0.0061728
        k(  290) = (   0.8888889   0.5773503   0.0000000), wk =   0.0061728
        k(  291) = (   0.8888889   0.6415003   0.0000000), wk =   0.0061728
        k(  292) = (   0.8888889   0.7056503   0.0000000), wk =   0.0061728
        k(  293) = (   0.8888889   0.7698004   0.0000000), wk =   0.0061728
        k(  294) = (   0.8888889   0.8339504   0.0000000), wk =   0.0061728
        k(  295) = (   0.8888889   0.8981004   0.0000000), wk =   0.0061728
        k(  296) = (   0.8888889   0.9622504   0.0000000), wk =   0.0061728
        k(  297) = (   0.8888889   1.0264005   0.0000000), wk =   0.0061728
        k(  298) = (   0.8888889   1.0905505   0.0000000), wk =   0.0061728
        k(  299) = (   0.8888889   1.1547005   0.0000000), wk =   0.0061728
        k(  300) = (   0.8888889   1.2188506   0.0000000), wk =   0.0061728
        k(  301) = (   0.8888889   1.2830006   0.0000000), wk =   0.0061728
        k(  302) = (   0.8888889   1.3471506   0.0000000), wk =   0.0061728
        k(  303) = (   0.8888889   1.4113007   0.0000000), wk =   0.0061728
        k(  304) = (   0.8888889   1.4754507   0.0000000), wk =   0.0061728
        k(  305) = (   0.8888889   1.5396007   0.0000000), wk =   0.0061728
        k(  306) = (   0.8888889   1.6037507   0.0000000), wk =   0.0061728
        k(  307) = (   0.9444444   0.5452753   0.0000000), wk =   0.0061728
        k(  308) = (   0.9444444   0.6094253   0.0000000), wk =   0.0061728
        k(  309) = (   0.9444444   0.6735753   0.0000000), wk =   0.0061728
        k(  310) = (   0.9444444   0.7377253   0.0000000), wk =   0.0061728
        k(  311) = (   0.9444444   0.8018754   0.0000000), wk =   0.0061728
        k(  312) = (   0.9444444   0.8660254   0.0000000), wk =   0.0061728
        k(  313) = (   0.9444444   0.9301754   0.0000000), wk =   0.0061728
        k(  314) = (   0.9444444   0.9943255   0.0000000), wk =   0.0061728
        k(  315) = (   0.9444444   1.0584755   0.0000000), wk =   0.0061728
        k(  316) = (   0.9444444   1.1226255   0.0000000), wk =   0.0061728
        k(  317) = (   0.9444444   1.1867756   0.0000000), wk =   0.0061728
        k(  318) = (   0.9444444   1.2509256   0.0000000), wk =   0.0061728
        k(  319) = (   0.9444444   1.3150756   0.0000000), wk =   0.0061728
        k(  320) = (   0.9444444   1.3792256   0.0000000), wk =   0.0061728
        k(  321) = (   0.9444444   1.4433757   0.0000000), wk =   0.0061728
        k(  322) = (   0.9444444   1.5075257   0.0000000), wk =   0.0061728
        k(  323) = (   0.9444444   1.5716757   0.0000000), wk =   0.0061728
        k(  324) = (   0.9444444   1.6358258   0.0000000), wk =   0.0061728

                       cryst. coord.
        k(    1) = (   0.0000000   0.0000000   0.0000000), wk =   0.0061728
        k(    2) = (   0.0000000   0.0555556   0.0000000), wk =   0.0061728
        k(    3) = (   0.0000000   0.1111111   0.0000000), wk =   0.0061728
        k(    4) = (   0.0000000   0.1666667   0.0000000), wk =   0.0061728
        k(    5) = (   0.0000000   0.2222222   0.0000000), wk =   0.0061728
        k(    6) = (   0.0000000   0.2777778   0.0000000), wk =   0.0061728
        k(    7) = (   0.0000000   0.3333333   0.0000000), wk =   0.0061728
        k(    8) = (   0.0000000   0.3888889   0.0000000), wk =   0.0061728
        k(    9) = (   0.0000000   0.4444444   0.0000000), wk =   0.0061728
        k(   10) = (   0.0000000   0.5000000   0.0000000), wk =   0.0061728
        k(   11) = (   0.0000000   0.5555556   0.0000000), wk =   0.0061728
        k(   12) = (   0.0000000   0.6111111   0.0000000), wk =   0.0061728
        k(   13) = (   0.0000000   0.6666667   0.0000000), wk =   0.0061728
        k(   14) = (   0.0000000   0.7222222   0.0000000), wk =   0.0061728
        k(   15) = (   0.0000000   0.7777778   0.0000000), wk =   0.0061728
        k(   16) = (   0.0000000   0.8333333   0.0000000), wk =   0.0061728
        k(   17) = (   0.0000000   0.8888889   0.0000000), wk =   0.0061728
        k(   18) = (   0.0000000   0.9444444   0.0000000), wk =   0.0061728
        k(   19) = (   0.0555556   0.0000000   0.0000000), wk =   0.0061728
        k(   20) = (   0.0555556   0.0555556   0.0000000), wk =   0.0061728
        k(   21) = (   0.0555556   0.1111111   0.0000000), wk =   0.0061728
        k(   22) = (   0.0555556   0.1666667   0.0000000), wk =   0.0061728
        k(   23) = (   0.0555556   0.2222222   0.0000000), wk =   0.0061728
        k(   24) = (   0.0555556   0.2777778   0.0000000), wk =   0.0061728
        k(   25) = (   0.0555556   0.3333333   0.0000000), wk =   0.0061728
        k(   26) = (   0.0555556   0.3888889   0.0000000), wk =   0.0061728
        k(   27) = (   0.0555556   0.4444444   0.0000000), wk =   0.0061728
        k(   28) = (   0.0555556   0.5000000   0.0000000), wk =   0.0061728
        k(   29) = (   0.0555556   0.5555556   0.0000000), wk =   0.0061728
        k(   30) = (   0.0555556   0.6111111   0.0000000), wk =   0.0061728
        k(   31) = (   0.0555556   0.6666667   0.0000000), wk =   0.0061728
        k(   32) = (   0.0555556   0.7222222   0.0000000), wk =   0.0061728
        k(   33) = (   0.0555556   0.7777778   0.0000000), wk =   0.0061728
        k(   34) = (   0.0555556   0.8333333   0.0000000), wk =   0.0061728
        k(   35) = (   0.0555556   0.8888889   0.0000000), wk =   0.0061728
        k(   36) = (   0.0555556   0.9444444   0.0000000), wk =   0.0061728
        k(   37) = (   0.1111111   0.0000000   0.0000000), wk =   0.0061728
        k(   38) = (   0.1111111   0.0555556   0.0000000), wk =   0.0061728
        k(   39) = (   0.1111111   0.1111111   0.0000000), wk =   0.0061728
        k(   40) = (   0.1111111   0.1666667   0.0000000), wk =   0.0061728
        k(   41) = (   0.1111111   0.2222222   0.0000000), wk =   0.0061728
        k(   42) = (   0.1111111   0.2777778   0.0000000), wk =   0.0061728
        k(   43) = (   0.1111111   0.3333333   0.0000000), wk =   0.0061728
        k(   44) = (   0.1111111   0.3888889   0.0000000), wk =   0.0061728
        k(   45) = (   0.1111111   0.4444444   0.0000000), wk =   0.0061728
        k(   46) = (   0.1111111   0.5000000   0.0000000), wk =   0.0061728
        k(   47) = (   0.1111111   0.5555556   0.0000000), wk =   0.0061728
        k(   48) = (   0.1111111   0.6111111   0.0000000), wk =   0.0061728
        k(   49) = (   0.1111111   0.6666667   0.0000000), wk =   0.0061728
        k(   50) = (   0.1111111   0.7222222   0.0000000), wk =   0.0061728
        k(   51) = (   0.1111111   0.7777778   0.0000000), wk =   0.0061728
        k(   52) = (   0.1111111   0.8333333   0.0000000), wk =   0.0061728
        k(   53) = (   0.1111111   0.8888889   0.0000000), wk =   0.0061728
        k(   54) = (   0.1111111   0.9444444   0.0000000), wk =   0.0061728
        k(   55) = (   0.1666667   0.0000000   0.0000000), wk =   0.0061728
        k(   56) = (   0.1666667   0.0555556   0.0000000), wk =   0.0061728
        k(   57) = (   0.1666667   0.1111111   0.0000000), wk =   0.0061728
        k(   58) = (   0.1666667   0.1666667   0.0000000), wk =   0.0061728
        k(   59) = (   0.1666667   0.2222222   0.0000000), wk =   0.0061728
        k(   60) = (   0.1666667   0.2777778   0.0000000), wk =   0.0061728
        k(   61) = (   0.1666667   0.3333333   0.0000000), wk =   0.0061728
        k(   62) = (   0.1666667   0.3888889   0.0000000), wk =   0.0061728
        k(   63) = (   0.1666667   0.4444444   0.0000000), wk =   0.0061728
        k(   64) = (   0.1666667   0.5000000   0.0000000), wk =   0.0061728
        k(   65) = (   0.1666667   0.5555556   0.0000000), wk =   0.0061728
        k(   66) = (   0.1666667   0.6111111   0.0000000), wk =   0.0061728
        k(   67) = (   0.1666667   0.6666667   0.0000000), wk =   0.0061728
        k(   68) = (   0.1666667   0.7222222   0.0000000), wk =   0.0061728
        k(   69) = (   0.1666667   0.7777778   0.0000000), wk =   0.0061728
        k(   70) = (   0.1666667   0.8333333   0.0000000), wk =   0.0061728
        k(   71) = (   0.1666667   0.8888889   0.0000000), wk =   0.0061728
        k(   72) = (   0.1666667   0.9444444   0.0000000), wk =   0.0061728
        k(   73) = (   0.2222222   0.0000000   0.0000000), wk =   0.0061728
        k(   74) = (   0.2222222   0.0555556   0.0000000), wk =   0.0061728
        k(   75) = (   0.2222222   0.1111111   0.0000000), wk =   0.0061728
        k(   76) = (   0.2222222   0.1666667   0.0000000), wk =   0.0061728
        k(   77) = (   0.2222222   0.2222222   0.0000000), wk =   0.0061728
        k(   78) = (   0.2222222   0.2777778   0.0000000), wk =   0.0061728
        k(   79) = (   0.2222222   0.3333333   0.0000000), wk =   0.0061728
        k(   80) = (   0.2222222   0.3888889   0.0000000), wk =   0.0061728
        k(   81) = (   0.2222222   0.4444444   0.0000000), wk =   0.0061728
        k(   82) = (   0.2222222   0.5000000   0.0000000), wk =   0.0061728
        k(   83) = (   0.2222222   0.5555556   0.0000000), wk =   0.0061728
        k(   84) = (   0.2222222   0.6111111   0.0000000), wk =   0.0061728
        k(   85) = (   0.2222222   0.6666667   0.0000000), wk =   0.0061728
        k(   86) = (   0.2222222   0.7222222   0.0000000), wk =   0.0061728
        k(   87) = (   0.2222222   0.7777778   0.0000000), wk =   0.0061728
        k(   88) = (   0.2222222   0.8333333   0.0000000), wk =   0.0061728
        k(   89) = (   0.2222222   0.8888889   0.0000000), wk =   0.0061728
        k(   90) = (   0.2222222   0.9444444   0.0000000), wk =   0.0061728
        k(   91) = (   0.2777778   0.0000000   0.0000000), wk =   0.0061728
        k(   92) = (   0.2777778   0.0555556   0.0000000), wk =   0.0061728
        k(   93) = (   0.2777778   0.1111111   0.0000000), wk =   0.0061728
        k(   94) = (   0.2777778   0.1666667   0.0000000), wk =   0.0061728
        k(   95) = (   0.2777778   0.2222222   0.0000000), wk =   0.0061728
        k(   96) = (   0.2777778   0.2777778   0.0000000), wk =   0.0061728
        k(   97) = (   0.2777778   0.3333333   0.0000000), wk =   0.0061728
        k(   98) = (   0.2777778   0.3888889   0.0000000), wk =   0.0061728
        k(   99) = (   0.2777778   0.4444444   0.0000000), wk =   0.0061728
        k(  100) = (   0.2777778   0.5000000   0.0000000), wk =   0.0061728
        k(  101) = (   0.2777778   0.5555556   0.0000000), wk =   0.0061728
        k(  102) = (   0.2777778   0.6111111   0.0000000), wk =   0.0061728
        k(  103) = (   0.2777778   0.6666667   0.0000000), wk =   0.0061728
        k(  104) = (   0.2777778   0.7222222   0.0000000), wk =   0.0061728
        k(  105) = (   0.2777778   0.7777778   0.0000000), wk =   0.0061728
        k(  106) = (   0.2777778   0.8333333   0.0000000), wk =   0.0061728
        k(  107) = (   0.2777778   0.8888889   0.0000000), wk =   0.0061728
        k(  108) = (   0.2777778   0.9444444   0.0000000), wk =   0.0061728
        k(  109) = (   0.3333333   0.0000000   0.0000000), wk =   0.0061728
        k(  110) = (   0.3333333   0.0555556   0.0000000), wk =   0.0061728
        k(  111) = (   0.3333333   0.1111111   0.0000000), wk =   0.0061728
        k(  112) = (   0.3333333   0.1666667   0.0000000), wk =   0.0061728
        k(  113) = (   0.3333333   0.2222222   0.0000000), wk =   0.0061728
        k(  114) = (   0.3333333   0.2777778   0.0000000), wk =   0.0061728
        k(  115) = (   0.3333333   0.3333333   0.0000000), wk =   0.0061728
        k(  116) = (   0.3333333   0.3888889   0.0000000), wk =   0.0061728
        k(  117) = (   0.3333333   0.4444444   0.0000000), wk =   0.0061728
        k(  118) = (   0.3333333   0.5000000   0.0000000), wk =   0.0061728
        k(  119) = (   0.3333333   0.5555556   0.0000000), wk =   0.0061728
        k(  120) = (   0.3333333   0.6111111   0.0000000), wk =   0.0061728
        k(  121) = (   0.3333333   0.6666667   0.0000000), wk =   0.0061728
        k(  122) = (   0.3333333   0.7222222   0.0000000), wk =   0.0061728
        k(  123) = (   0.3333333   0.7777778   0.0000000), wk =   0.0061728
        k(  124) = (   0.3333333   0.8333333   0.0000000), wk =   0.0061728
        k(  125) = (   0.3333333   0.8888889   0.0000000), wk =   0.0061728
        k(  126) = (   0.3333333   0.9444444   0.0000000), wk =   0.0061728
        k(  127) = (   0.3888889   0.0000000   0.0000000), wk =   0.0061728
        k(  128) = (   0.3888889   0.0555556   0.0000000), wk =   0.0061728
        k(  129) = (   0.3888889   0.1111111   0.0000000), wk =   0.0061728
        k(  130) = (   0.3888889   0.1666667   0.0000000), wk =   0.0061728
        k(  131) = (   0.3888889   0.2222222   0.0000000), wk =   0.0061728
        k(  132) = (   0.3888889   0.2777778   0.0000000), wk =   0.0061728
        k(  133) = (   0.3888889   0.3333333   0.0000000), wk =   0.0061728
        k(  134) = (   0.3888889   0.3888889   0.0000000), wk =   0.0061728
        k(  135) = (   0.3888889   0.4444444   0.0000000), wk =   0.0061728
        k(  136) = (   0.3888889   0.5000000   0.0000000), wk =   0.0061728
        k(  137) = (   0.3888889   0.5555556   0.0000000), wk =   0.0061728
        k(  138) = (   0.3888889   0.6111111   0.0000000), wk =   0.0061728
        k(  139) = (   0.3888889   0.6666667   0.0000000), wk =   0.0061728
        k(  140) = (   0.3888889   0.7222222   0.0000000), wk =   0.0061728
        k(  141) = (   0.3888889   0.7777778   0.0000000), wk =   0.0061728
        k(  142) = (   0.3888889   0.8333333   0.0000000), wk =   0.0061728
        k(  143) = (   0.3888889   0.8888889   0.0000000), wk =   0.0061728
        k(  144) = (   0.3888889   0.9444444   0.0000000), wk =   0.0061728
        k(  145) = (   0.4444444   0.0000000   0.0000000), wk =   0.0061728
        k(  146) = (   0.4444444   0.0555556   0.0000000), wk =   0.0061728
        k(  147) = (   0.4444444   0.1111111   0.0000000), wk =   0.0061728
        k(  148) = (   0.4444444   0.1666667   0.0000000), wk =   0.0061728
        k(  149) = (   0.4444444   0.2222222   0.0000000), wk =   0.0061728
        k(  150) = (   0.4444444   0.2777778   0.0000000), wk =   0.0061728
        k(  151) = (   0.4444444   0.3333333   0.0000000), wk =   0.0061728
        k(  152) = (   0.4444444   0.3888889   0.0000000), wk =   0.0061728
        k(  153) = (   0.4444444   0.4444444   0.0000000), wk =   0.0061728
        k(  154) = (   0.4444444   0.5000000   0.0000000), wk =   0.0061728
        k(  155) = (   0.4444444   0.5555556   0.0000000), wk =   0.0061728
        k(  156) = (   0.4444444   0.6111111   0.0000000), wk =   0.0061728
        k(  157) = (   0.4444444   0.6666667   0.0000000), wk =   0.0061728
        k(  158) = (   0.4444444   0.7222222   0.0000000), wk =   0.0061728
        k(  159) = (   0.4444444   0.7777778   0.0000000), wk =   0.0061728
        k(  160) = (   0.4444444   0.8333333   0.0000000), wk =   0.0061728
        k(  161) = (   0.4444444   0.8888889   0.0000000), wk =   0.0061728
        k(  162) = (   0.4444444   0.9444444   0.0000000), wk =   0.0061728
        k(  163) = (   0.5000000   0.0000000   0.0000000), wk =   0.0061728
        k(  164) = (   0.5000000   0.0555556   0.0000000), wk =   0.0061728
        k(  165) = (   0.5000000   0.1111111   0.0000000), wk =   0.0061728
        k(  166) = (   0.5000000   0.1666667   0.0000000), wk =   0.0061728
        k(  167) = (   0.5000000   0.2222222   0.0000000), wk =   0.0061728
        k(  168) = (   0.5000000   0.2777778   0.0000000), wk =   0.0061728
        k(  169) = (   0.5000000   0.3333333   0.0000000), wk =   0.0061728
        k(  170) = (   0.5000000   0.3888889   0.0000000), wk =   0.0061728
        k(  171) = (   0.5000000   0.4444444   0.0000000), wk =   0.0061728
        k(  172) = (   0.5000000   0.5000000   0.0000000), wk =   0.0061728
        k(  173) = (   0.5000000   0.5555556   0.0000000), wk =   0.0061728
        k(  174) = (   0.5000000   0.6111111   0.0000000), wk =   0.0061728
        k(  175) = (   0.5000000   0.6666667   0.0000000), wk =   0.0061728
        k(  176) = (   0.5000000   0.7222222   0.0000000), wk =   0.0061728
        k(  177) = (   0.5000000   0.7777778   0.0000000), wk =   0.0061728
        k(  178) = (   0.5000000   0.8333333   0.0000000), wk =   0.0061728
        k(  179) = (   0.5000000   0.8888889   0.0000000), wk =   0.0061728
        k(  180) = (   0.5000000   0.9444444   0.0000000), wk =   0.0061728
        k(  181) = (   0.5555556   0.0000000   0.0000000), wk =   0.0061728
        k(  182) = (   0.5555556   0.0555556   0.0000000), wk =   0.0061728
        k(  183) = (   0.5555556   0.1111111   0.0000000), wk =   0.0061728
        k(  184) = (   0.5555556   0.1666667   0.0000000), wk =   0.0061728
        k(  185) = (   0.5555556   0.2222222   0.0000000), wk =   0.0061728
        k(  186) = (   0.5555556   0.2777778   0.0000000), wk =   0.0061728
        k(  187) = (   0.5555556   0.3333333   0.0000000), wk =   0.0061728
        k(  188) = (   0.5555556   0.3888889   0.0000000), wk =   0.0061728
        k(  189) = (   0.5555556   0.4444444   0.0000000), wk =   0.0061728
        k(  190) = (   0.5555556   0.5000000   0.0000000), wk =   0.0061728
        k(  191) = (   0.5555556   0.5555556   0.0000000), wk =   0.0061728
        k(  192) = (   0.5555556   0.6111111   0.0000000), wk =   0.0061728
        k(  193) = (   0.5555556   0.6666667   0.0000000), wk =   0.0061728
        k(  194) = (   0.5555556   0.7222222   0.0000000), wk =   0.0061728
        k(  195) = (   0.5555556   0.7777778   0.0000000), wk =   0.0061728
        k(  196) = (   0.5555556   0.8333333   0.0000000), wk =   0.0061728
        k(  197) = (   0.5555556   0.8888889   0.0000000), wk =   0.0061728
        k(  198) = (   0.5555556   0.9444444   0.0000000), wk =   0.0061728
        k(  199) = (   0.6111111   0.0000000   0.0000000), wk =   0.0061728
        k(  200) = (   0.6111111   0.0555556   0.0000000), wk =   0.0061728
        k(  201) = (   0.6111111   0.1111111   0.0000000), wk =   0.0061728
        k(  202) = (   0.6111111   0.1666667   0.0000000), wk =   0.0061728
        k(  203) = (   0.6111111   0.2222222   0.0000000), wk =   0.0061728
        k(  204) = (   0.6111111   0.2777778   0.0000000), wk =   0.0061728
        k(  205) = (   0.6111111   0.3333333   0.0000000), wk =   0.0061728
        k(  206) = (   0.6111111   0.3888889   0.0000000), wk =   0.0061728
        k(  207) = (   0.6111111   0.4444444   0.0000000), wk =   0.0061728
        k(  208) = (   0.6111111   0.5000000   0.0000000), wk =   0.0061728
        k(  209) = (   0.6111111   0.5555556   0.0000000), wk =   0.0061728
        k(  210) = (   0.6111111   0.6111111   0.0000000), wk =   0.0061728
        k(  211) = (   0.6111111   0.6666667   0.0000000), wk =   0.0061728
        k(  212) = (   0.6111111   0.7222222   0.0000000), wk =   0.0061728
        k(  213) = (   0.6111111   0.7777778   0.0000000), wk =   0.0061728
        k(  214) = (   0.6111111   0.8333333   0.0000000), wk =   0.0061728
        k(  215) = (   0.6111111   0.8888889   0.0000000), wk =   0.0061728
        k(  216) = (   0.6111111   0.9444444   0.0000000), wk =   0.0061728
        k(  217) = (   0.6666667   0.0000000   0.0000000), wk =   0.0061728
        k(  218) = (   0.6666667   0.0555556   0.0000000), wk =   0.0061728
        k(  219) = (   0.6666667   0.1111111   0.0000000), wk =   0.0061728
        k(  220) = (   0.6666667   0.1666667   0.0000000), wk =   0.0061728
        k(  221) = (   0.6666667   0.2222222   0.0000000), wk =   0.0061728
        k(  222) = (   0.6666667   0.2777778   0.0000000), wk =   0.0061728
        k(  223) = (   0.6666667   0.3333333   0.0000000), wk =   0.0061728
        k(  224) = (   0.6666667   0.3888889   0.0000000), wk =   0.0061728
        k(  225) = (   0.6666667   0.4444444   0.0000000), wk =   0.0061728
        k(  226) = (   0.6666667   0.5000000   0.0000000), wk =   0.0061728
        k(  227) = (   0.6666667   0.5555556   0.0000000), wk =   0.0061728
        k(  228) = (   0.6666667   0.6111111   0.0000000), wk =   0.0061728
        k(  229) = (   0.6666667   0.6666667   0.0000000), wk =   0.0061728
        k(  230) = (   0.6666667   0.7222222   0.0000000), wk =   0.0061728
        k(  231) = (   0.6666667   0.7777778   0.0000000), wk =   0.0061728
        k(  232) = (   0.6666667   0.8333333   0.0000000), wk =   0.0061728
        k(  233) = (   0.6666667   0.8888889   0.0000000), wk =   0.0061728
        k(  234) = (   0.6666667   0.9444444   0.0000000), wk =   0.0061728
        k(  235) = (   0.7222222   0.0000000   0.0000000), wk =   0.0061728
        k(  236) = (   0.7222222   0.0555556   0.0000000), wk =   0.0061728
        k(  237) = (   0.7222222   0.1111111   0.0000000), wk =   0.0061728
        k(  238) = (   0.7222222   0.1666667   0.0000000), wk =   0.0061728
        k(  239) = (   0.7222222   0.2222222   0.0000000), wk =   0.0061728
        k(  240) = (   0.7222222   0.2777778   0.0000000), wk =   0.0061728
        k(  241) = (   0.7222222   0.3333333   0.0000000), wk =   0.0061728
        k(  242) = (   0.7222222   0.3888889   0.0000000), wk =   0.0061728
        k(  243) = (   0.7222222   0.4444444   0.0000000), wk =   0.0061728
        k(  244) = (   0.7222222   0.5000000   0.0000000), wk =   0.0061728
        k(  245) = (   0.7222222   0.5555556   0.0000000), wk =   0.0061728
        k(  246) = (   0.7222222   0.6111111   0.0000000), wk =   0.0061728
        k(  247) = (   0.7222222   0.6666667   0.0000000), wk =   0.0061728
        k(  248) = (   0.7222222   0.7222222   0.0000000), wk =   0.0061728
        k(  249) = (   0.7222222   0.7777778   0.0000000), wk =   0.0061728
        k(  250) = (   0.7222222   0.8333333   0.0000000), wk =   0.0061728
        k(  251) = (   0.7222222   0.8888889   0.0000000), wk =   0.0061728
        k(  252) = (   0.7222222   0.9444444   0.0000000), wk =   0.0061728
        k(  253) = (   0.7777778   0.0000000   0.0000000), wk =   0.0061728
        k(  254) = (   0.7777778   0.0555556   0.0000000), wk =   0.0061728
        k(  255) = (   0.7777778   0.1111111   0.0000000), wk =   0.0061728
        k(  256) = (   0.7777778   0.1666667   0.0000000), wk =   0.0061728
        k(  257) = (   0.7777778   0.2222222   0.0000000), wk =   0.0061728
        k(  258) = (   0.7777778   0.2777778   0.0000000), wk =   0.0061728
        k(  259) = (   0.7777778   0.3333333   0.0000000), wk =   0.0061728
        k(  260) = (   0.7777778   0.3888889   0.0000000), wk =   0.0061728
        k(  261) = (   0.7777778   0.4444444   0.0000000), wk =   0.0061728
        k(  262) = (   0.7777778   0.5000000   0.0000000), wk =   0.0061728
        k(  263) = (   0.7777778   0.5555556   0.0000000), wk =   0.0061728
        k(  264) = (   0.7777778   0.6111111   0.0000000), wk =   0.0061728
        k(  265) = (   0.7777778   0.6666667   0.0000000), wk =   0.0061728
        k(  266) = (   0.7777778   0.7222222   0.0000000), wk =   0.0061728
        k(  267) = (   0.7777778   0.7777778   0.0000000), wk =   0.0061728
        k(  268) = (   0.7777778   0.8333333   0.0000000), wk =   0.0061728
        k(  269) = (   0.7777778   0.8888889   0.0000000), wk =   0.0061728
        k(  270) = (   0.7777778   0.9444444   0.0000000), wk =   0.0061728
        k(  271) = (   0.8333333   0.0000000   0.0000000), wk =   0.0061728
        k(  272) = (   0.8333333   0.0555556   0.0000000), wk =   0.0061728
        k(  273) = (   0.8333333   0.1111111   0.0000000), wk =   0.0061728
        k(  274) = (   0.8333333   0.1666667   0.0000000), wk =   0.0061728
        k(  275) = (   0.8333333   0.2222222   0.0000000), wk =   0.0061728
        k(  276) = (   0.8333333   0.2777778   0.0000000), wk =   0.0061728
        k(  277) = (   0.8333333   0.3333333   0.0000000), wk =   0.0061728
        k(  278) = (   0.8333333   0.3888889   0.0000000), wk =   0.0061728
        k(  279) = (   0.8333333   0.4444444   0.0000000), wk =   0.0061728
        k(  280) = (   0.8333333   0.5000000   0.0000000), wk =   0.0061728
        k(  281) = (   0.8333333   0.5555556   0.0000000), wk =   0.0061728
        k(  282) = (   0.8333333   0.6111111   0.0000000), wk =   0.0061728
        k(  283) = (   0.8333333   0.6666667   0.0000000), wk =   0.0061728
        k(  284) = (   0.8333333   0.7222222   0.0000000), wk =   0.0061728
        k(  285) = (   0.8333333   0.7777778   0.0000000), wk =   0.0061728
        k(  286) = (   0.8333333   0.8333333   0.0000000), wk =   0.0061728
        k(  287) = (   0.8333333   0.8888889   0.0000000), wk =   0.0061728
        k(  288) = (   0.8333333   0.9444444   0.0000000), wk =   0.0061728
        k(  289) = (   0.8888889   0.0000000   0.0000000), wk =   0.0061728
        k(  290) = (   0.8888889   0.0555556   0.0000000), wk =   0.0061728
        k(  291) = (   0.8888889   0.1111111   0.0000000), wk =   0.0061728
        k(  292) = (   0.8888889   0.1666667   0.0000000), wk =   0.0061728
        k(  293) = (   0.8888889   0.2222222   0.0000000), wk =   0.0061728
        k(  294) = (   0.8888889   0.2777778   0.0000000), wk =   0.0061728
        k(  295) = (   0.8888889   0.3333333   0.0000000), wk =   0.0061728
        k(  296) = (   0.8888889   0.3888889   0.0000000), wk =   0.0061728
        k(  297) = (   0.8888889   0.4444444   0.0000000), wk =   0.0061728
        k(  298) = (   0.8888889   0.5000000   0.0000000), wk =   0.0061728
        k(  299) = (   0.8888889   0.5555556   0.0000000), wk =   0.0061728
        k(  300) = (   0.8888889   0.6111111   0.0000000), wk =   0.0061728
        k(  301) = (   0.8888889   0.6666667   0.0000000), wk =   0.0061728
        k(  302) = (   0.8888889   0.7222222   0.0000000), wk =   0.0061728
        k(  303) = (   0.8888889   0.7777778   0.0000000), wk =   0.0061728
        k(  304) = (   0.8888889   0.8333333   0.0000000), wk =   0.0061728
        k(  305) = (   0.8888889   0.8888889   0.0000000), wk =   0.0061728
        k(  306) = (   0.8888889   0.9444444   0.0000000), wk =   0.0061728
        k(  307) = (   0.9444444   0.0000000   0.0000000), wk =   0.0061728
        k(  308) = (   0.9444444   0.0555556   0.0000000), wk =   0.0061728
        k(  309) = (   0.9444444   0.1111111   0.0000000), wk =   0.0061728
        k(  310) = (   0.9444444   0.1666667   0.0000000), wk =   0.0061728
        k(  311) = (   0.9444444   0.2222222   0.0000000), wk =   0.0061728
        k(  312) = (   0.9444444   0.2777778   0.0000000), wk =   0.0061728
        k(  313) = (   0.9444444   0.3333333   0.0000000), wk =   0.0061728
        k(  314) = (   0.9444444   0.3888889   0.0000000), wk =   0.0061728
        k(  315) = (   0.9444444   0.4444444   0.0000000), wk =   0.0061728
        k(  316) = (   0.9444444   0.5000000   0.0000000), wk =   0.0061728
        k(  317) = (   0.9444444   0.5555556   0.0000000), wk =   0.0061728
        k(  318) = (   0.9444444   0.6111111   0.0000000), wk =   0.0061728
        k(  319) = (   0.9444444   0.6666667   0.0000000), wk =   0.0061728
        k(  320) = (   0.9444444   0.7222222   0.0000000), wk =   0.0061728
        k(  321) = (   0.9444444   0.7777778   0.0000000), wk =   0.0061728
        k(  322) = (   0.9444444   0.8333333   0.0000000), wk =   0.0061728
        k(  323) = (   0.9444444   0.8888889   0.0000000), wk =   0.0061728
        k(  324) = (   0.9444444   0.9444444   0.0000000), wk =   0.0061728

     Dense  grid:    33427 G-vectors     FFT dimensions: (  24,  24, 144)

     Dynamical RAM for                 wfc:       0.11 MB

     Dynamical RAM for     wfc (w. buffer):      36.10 MB

     Dynamical RAM for           str. fact:       0.06 MB

     Dynamical RAM for           local pot:       0.00 MB

     Dynamical RAM for          nlocal pot:       0.13 MB

     Dynamical RAM for                qrad:       0.36 MB

     Dynamical RAM for          rho,v,vnew:       0.43 MB

     Dynamical RAM for           G-vectors:       0.27 MB

     Dynamical RAM for          h,s,v(r/c):       0.57 MB

     Dynamical RAM for          <psi|beta>:       0.00 MB

     Dynamical RAM for                 psi:       0.89 MB

     Dynamical RAM for                hpsi:       0.89 MB

     Dynamical RAM for      wfcinit/wfcrot:       0.23 MB

     Estimated static dynamical RAM per process >      37.87 MB

     Estimated max dynamical RAM per process >      40.23 MB

     Estimated total dynamical RAM >     321.81 MB

     The potential is recalculated from file :
     ./tmp/graphene.save/charge-density

     Starting wfcs are random

     Band Structure Calculation
     Davidson diagonalization with overlap

     Computing kpt #:     1  of   324
     total cpu time spent up to now is        0.5 secs

     Computing kpt #:     2  of   324
     total cpu time spent up to now is        0.6 secs

     Computing kpt #:     3  of   324
     total cpu time spent up to now is        0.6 secs

     Computing kpt #:     4  of   324
     total cpu time spent up to now is        0.7 secs

     Computing kpt #:     5  of   324
     total cpu time spent up to now is        0.8 secs

     Computing kpt #:     6  of   324
     total cpu time spent up to now is        0.9 secs

     Computing kpt #:     7  of   324
     total cpu time spent up to now is        1.0 secs

     Computing kpt #:     8  of   324
     total cpu time spent up to now is        1.0 secs

     Computing kpt #:     9  of   324
     total cpu time spent up to now is        1.1 secs

     Computing kpt #:    10  of   324
     total cpu time spent up to now is        1.2 secs

     Computing kpt #:    11  of   324
     total cpu time spent up to now is        1.3 secs

     Computing kpt #:    12  of   324
     total cpu time spent up to now is        1.4 secs

     Computing kpt #:    13  of   324
     total cpu time spent up to now is        1.4 secs

     Computing kpt #:    14  of   324
     total cpu time spent up to now is        1.5 secs

     Computing kpt #:    15  of   324
     total cpu time spent up to now is        1.6 secs

     Computing kpt #:    16  of   324
     total cpu time spent up to now is        1.7 secs

     Computing kpt #:    17  of   324
     total cpu time spent up to now is        1.7 secs

     Computing kpt #:    18  of   324
     total cpu time spent up to now is        1.8 secs

     Computing kpt #:    19  of   324
     total cpu time spent up to now is        1.9 secs

     Computing kpt #:    20  of   324
     total cpu time spent up to now is        1.9 secs

     Computing kpt #:    21  of   324
     total cpu time spent up to now is        2.0 secs

     Computing kpt #:    22  of   324
     total cpu time spent up to now is        2.1 secs

     Computing kpt #:    23  of   324
     total cpu time spent up to now is        2.2 secs

     Computing kpt #:    24  of   324
     total cpu time spent up to now is        2.2 secs

     Computing kpt #:    25  of   324
     total cpu time spent up to now is        2.3 secs

     Computing kpt #:    26  of   324
     total cpu time spent up to now is        2.4 secs

     Computing kpt #:    27  of   324
     total cpu time spent up to now is        2.4 secs

     Computing kpt #:    28  of   324
     total cpu time spent up to now is        2.5 secs

     Computing kpt #:    29  of   324
     total cpu time spent up to now is        2.6 secs

     Computing kpt #:    30  of   324
     total cpu time spent up to now is        2.7 secs

     Computing kpt #:    31  of   324
     total cpu time spent up to now is        2.7 secs

     Computing kpt #:    32  of   324
     total cpu time spent up to now is        2.8 secs

     Computing kpt #:    33  of   324
     total cpu time spent up to now is        2.9 secs

     Computing kpt #:    34  of   324
     total cpu time spent up to now is        2.9 secs

     Computing kpt #:    35  of   324
     total cpu time spent up to now is        3.0 secs

     Computing kpt #:    36  of   324
     total cpu time spent up to now is        3.1 secs

     Computing kpt #:    37  of   324
     total cpu time spent up to now is        3.1 secs

     Computing kpt #:    38  of   324
     total cpu time spent up to now is        3.2 secs

     Computing kpt #:    39  of   324
     total cpu time spent up to now is        3.3 secs

     Computing kpt #:    40  of   324
     total cpu time spent up to now is        3.4 secs

     Computing kpt #:    41  of   324
     total cpu time spent up to now is        3.4 secs

     Computing kpt #:    42  of   324
     total cpu time spent up to now is        3.5 secs

     Computing kpt #:    43  of   324
     total cpu time spent up to now is        3.6 secs

     Computing kpt #:    44  of   324
     total cpu time spent up to now is        3.6 secs

     Computing kpt #:    45  of   324
     total cpu time spent up to now is        3.7 secs

     Computing kpt #:    46  of   324
     total cpu time spent up to now is        3.8 secs

     Computing kpt #:    47  of   324
     total cpu time spent up to now is        3.9 secs

     Computing kpt #:    48  of   324
     total cpu time spent up to now is        3.9 secs

     Computing kpt #:    49  of   324
     total cpu time spent up to now is        4.0 secs

     Computing kpt #:    50  of   324
     total cpu time spent up to now is        4.1 secs

     Computing kpt #:    51  of   324
     total cpu time spent up to now is        4.1 secs

     Computing kpt #:    52  of   324
     total cpu time spent up to now is        4.2 secs

     Computing kpt #:    53  of   324
     total cpu time spent up to now is        4.3 secs

     Computing kpt #:    54  of   324
     total cpu time spent up to now is        4.3 secs

     Computing kpt #:    55  of   324
     total cpu time spent up to now is        4.4 secs

     Computing kpt #:    56  of   324
     total cpu time spent up to now is        4.5 secs

     Computing kpt #:    57  of   324
     total cpu time spent up to now is        4.5 secs

     Computing kpt #:    58  of   324
     total cpu time spent up to now is        4.6 secs

     Computing kpt #:    59  of   324
     total cpu time spent up to now is        4.7 secs

     Computing kpt #:    60  of   324
     total cpu time spent up to now is        4.8 secs

     Computing kpt #:    61  of   324
     total cpu time spent up to now is        4.8 secs

     Computing kpt #:    62  of   324
     total cpu time spent up to now is        4.9 secs

     Computing kpt #:    63  of   324
     total cpu time spent up to now is        5.0 secs

     Computing kpt #:    64  of   324
     total cpu time spent up to now is        5.1 secs

     Computing kpt #:    65  of   324
     total cpu time spent up to now is        5.1 secs

     Computing kpt #:    66  of   324
     total cpu time spent up to now is        5.2 secs

     Computing kpt #:    67  of   324
     total cpu time spent up to now is        5.3 secs

     Computing kpt #:    68  of   324
     total cpu time spent up to now is        5.4 secs

     Computing kpt #:    69  of   324
     total cpu time spent up to now is        5.4 secs

     Computing kpt #:    70  of   324
     total cpu time spent up to now is        5.5 secs

     Computing kpt #:    71  of   324
     total cpu time spent up to now is        5.6 secs

     Computing kpt #:    72  of   324
     total cpu time spent up to now is        5.7 secs

     Computing kpt #:    73  of   324
     total cpu time spent up to now is        5.7 secs

     Computing kpt #:    74  of   324
     total cpu time spent up to now is        5.8 secs

     Computing kpt #:    75  of   324
     total cpu time spent up to now is        5.9 secs

     Computing kpt #:    76  of   324
     total cpu time spent up to now is        6.0 secs

     Computing kpt #:    77  of   324
     total cpu time spent up to now is        6.0 secs

     Computing kpt #:    78  of   324
     total cpu time spent up to now is        6.1 secs

     Computing kpt #:    79  of   324
     total cpu time spent up to now is        6.2 secs

     Computing kpt #:    80  of   324
     total cpu time spent up to now is        6.3 secs

     Computing kpt #:    81  of   324
     total cpu time spent up to now is        6.3 secs

     Computing kpt #:    82  of   324
     total cpu time spent up to now is        6.4 secs

     Computing kpt #:    83  of   324
     total cpu time spent up to now is        6.5 secs

     Computing kpt #:    84  of   324
     total cpu time spent up to now is        6.6 secs

     Computing kpt #:    85  of   324
     total cpu time spent up to now is        6.7 secs

     Computing kpt #:    86  of   324
     total cpu time spent up to now is        6.7 secs

     Computing kpt #:    87  of   324
     total cpu time spent up to now is        6.8 secs

     Computing kpt #:    88  of   324
     total cpu time spent up to now is        6.9 secs

     Computing kpt #:    89  of   324
     total cpu time spent up to now is        7.0 secs

     Computing kpt #:    90  of   324
     total cpu time spent up to now is        7.0 secs

     Computing kpt #:    91  of   324
     total cpu time spent up to now is        7.1 secs

     Computing kpt #:    92  of   324
     total cpu time spent up to now is        7.2 secs

     Computing kpt #:    93  of   324
     total cpu time spent up to now is        7.3 secs

     Computing kpt #:    94  of   324
     total cpu time spent up to now is        7.3 secs

     Computing kpt #:    95  of   324
     total cpu time spent up to now is        7.4 secs

     Computing kpt #:    96  of   324
     total cpu time spent up to now is        7.5 secs

     Computing kpt #:    97  of   324
     total cpu time spent up to now is        7.6 secs

     Computing kpt #:    98  of   324
     total cpu time spent up to now is        7.7 secs

     Computing kpt #:    99  of   324
     total cpu time spent up to now is        7.7 secs

     Computing kpt #:   100  of   324
     total cpu time spent up to now is        7.8 secs

     Computing kpt #:   101  of   324
     total cpu time spent up to now is        7.9 secs

     Computing kpt #:   102  of   324
     total cpu time spent up to now is        8.0 secs

     Computing kpt #:   103  of   324
     total cpu time spent up to now is        8.1 secs

     Computing kpt #:   104  of   324
     total cpu time spent up to now is        8.1 secs

     Computing kpt #:   105  of   324
     total cpu time spent up to now is        8.2 secs

     Computing kpt #:   106  of   324
     total cpu time spent up to now is        8.3 secs

     Computing kpt #:   107  of   324
     total cpu time spent up to now is        8.4 secs

     Computing kpt #:   108  of   324
     total cpu time spent up to now is        8.5 secs

     Computing kpt #:   109  of   324
     total cpu time spent up to now is        8.5 secs

     Computing kpt #:   110  of   324
     total cpu time spent up to now is        8.6 secs

     Computing kpt #:   111  of   324
     total cpu time spent up to now is        8.7 secs

     Computing kpt #:   112  of   324
     total cpu time spent up to now is        8.8 secs

     Computing kpt #:   113  of   324
     total cpu time spent up to now is        8.8 secs

     Computing kpt #:   114  of   324
     total cpu time spent up to now is        8.9 secs

     Computing kpt #:   115  of   324
     total cpu time spent up to now is        9.0 secs

     Computing kpt #:   116  of   324
     total cpu time spent up to now is        9.1 secs

     Computing kpt #:   117  of   324
     total cpu time spent up to now is        9.2 secs

     Computing kpt #:   118  of   324
     total cpu time spent up to now is        9.2 secs

     Computing kpt #:   119  of   324
     total cpu time spent up to now is        9.3 secs

     Computing kpt #:   120  of   324
     total cpu time spent up to now is        9.4 secs

     Computing kpt #:   121  of   324
     total cpu time spent up to now is        9.5 secs

     Computing kpt #:   122  of   324
     total cpu time spent up to now is        9.6 secs

     Computing kpt #:   123  of   324
     total cpu time spent up to now is        9.6 secs

     Computing kpt #:   124  of   324
     total cpu time spent up to now is        9.7 secs

     Computing kpt #:   125  of   324
     total cpu time spent up to now is        9.8 secs

     Computing kpt #:   126  of   324
     total cpu time spent up to now is        9.9 secs

     Computing kpt #:   127  of   324
     total cpu time spent up to now is        9.9 secs

     Computing kpt #:   128  of   324
     total cpu time spent up to now is       10.0 secs

     Computing kpt #:   129  of   324
     total cpu time spent up to now is       10.1 secs

     Computing kpt #:   130  of   324
     total cpu time spent up to now is       10.2 secs

     Computing kpt #:   131  of   324
     total cpu time spent up to now is       10.2 secs

     Computing kpt #:   132  of   324
     total cpu time spent up to now is       10.4 secs

     Computing kpt #:   133  of   324
     total cpu time spent up to now is       10.4 secs

     Computing kpt #:   134  of   324
     total cpu time spent up to now is       10.5 secs

     Computing kpt #:   135  of   324
     total cpu time spent up to now is       10.6 secs

     Computing kpt #:   136  of   324
     total cpu time spent up to now is       10.7 secs

     Computing kpt #:   137  of   324
     total cpu time spent up to now is       10.8 secs

     Computing kpt #:   138  of   324
     total cpu time spent up to now is       10.8 secs

     Computing kpt #:   139  of   324
     total cpu time spent up to now is       10.9 secs

     Computing kpt #:   140  of   324
     total cpu time spent up to now is       11.0 secs

     Computing kpt #:   141  of   324
     total cpu time spent up to now is       11.1 secs

     Computing kpt #:   142  of   324
     total cpu time spent up to now is       11.1 secs

     Computing kpt #:   143  of   324
     total cpu time spent up to now is       11.2 secs

     Computing kpt #:   144  of   324
     total cpu time spent up to now is       11.3 secs

     Computing kpt #:   145  of   324
     total cpu time spent up to now is       11.4 secs

     Computing kpt #:   146  of   324
     total cpu time spent up to now is       11.5 secs

     Computing kpt #:   147  of   324
     total cpu time spent up to now is       11.5 secs

     Computing kpt #:   148  of   324
     total cpu time spent up to now is       11.6 secs

     Computing kpt #:   149  of   324
     total cpu time spent up to now is       11.7 secs

     Computing kpt #:   150  of   324
     total cpu time spent up to now is       11.8 secs

     Computing kpt #:   151  of   324
     total cpu time spent up to now is       11.9 secs

     Computing kpt #:   152  of   324
     total cpu time spent up to now is       11.9 secs

     Computing kpt #:   153  of   324
     total cpu time spent up to now is       12.0 secs

     Computing kpt #:   154  of   324
     total cpu time spent up to now is       12.1 secs

     Computing kpt #:   155  of   324
     total cpu time spent up to now is       12.2 secs

     Computing kpt #:   156  of   324
     total cpu time spent up to now is       12.2 secs

     Computing kpt #:   157  of   324
     total cpu time spent up to now is       12.3 secs

     Computing kpt #:   158  of   324
     total cpu time spent up to now is       12.4 secs

     Computing kpt #:   159  of   324
     total cpu time spent up to now is       12.5 secs

     Computing kpt #:   160  of   324
     total cpu time spent up to now is       12.5 secs

     Computing kpt #:   161  of   324
     total cpu time spent up to now is       12.6 secs

     Computing kpt #:   162  of   324
     total cpu time spent up to now is       12.7 secs

     Computing kpt #:   163  of   324
     total cpu time spent up to now is       12.8 secs

     Computing kpt #:   164  of   324
     total cpu time spent up to now is       12.8 secs

     Computing kpt #:   165  of   324
     total cpu time spent up to now is       12.9 secs

     Computing kpt #:   166  of   324
     total cpu time spent up to now is       13.0 secs

     Computing kpt #:   167  of   324
     total cpu time spent up to now is       13.1 secs

     Computing kpt #:   168  of   324
     total cpu time spent up to now is       13.1 secs

     Computing kpt #:   169  of   324
     total cpu time spent up to now is       13.2 secs

     Computing kpt #:   170  of   324
     total cpu time spent up to now is       13.3 secs

     Computing kpt #:   171  of   324
     total cpu time spent up to now is       13.4 secs

     Computing kpt #:   172  of   324
     total cpu time spent up to now is       13.4 secs

     Computing kpt #:   173  of   324
     total cpu time spent up to now is       13.5 secs

     Computing kpt #:   174  of   324
     total cpu time spent up to now is       13.6 secs

     Computing kpt #:   175  of   324
     total cpu time spent up to now is       13.7 secs

     Computing kpt #:   176  of   324
     total cpu time spent up to now is       13.8 secs

     Computing kpt #:   177  of   324
     total cpu time spent up to now is       13.8 secs

     Computing kpt #:   178  of   324
     total cpu time spent up to now is       13.9 secs

     Computing kpt #:   179  of   324
     total cpu time spent up to now is       14.0 secs

     Computing kpt #:   180  of   324
     total cpu time spent up to now is       14.1 secs

     Computing kpt #:   181  of   324
     total cpu time spent up to now is       14.2 secs

     Computing kpt #:   182  of   324
     total cpu time spent up to now is       14.3 secs

     Computing kpt #:   183  of   324
     total cpu time spent up to now is       14.3 secs

     Computing kpt #:   184  of   324
     total cpu time spent up to now is       14.4 secs

     Computing kpt #:   185  of   324
     total cpu time spent up to now is       14.5 secs

     Computing kpt #:   186  of   324
     total cpu time spent up to now is       14.6 secs

     Computing kpt #:   187  of   324
     total cpu time spent up to now is       14.6 secs

     Computing kpt #:   188  of   324
     total cpu time spent up to now is       14.7 secs

     Computing kpt #:   189  of   324
     total cpu time spent up to now is       14.8 secs

     Computing kpt #:   190  of   324
     total cpu time spent up to now is       14.9 secs

     Computing kpt #:   191  of   324
     total cpu time spent up to now is       15.0 secs

     Computing kpt #:   192  of   324
     total cpu time spent up to now is       15.0 secs

     Computing kpt #:   193  of   324
     total cpu time spent up to now is       15.1 secs

     Computing kpt #:   194  of   324
     total cpu time spent up to now is       15.2 secs

     Computing kpt #:   195  of   324
     total cpu time spent up to now is       15.3 secs

     Computing kpt #:   196  of   324
     total cpu time spent up to now is       15.4 secs

     Computing kpt #:   197  of   324
     total cpu time spent up to now is       15.4 secs

     Computing kpt #:   198  of   324
     total cpu time spent up to now is       15.5 secs

     Computing kpt #:   199  of   324
     total cpu time spent up to now is       15.6 secs

     Computing kpt #:   200  of   324
     total cpu time spent up to now is       15.7 secs

     Computing kpt #:   201  of   324
     total cpu time spent up to now is       15.8 secs

     Computing kpt #:   202  of   324
     total cpu time spent up to now is       15.8 secs

     Computing kpt #:   203  of   324
     total cpu time spent up to now is       15.9 secs

     Computing kpt #:   204  of   324
     total cpu time spent up to now is       16.0 secs

     Computing kpt #:   205  of   324
     total cpu time spent up to now is       16.1 secs

     Computing kpt #:   206  of   324
     total cpu time spent up to now is       16.1 secs

     Computing kpt #:   207  of   324
     total cpu time spent up to now is       16.2 secs

     Computing kpt #:   208  of   324
     total cpu time spent up to now is       16.3 secs

     Computing kpt #:   209  of   324
     total cpu time spent up to now is       16.4 secs

     Computing kpt #:   210  of   324
     total cpu time spent up to now is       16.5 secs

     Computing kpt #:   211  of   324
     total cpu time spent up to now is       16.6 secs

     Computing kpt #:   212  of   324
     total cpu time spent up to now is       16.7 secs

     Computing kpt #:   213  of   324
     total cpu time spent up to now is       16.7 secs

     Computing kpt #:   214  of   324
     total cpu time spent up to now is       16.8 secs

     Computing kpt #:   215  of   324
     total cpu time spent up to now is       16.9 secs

     Computing kpt #:   216  of   324
     total cpu time spent up to now is       17.0 secs

     Computing kpt #:   217  of   324
     total cpu time spent up to now is       17.1 secs

     Computing kpt #:   218  of   324
     total cpu time spent up to now is       17.1 secs

     Computing kpt #:   219  of   324
     total cpu time spent up to now is       17.2 secs

     Computing kpt #:   220  of   324
     total cpu time spent up to now is       17.3 secs

     Computing kpt #:   221  of   324
     total cpu time spent up to now is       17.4 secs

     Computing kpt #:   222  of   324
     total cpu time spent up to now is       17.5 secs

     Computing kpt #:   223  of   324
     total cpu time spent up to now is       17.5 secs

     Computing kpt #:   224  of   324
     total cpu time spent up to now is       17.6 secs

     Computing kpt #:   225  of   324
     total cpu time spent up to now is       17.7 secs

     Computing kpt #:   226  of   324
     total cpu time spent up to now is       17.8 secs

     Computing kpt #:   227  of   324
     total cpu time spent up to now is       17.9 secs

     Computing kpt #:   228  of   324
     total cpu time spent up to now is       18.0 secs

     Computing kpt #:   229  of   324
     total cpu time spent up to now is       18.0 secs

     Computing kpt #:   230  of   324
     total cpu time spent up to now is       18.1 secs

     Computing kpt #:   231  of   324
     total cpu time spent up to now is       18.2 secs

     Computing kpt #:   232  of   324
     total cpu time spent up to now is       18.3 secs

     Computing kpt #:   233  of   324
     total cpu time spent up to now is       18.4 secs

     Computing kpt #:   234  of   324
     total cpu time spent up to now is       18.4 secs

     Computing kpt #:   235  of   324
     total cpu time spent up to now is       18.5 secs

     Computing kpt #:   236  of   324
     total cpu time spent up to now is       18.6 secs

     Computing kpt #:   237  of   324
     total cpu time spent up to now is       18.7 secs

     Computing kpt #:   238  of   324
     total cpu time spent up to now is       18.8 secs

     Computing kpt #:   239  of   324
     total cpu time spent up to now is       18.8 secs

     Computing kpt #:   240  of   324
     total cpu time spent up to now is       18.9 secs

     Computing kpt #:   241  of   324
     total cpu time spent up to now is       19.0 secs

     Computing kpt #:   242  of   324
     total cpu time spent up to now is       19.1 secs

     Computing kpt #:   243  of   324
     total cpu time spent up to now is       19.2 secs

     Computing kpt #:   244  of   324
     total cpu time spent up to now is       19.2 secs

     Computing kpt #:   245  of   324
     total cpu time spent up to now is       19.3 secs

     Computing kpt #:   246  of   324
     total cpu time spent up to now is       19.4 secs

     Computing kpt #:   247  of   324
     total cpu time spent up to now is       19.5 secs

     Computing kpt #:   248  of   324
     total cpu time spent up to now is       19.6 secs

     Computing kpt #:   249  of   324
     total cpu time spent up to now is       19.7 secs

     Computing kpt #:   250  of   324
     total cpu time spent up to now is       19.8 secs

     Computing kpt #:   251  of   324
     total cpu time spent up to now is       19.8 secs

     Computing kpt #:   252  of   324
     total cpu time spent up to now is       19.9 secs

     Computing kpt #:   253  of   324
     total cpu time spent up to now is       20.0 secs

     Computing kpt #:   254  of   324
     total cpu time spent up to now is       20.1 secs

     Computing kpt #:   255  of   324
     total cpu time spent up to now is       20.2 secs

     Computing kpt #:   256  of   324
     total cpu time spent up to now is       20.3 secs

     Computing kpt #:   257  of   324
     total cpu time spent up to now is       20.4 secs

     Computing kpt #:   258  of   324
     total cpu time spent up to now is       20.5 secs

     Computing kpt #:   259  of   324
     total cpu time spent up to now is       20.5 secs

     Computing kpt #:   260  of   324
     total cpu time spent up to now is       20.6 secs

     Computing kpt #:   261  of   324
     total cpu time spent up to now is       20.7 secs

     Computing kpt #:   262  of   324
     total cpu time spent up to now is       20.8 secs

     Computing kpt #:   263  of   324
     total cpu time spent up to now is       20.9 secs

     Computing kpt #:   264  of   324
     total cpu time spent up to now is       20.9 secs

     Computing kpt #:   265  of   324
     total cpu time spent up to now is       21.0 secs

     Computing kpt #:   266  of   324
     total cpu time spent up to now is       21.1 secs

     Computing kpt #:   267  of   324
     total cpu time spent up to now is       21.2 secs

     Computing kpt #:   268  of   324
     total cpu time spent up to now is       21.2 secs

     Computing kpt #:   269  of   324
     total cpu time spent up to now is       21.3 secs

     Computing kpt #:   270  of   324
     total cpu time spent up to now is       21.4 secs

     Computing kpt #:   271  of   324
     total cpu time spent up to now is       21.5 secs

     Computing kpt #:   272  of   324
     total cpu time spent up to now is       21.5 secs

     Computing kpt #:   273  of   324
     total cpu time spent up to now is       21.6 secs

     Computing kpt #:   274  of   324
     total cpu time spent up to now is       21.7 secs

     Computing kpt #:   275  of   324
     total cpu time spent up to now is       21.8 secs

     Computing kpt #:   276  of   324
     total cpu time spent up to now is       21.8 secs

     Computing kpt #:   277  of   324
     total cpu time spent up to now is       21.9 secs

     Computing kpt #:   278  of   324
     total cpu time spent up to now is       22.0 secs

     Computing kpt #:   279  of   324
     total cpu time spent up to now is       22.1 secs

     Computing kpt #:   280  of   324
     total cpu time spent up to now is       22.1 secs

     Computing kpt #:   281  of   324
     total cpu time spent up to now is       22.2 secs

     Computing kpt #:   282  of   324
     total cpu time spent up to now is       22.3 secs

     Computing kpt #:   283  of   324
     total cpu time spent up to now is       22.4 secs

     Computing kpt #:   284  of   324
     total cpu time spent up to now is       22.5 secs

     Computing kpt #:   285  of   324
     total cpu time spent up to now is       22.5 secs

     Computing kpt #:   286  of   324
     total cpu time spent up to now is       22.6 secs

     Computing kpt #:   287  of   324
     total cpu time spent up to now is       22.7 secs

     Computing kpt #:   288  of   324
     total cpu time spent up to now is       22.8 secs

     Computing kpt #:   289  of   324
     total cpu time spent up to now is       22.8 secs

     Computing kpt #:   290  of   324
     total cpu time spent up to now is       22.9 secs

     Computing kpt #:   291  of   324
     total cpu time spent up to now is       23.0 secs

     Computing kpt #:   292  of   324
     total cpu time spent up to now is       23.1 secs

     Computing kpt #:   293  of   324
     total cpu time spent up to now is       23.1 secs

     Computing kpt #:   294  of   324
     total cpu time spent up to now is       23.2 secs

     Computing kpt #:   295  of   324
     total cpu time spent up to now is       23.3 secs

     Computing kpt #:   296  of   324
     total cpu time spent up to now is       23.4 secs

     Computing kpt #:   297  of   324
     total cpu time spent up to now is       23.4 secs

     Computing kpt #:   298  of   324
     total cpu time spent up to now is       23.5 secs

     Computing kpt #:   299  of   324
     total cpu time spent up to now is       23.6 secs

     Computing kpt #:   300  of   324
     total cpu time spent up to now is       23.7 secs

     Computing kpt #:   301  of   324
     total cpu time spent up to now is       23.8 secs

     Computing kpt #:   302  of   324
     total cpu time spent up to now is       23.8 secs

     Computing kpt #:   303  of   324
     total cpu time spent up to now is       23.9 secs

     Computing kpt #:   304  of   324
     total cpu time spent up to now is       24.0 secs

     Computing kpt #:   305  of   324
     total cpu time spent up to now is       24.1 secs

     Computing kpt #:   306  of   324
     total cpu time spent up to now is       24.1 secs

     Computing kpt #:   307  of   324
     total cpu time spent up to now is       24.2 secs

     Computing kpt #:   308  of   324
     total cpu time spent up to now is       24.3 secs

     Computing kpt #:   309  of   324
     total cpu time spent up to now is       24.4 secs

     Computing kpt #:   310  of   324
     total cpu time spent up to now is       24.4 secs

     Computing kpt #:   311  of   324
     total cpu time spent up to now is       24.5 secs

     Computing kpt #:   312  of   324
     total cpu time spent up to now is       24.6 secs

     Computing kpt #:   313  of   324
     total cpu time spent up to now is       24.7 secs

     Computing kpt #:   314  of   324
     total cpu time spent up to now is       24.8 secs

     Computing kpt #:   315  of   324
     total cpu time spent up to now is       24.8 secs

     Computing kpt #:   316  of   324
     total cpu time spent up to now is       24.9 secs

     Computing kpt #:   317  of   324
     total cpu time spent up to now is       25.0 secs

     Computing kpt #:   318  of   324
     total cpu time spent up to now is       25.1 secs

     Computing kpt #:   319  of   324
     total cpu time spent up to now is       25.2 secs

     Computing kpt #:   320  of   324
     total cpu time spent up to now is       25.2 secs

     Computing kpt #:   321  of   324
     total cpu time spent up to now is       25.3 secs

     Computing kpt #:   322  of   324
     total cpu time spent up to now is       25.4 secs

     Computing kpt #:   323  of   324
     total cpu time spent up to now is       25.5 secs

     Computing kpt #:   324  of   324
     total cpu time spent up to now is       25.6 secs

     ethr =  1.00E-05,  avg # of iterations =  9.2

     total cpu time spent up to now is       25.6 secs

     End of band structure calculation

          k = 0.0000 0.0000 0.0000 (  4149 PWs)   bands (ev):

   -21.2668  -9.3658  -4.7775  -4.7775   1.5384   2.4390   2.9590   4.8208
     5.6410   6.6563   6.6563   8.7545   9.7881   9.8673

     occupation numbers 
     1.0000   1.0000   1.0000   1.0000   0.0000   0.0000   0.0000   0.0000
     0.0000   0.0000   0.0000   0.0000   0.0000   0.0000

          k = 0.0000 0.0642 0.0000 (  4158 PWs)   bands (ev):

   -21.1937  -9.2782  -5.0754  -4.9346   1.6379   2.5394   3.0603   4.9206
     5.7381   6.6993   6.9733   8.8513   9.5322   9.9681

     occupation numbers 
     1.0000   1.0000   1.0000   1.0000   0.0000   0.0000   0.0000   0.0000
     0.0000   0.0000   0.0000   0.0000   0.0000   0.0000

          k = 0.0000 0.1283 0.0000 (  4176 PWs)   bands (ev):

   -20.9748  -9.0164  -5.8918  -5.3532   1.9365   2.8404   3.3643   5.2194
     6.0275   6.7561   7.8655   8.8042   9.1428  10.2682

     occupation numbers 
     1.0000   1.0000   1.0000   1.0000   0.0000   0.0000   0.0000   0.0000
     0.0000   0.0000   0.0000   0.0000   0.0000   0.0000

          k = 0.0000 0.1925 0.0000 (  4166 PWs)   bands (ev):

   -20.6113  -8.5831  -7.0648  -5.9158   2.4339   3.3408   3.8709   5.7151
     6.4651   6.7653   7.7069   9.2056   9.6231  10.7629

     occupation numbers 
     1.0000   1.0000   1.0000   1.0000   0.0000   0.0000   0.0000   0.0000
     0.0000   0.0000   0.0000   0.0000   0.0000   0.0000

          k = 0.0000 0.2566 0.0000 (  4170 PWs)   bands (ev):

   -20.1048  -8.4392  -7.9853  -6.5135   3.1296   4.0363   4.5798   6.2556
     6.4998   6.5039   7.2692  10.2899  10.8576  11.4496

     occupation numbers 
     1.0000   1.0000   1.0000   1.0000   0.0000   0.0000   0.0000   0.0000
     0.0000   0.0000   0.0000   0.0000   0.0000   0.0000

          k = 0.0000 0.3208 0.0000 (  4172 PWs)   bands (ev):

   -19.4586  -9.8997  -7.2345  -7.0707   4.0214   4.6830   5.0733   5.4880
     6.3082   7.3164   8.1488  11.1317  12.3261  12.7007

     occupation numbers 
     1.0000   1.0000   1.0000   1.0000   0.0000   0.0000   0.0000   0.0000
     0.0000   0.0000   0.0000   0.0000   0.0000   0.0000

          k = 0.0000 0.3849 0.0000 (  4166 PWs)   bands (ev):

   -18.6774 -11.3699  -7.5388  -6.3531   3.2352   5.1022   6.0597   6.0920
     6.6214   8.3968   9.2349  12.1210  13.3853  14.1626

     occupation numbers 
     1.0000   1.0000   1.0000   1.0000   0.0000   0.0000   0.0000   0.0000
     0.0000   0.0000   0.0000   0.0000   0.0000   0.0000

          k = 0.0000 0.4491 0.0000 (  4160 PWs)   bands (ev):

   -17.7706 -12.7948  -7.8890  -5.3949   1.7532   5.8862   6.4291   7.3417
     7.9290   9.6611  10.5152  13.0325  13.1060  14.2595

     occupation numbers 
     1.0000   1.0000   1.0000   1.0000   0.0000   0.0000   0.0000   0.0000
     0.0000   0.0000   0.0000   0.0000   0.0000   0.0000

          k = 0.0000 0.5132 0.0000 (  4178 PWs)   bands (ev):

   -16.7677 -14.1186  -8.1048  -4.5025   0.5273   5.7996   7.8736   8.8084
     9.4433  11.0721  11.2788  11.9836  12.2244  13.0562

     occupation numbers 
     1.0000   1.0000   1.0000   1.0000   0.0003   0.0000   0.0000   0.0000
     0.0000   0.0000   0.0000   0.0000   0.0000   0.0000

          k = 0.0000 0.5774 0.0000 (  4168 PWs)   bands (ev):

   -16.0013 -14.9933  -8.1774  -4.0750  -0.0134   5.7644   9.4359   9.5844
    10.3232  10.5549  11.1452  11.1677  12.4711  12.9419

     occupation numbers 
     1.0000   1.0000   1.0000   0.9998   0.0019   0.0000   0.0000   0.0000
     0.0000   0.0000   0.0000   0.0000   0.0000   0.0000

          k = 0.0000 0.6415 0.0000 (  4178 PWs)   bands (ev):

   -16.7677 -14.1186  -8.1048  -4.5025   0.5273   5.7996   7.8736   8.8084
     9.4433  11.0721  11.2788  11.9835  12.2244  13.0562

     occupation numbers 
     1.0000   1.0000   1.0000   1.0000   0.0003   0.0000   0.0000   0.0000
     0.0000   0.0000   0.0000   0.0000   0.0000   0.0000

          k = 0.0000 0.7057 0.0000 (  4160 PWs)   bands (ev):

   -17.7706 -12.7948  -7.8890  -5.3949   1.7532   5.8862   6.4291   7.3417
     7.9290   9.6611  10.5152  13.0325  13.1060  14.2595

     occupation numbers 
     1.0000   1.0000   1.0000   1.0000   0.0000   0.0000   0.0000   0.0000
     0.0000   0.0000   0.0000   0.0000   0.0000   0.0000

          k = 0.0000 0.7698 0.0000 (  4166 PWs)   bands (ev):

   -18.6774 -11.3699  -7.5388  -6.3531   3.2352   5.1022   6.0597   6.0920
     6.6214   8.3968   9.2349  12.1210  13.3853  14.1625

     occupation numbers 
     1.0000   1.0000   1.0000   1.0000   0.0000   0.0000   0.0000   0.0000
     0.0000   0.0000   0.0000   0.0000   0.0000   0.0000

          k = 0.0000 0.8340 0.0000 (  4172 PWs)   bands (ev):

   -19.4586  -9.8997  -7.2345  -7.0707   4.0214   4.6830   5.0733   5.4880
     6.3082   7.3164   8.1488  11.1317  12.3261  12.7008

     occupation numbers 
     1.0000   1.0000   1.0000   1.0000   0.0000   0.0000   0.0000   0.0000
     0.0000   0.0000   0.0000   0.0000   0.0000   0.0000

          k = 0.0000 0.8981 0.0000 (  4170 PWs)   bands (ev):

   -20.1048  -8.4392  -7.9853  -6.5135   3.1296   4.0363   4.5798   6.2556
     6.4998   6.5039   7.2692  10.2899  10.8576  11.4496

     occupation numbers 
     1.0000   1.0000   1.0000   1.0000   0.0000   0.0000   0.0000   0.0000
     0.0000   0.0000   0.0000   0.0000   0.0000   0.0000

          k = 0.0000 0.9623 0.0000 (  4166 PWs)   bands (ev):

   -20.6113  -8.5831  -7.0648  -5.9158   2.4339   3.3408   3.8709   5.7151
     6.4651   6.7653   7.7069   9.2056   9.6231  10.7629

     occupation numbers 
     1.0000   1.0000   1.0000   1.0000   0.0000   0.0000   0.0000   0.0000
     0.0000   0.0000   0.0000   0.0000   0.0000   0.0000

          k = 0.0000 1.0264 0.0000 (  4176 PWs)   bands (ev):

   -20.9748  -9.0164  -5.8918  -5.3532   1.9365   2.8404   3.3643   5.2194
     6.0275   6.7561   7.8655   8.8042   9.1428  10.2682

     occupation numbers 
     1.0000   1.0000   1.0000   1.0000   0.0000   0.0000   0.0000   0.0000
     0.0000   0.0000   0.0000   0.0000   0.0000   0.0000

          k = 0.0000 1.0906 0.0000 (  4158 PWs)   bands (ev):

   -21.1937  -9.2782  -5.0754  -4.9346   1.6379   2.5394   3.0603   4.9206
     5.7381   6.6993   6.9733   8.8513   9.5322   9.9681

     occupation numbers 
     1.0000   1.0000   1.0000   1.0000   0.0000   0.0000   0.0000   0.0000
     0.0000   0.0000   0.0000   0.0000   0.0000   0.0000

          k = 0.0556 0.0321 0.0000 (  4158 PWs)   bands (ev):

   -21.1937  -9.2782  -5.0754  -4.9346   1.6379   2.5394   3.0603   4.9206
     5.7381   6.6993   6.9733   8.8513   9.5322   9.9681

     occupation numbers 
     1.0000   1.0000   1.0000   1.0000   0.0000   0.0000   0.0000   0.0000
     0.0000   0.0000   0.0000   0.0000   0.0000   0.0000

          k = 0.0556 0.0962 0.0000 (  4157 PWs)   bands (ev):

   -21.0477  -9.1033  -5.6051  -5.2499   1.8370   2.7401   3.2630   5.1199
     5.9324   6.8213   7.4947   9.0437   9.0444  10.1688

     occupation numbers 
     1.0000   1.0000   1.0000   1.0000   0.0000   0.0000   0.0000   0.0000
     0.0000   0.0000   0.0000   0.0000   0.0000   0.0000

          k = 0.0556 0.1604 0.0000 (  4167 PWs)   bands (ev):

   -20.7565  -8.7558  -6.5473  -5.7936   2.2351   3.1409   3.6684   5.5176
     6.3173   6.9578   8.1385   8.4215   9.4289  10.5671

     occupation numbers 
     1.0000   1.0000   1.0000   1.0000   0.0000   0.0000   0.0000   0.0000
     0.0000   0.0000   0.0000   0.0000   0.0000   0.0000

          k = 0.0556 0.2245 0.0000 (  4170 PWs)   bands (ev):

   -20.3215  -8.2400  -7.7790  -6.4170   2.8319   3.7400   4.2764   6.1070
     6.7751   6.9315   7.0620   9.7188  10.0005  11.1592

     occupation numbers 
     1.0000   1.0000   1.0000   1.0000   0.0000   0.0000   0.0000   0.0000
     0.0000   0.0000   0.0000   0.0000   0.0000   0.0000

          k = 0.0556 0.2887 0.0000 (  4167 PWs)   bands (ev):

   -19.7452  -9.1701  -7.5646  -7.0213   3.6263   4.5225   5.0863   5.5120
     6.7135   6.9175   7.7599  10.7502  11.2519  11.9462

     occupation numbers 
     1.0000   1.0000   1.0000   1.0000   0.0000   0.0000   0.0000   0.0000
     0.0000   0.0000   0.0000   0.0000   0.0000   0.0000

          k = 0.0556 0.3528 0.0000 (  4166 PWs)   bands (ev):

   -19.0314 -10.6204  -7.5488  -6.7456   3.9524   4.6153   5.5622   6.0901
     6.5311   7.8990   8.7419  11.6555  12.7541  12.9605

     occupation numbers 
     1.0000   1.0000   1.0000   1.0000   0.0000   0.0000   0.0000   0.0000
     0.0000   0.0000   0.0000   0.0000   0.0000   0.0000

          k = 0.0556 0.4170 0.0000 (  4163 PWs)   bands (ev):

   -18.1868 -12.0601  -7.9662  -5.8165   2.4452   5.7821   6.3436   6.7423
     7.3243   9.0681   9.9248  12.6380  13.4671  14.0737

     occupation numbers 
     1.0000   1.0000   1.0000   1.0000   0.0000   0.0000   0.0000   0.0000
     0.0000   0.0000   0.0000   0.0000   0.0000   0.0000

          k = 0.0556 0.4811 0.0000 (  4169 PWs)   bands (ev):

   -17.2267 -13.4351  -8.2535  -4.8614   1.0696   6.1659   7.1967   8.1138
     8.7367  10.4005  11.2955  12.2070  12.9101  14.0415

     occupation numbers 
     1.0000   1.0000   1.0000   1.0000   0.0000   0.0000   0.0000   0.0000
     0.0000   0.0000   0.0000   0.0000   0.0000   0.0000

          k = 0.0556 0.5453 0.0000 (  4181 PWs)   bands (ev):

   -16.2296 -14.6447  -8.3997  -4.1268   0.1159   6.0998   8.7388   9.6447
    10.3415  10.4563  11.2719  11.9673  12.1556  12.8449

     occupation numbers 
     1.0000   1.0000   1.0000   0.9999   0.0012   0.0000   0.0000   0.0000
     0.0000   0.0000   0.0000   0.0000   0.0000   0.0000

          k = 0.0556 0.6094 0.0000 (  4181 PWs)   bands (ev):

   -16.2296 -14.6447  -8.3997  -4.1268   0.1159   6.0998   8.7388   9.6447
    10.3415  10.4563  11.2719  11.9673  12.1556  12.8450

     occupation numbers 
     1.0000   1.0000   1.0000   0.9999   0.0012   0.0000   0.0000   0.0000
     0.0000   0.0000   0.0000   0.0000   0.0000   0.0000

          k = 0.0556 0.6736 0.0000 (  4169 PWs)   bands (ev):

   -17.2267 -13.4351  -8.2536  -4.8614   1.0696   6.1659   7.1967   8.1138
     8.7367  10.4005  11.2955  12.2070  12.9101  14.0415

     occupation numbers 
     1.0000   1.0000   1.0000   1.0000   0.0000   0.0000   0.0000   0.0000
     0.0000   0.0000   0.0000   0.0000   0.0000   0.0000

          k = 0.0556 0.7377 0.0000 (  4163 PWs)   bands (ev):

   -18.1868 -12.0601  -7.9662  -5.8165   2.4452   5.7821   6.3436   6.7423
     7.3243   9.0681   9.9248  12.6380  13.4670  14.0737

     occupation numbers 
     1.0000   1.0000   1.0000   1.0000   0.0000   0.0000   0.0000   0.0000
     0.0000   0.0000   0.0000   0.0000   0.0000   0.0000

          k = 0.0556 0.8019 0.0000 (  4166 PWs)   bands (ev):

   -19.0314 -10.6204  -7.5488  -6.7456   3.9524   4.6153   5.5622   6.0901
     6.5311   7.8990   8.7419  11.6555  12.7541  12.9604

     occupation numbers 
     1.0000   1.0000   1.0000   1.0000   0.0000   0.0000   0.0000   0.0000
     0.0000   0.0000   0.0000   0.0000   0.0000   0.0000

          k = 0.0556 0.8660 0.0000 (  4167 PWs)   bands (ev):

   -19.7452  -9.1701  -7.5646  -7.0213   3.6263   4.5225   5.0863   5.5120
     6.7135   6.9175   7.7599  10.7502  11.2519  11.9462

     occupation numbers 
     1.0000   1.0000   1.0000   1.0000   0.0000   0.0000   0.0000   0.0000
     0.0000   0.0000   0.0000   0.0000   0.0000   0.0000

          k = 0.0556 0.9302 0.0000 (  4170 PWs)   bands (ev):

   -20.3215  -8.2400  -7.7790  -6.4170   2.8319   3.7400   4.2764   6.1070
     6.7751   6.9315   7.0620   9.7188  10.0005  11.1592

     occupation numbers 
     1.0000   1.0000   1.0000   1.0000   0.0000   0.0000   0.0000   0.0000
     0.0000   0.0000   0.0000   0.0000   0.0000   0.0000

          k = 0.0556 0.9943 0.0000 (  4167 PWs)   bands (ev):

   -20.7565  -8.7558  -6.5473  -5.7936   2.2351   3.1409   3.6684   5.5176
     6.3173   6.9578   8.1385   8.4215   9.4289  10.5671

     occupation numbers 
     1.0000   1.0000   1.0000   1.0000   0.0000   0.0000   0.0000   0.0000
     0.0000   0.0000   0.0000   0.0000   0.0000   0.0000

          k = 0.0556 1.0585 0.0000 (  4157 PWs)   bands (ev):

   -21.0477  -9.1033  -5.6051  -5.2499   1.8370   2.7401   3.2630   5.1199
     5.9324   6.8213   7.4947   9.0437   9.0444  10.1688

     occupation numbers 
     1.0000   1.0000   1.0000   1.0000   0.0000   0.0000   0.0000   0.0000
     0.0000   0.0000   0.0000   0.0000   0.0000   0.0000

          k = 0.0556 1.1226 0.0000 (  4158 PWs)   bands (ev):

   -21.1937  -9.2782  -5.0754  -4.9346   1.6379   2.5394   3.0603   4.9206
     5.7381   6.6993   6.9733   8.8513   9.5322   9.9681

     occupation numbers 
     1.0000   1.0000   1.0000   1.0000   0.0000   0.0000   0.0000   0.0000
     0.0000   0.0000   0.0000   0.0000   0.0000   0.0000

          k = 0.1111 0.0642 0.0000 (  4176 PWs)   bands (ev):

   -20.9748  -9.0164  -5.8918  -5.3532   1.9365   2.8404   3.3643   5.2194
     6.0275   6.7561   7.8655   8.8042   9.1428  10.2682

     occupation numbers 
     1.0000   1.0000   1.0000   1.0000   0.0000   0.0000   0.0000   0.0000
     0.0000   0.0000   0.0000   0.0000   0.0000   0.0000

          k = 0.1111 0.1283 0.0000 (  4167 PWs)   bands (ev):

   -20.7565  -8.7558  -6.5473  -5.7936   2.2351   3.1409   3.6684   5.5176
     6.3173   6.9578   8.1385   8.4215   9.4289  10.5671

     occupation numbers 
     1.0000   1.0000   1.0000   1.0000   0.0000   0.0000   0.0000   0.0000
     0.0000   0.0000   0.0000   0.0000   0.0000   0.0000

          k = 0.1111 0.1925 0.0000 (  4147 PWs)   bands (ev):

   -20.3939  -8.3249  -7.4455  -6.5013   2.7329   3.6409   4.1753   6.0133
     6.8038   7.1379   7.3977   8.9364   9.9010  11.0624

     occupation numbers 
     1.0000   1.0000   1.0000   1.0000   0.0000   0.0000   0.0000   0.0000
     0.0000   0.0000   0.0000   0.0000   0.0000   0.0000

          k = 0.1111 0.2566 0.0000 (  4160 PWs)   bands (ev):

   -19.8890  -8.5815  -7.7307  -7.2451   3.4288   4.3370   4.8849   5.8983
     6.7065   7.4027   7.7097   9.7969  10.5488  11.7502

     occupation numbers 
     1.0000   1.0000   1.0000   1.0000   0.0000   0.0000   0.0000   0.0000
     0.0000   0.0000   0.0000   0.0000   0.0000   0.0000

          k = 0.1111 0.3208 0.0000 (  4173 PWs)   bands (ev):

   -19.2451  -9.8948  -7.8887  -6.9841   4.3214   4.4917   5.2498   5.7961
     7.4746   7.5886   8.4564  11.0590  11.3452  12.6289

     occupation numbers 
     1.0000   1.0000   1.0000   1.0000   0.0000   0.0000   0.0000   0.0000
     0.0000   0.0000   0.0000   0.0000   0.0000   0.0000

          k = 0.1111 0.3849 0.0000 (  4169 PWs)   bands (ev):

   -18.4674 -11.2806  -8.4001  -6.1072   3.0485   5.4070   6.3276   6.9015
     7.3278   8.6529   9.5315  12.2001  12.3577  13.6920

     occupation numbers 
     1.0000   1.0000   1.0000   1.0000   0.0000   0.0000   0.0000   0.0000
     0.0000   0.0000   0.0000   0.0000   0.0000   0.0000

          k = 0.1111 0.4491 0.0000 (  4166 PWs)   bands (ev):

   -17.5659 -12.6567  -8.7713  -5.1491   1.6379   6.6672   7.1704   7.5941
     8.2330   9.8724  10.8048  12.7284  12.7772  14.3973

     occupation numbers 
     1.0000   1.0000   1.0000   1.0000   0.0000   0.0000   0.0000   0.0000
     0.0000   0.0000   0.0000   0.0000   0.0000   0.0000

          k = 0.1111 0.5132 0.0000 (  4173 PWs)   bands (ev):

   -16.5707 -13.9507  -8.9964  -4.2475   0.4463   7.0290   8.1610   9.0112
     9.7438  11.1028  11.4693  12.2621  12.2630  13.3269

     occupation numbers 
     1.0000   1.0000   1.0000   0.9999   0.0004   0.0000   0.0000   0.0000
     0.0000   0.0000   0.0000   0.0000   0.0000   0.0000

          k = 0.1111 0.5774 0.0000 (  4174 PWs)   bands (ev):

   -15.8141 -14.8089  -9.0718  -3.8075  -0.0933   6.9960   9.6915   9.8584
    10.2422  10.8571  11.4376  11.4652  12.3497  13.2435

     occupation numbers 
     1.0000   1.0000   1.0000   0.9995   0.0025   0.0000   0.0000   0.0000
     0.0000   0.0000   0.0000   0.0000   0.0000   0.0000

          k = 0.1111 0.6415 0.0000 (  4173 PWs)   bands (ev):

   -16.5707 -13.9507  -8.9964  -4.2475   0.4463   7.0290   8.1610   9.0112
     9.7438  11.1028  11.4693  12.2621  12.2630  13.3269

     occupation numbers 
     1.0000   1.0000   1.0000   0.9999   0.0004   0.0000   0.0000   0.0000
     0.0000   0.0000   0.0000   0.0000   0.0000   0.0000

          k = 0.1111 0.7057 0.0000 (  4166 PWs)   bands (ev):

   -17.5659 -12.6567  -8.7713  -5.1491   1.6379   6.6672   7.1704   7.5941
     8.2330   9.8724  10.8048  12.7284  12.7772  14.3973

     occupation numbers 
     1.0000   1.0000   1.0000   1.0000   0.0000   0.0000   0.0000   0.0000
     0.0000   0.0000   0.0000   0.0000   0.0000   0.0000

          k = 0.1111 0.7698 0.0000 (  4169 PWs)   bands (ev):

   -18.4674 -11.2806  -8.4001  -6.1072   3.0485   5.4070   6.3276   6.9015
     7.3278   8.6529   9.5315  12.2001  12.3577  13.6920

     occupation numbers 
     1.0000   1.0000   1.0000   1.0000   0.0000   0.0000   0.0000   0.0000
     0.0000   0.0000   0.0000   0.0000   0.0000   0.0000

          k = 0.1111 0.8340 0.0000 (  4173 PWs)   bands (ev):

   -19.2451  -9.8948  -7.8887  -6.9841   4.3214   4.4917   5.2498   5.7961
     7.4746   7.5886   8.4564  11.0590  11.3452  12.6289

     occupation numbers 
     1.0000   1.0000   1.0000   1.0000   0.0000   0.0000   0.0000   0.0000
     0.0000   0.0000   0.0000   0.0000   0.0000   0.0000

          k = 0.1111 0.8981 0.0000 (  4160 PWs)   bands (ev):

   -19.8890  -8.5815  -7.7307  -7.2451   3.4288   4.3370   4.8849   5.8983
     6.7065   7.4027   7.7097   9.7969  10.5488  11.7502

     occupation numbers 
     1.0000   1.0000   1.0000   1.0000   0.0000   0.0000   0.0000   0.0000
     0.0000   0.0000   0.0000   0.0000   0.0000   0.0000

          k = 0.1111 0.9623 0.0000 (  4147 PWs)   bands (ev):

   -20.3939  -8.3249  -7.4455  -6.5013   2.7329   3.6409   4.1753   6.0133
     6.8038   7.1379   7.3977   8.9364   9.9010  11.0624

     occupation numbers 
     1.0000   1.0000   1.0000   1.0000   0.0000   0.0000   0.0000   0.0000
     0.0000   0.0000   0.0000   0.0000   0.0000   0.0000

          k = 0.1111 1.0264 0.0000 (  4167 PWs)   bands (ev):

   -20.7565  -8.7558  -6.5473  -5.7936   2.2351   3.1409   3.6684   5.5176
     6.3173   6.9578   8.1385   8.4215   9.4289  10.5671

     occupation numbers 
     1.0000   1.0000   1.0000   1.0000   0.0000   0.0000   0.0000   0.0000
     0.0000   0.0000   0.0000   0.0000   0.0000   0.0000

          k = 0.1111 1.0906 0.0000 (  4176 PWs)   bands (ev):

   -20.9748  -9.0164  -5.8918  -5.3532   1.9365   2.8404   3.3643   5.2194
     6.0275   6.7561   7.8655   8.8042   9.1428  10.2682

     occupation numbers 
     1.0000   1.0000   1.0000   1.0000   0.0000   0.0000   0.0000   0.0000
     0.0000   0.0000   0.0000   0.0000   0.0000   0.0000

          k = 0.1111 1.1547 0.0000 (  4157 PWs)   bands (ev):

   -21.0477  -9.1033  -5.6051  -5.2499   1.8370   2.7401   3.2630   5.1199
     5.9324   6.8213   7.4947   9.0437   9.0444  10.1688

     occupation numbers 
     1.0000   1.0000   1.0000   1.0000   0.0000   0.0000   0.0000   0.0000
     0.0000   0.0000   0.0000   0.0000   0.0000   0.0000

          k = 0.1667 0.0962 0.0000 (  4166 PWs)   bands (ev):

   -20.6113  -8.5831  -7.0648  -5.9158   2.4339   3.3408   3.8709   5.7151
     6.4651   6.7653   7.7069   9.2056   9.6231  10.7629

     occupation numbers 
     1.0000   1.0000   1.0000   1.0000   0.0000   0.0000   0.0000   0.0000
     0.0000   0.0000   0.0000   0.0000   0.0000   0.0000

          k = 0.1667 0.1604 0.0000 (  4170 PWs)   bands (ev):

   -20.3215  -8.2400  -7.7790  -6.4170   2.8319   3.7400   4.2764   6.1070
     6.7751   6.9315   7.0620   9.7188  10.0005  11.1592

     occupation numbers 
     1.0000   1.0000   1.0000   1.0000   0.0000   0.0000   0.0000   0.0000
     0.0000   0.0000   0.0000   0.0000   0.0000   0.0000

          k = 0.1667 0.2245 0.0000 (  4160 PWs)   bands (ev):

   -19.8890  -8.5815  -7.7307  -7.2451   3.4288   4.3370   4.8849   5.8983
     6.7065   7.4027   7.7097   9.7969  10.5488  11.7502

     occupation numbers 
     1.0000   1.0000   1.0000   1.0000   0.0000   0.0000   0.0000   0.0000
     0.0000   0.0000   0.0000   0.0000   0.0000   0.0000

          k = 0.1667 0.2887 0.0000 (  4166 PWs)   bands (ev):

   -19.3165  -9.4989  -8.1690  -7.0640   4.2231   4.7122   5.1294   5.6958
     7.4814   8.1913   8.5249   9.9210  11.2352  12.5303

     occupation numbers 
     1.0000   1.0000   1.0000   1.0000   0.0000   0.0000   0.0000   0.0000
     0.0000   0.0000   0.0000   0.0000   0.0000   0.0000

          k = 0.1667 0.3528 0.0000 (  4159 PWs)   bands (ev):

   -18.6085 -10.6103  -8.9341  -6.2549   3.4199   5.2122   6.1100   6.7082
     8.4356   8.6150   9.3565  10.7609  11.9415  13.4951

     occupation numbers 
     1.0000   1.0000   1.0000   1.0000   0.0000   0.0000   0.0000   0.0000
     0.0000   0.0000   0.0000   0.0000   0.0000   0.0000

          k = 0.1667 0.4170 0.0000 (  4152 PWs)   bands (ev):

   -17.7726 -11.8664  -9.4671  -5.3329   2.0905   6.3914   7.2648   7.9178
     8.5416   9.5279  10.5104  11.9240  12.2904  14.4574

     occupation numbers 
     1.0000   1.0000   1.0000   1.0000   0.0000   0.0000   0.0000   0.0000
     0.0000   0.0000   0.0000   0.0000   0.0000   0.0000

          k = 0.1667 0.4811 0.0000 (  4152 PWs)   bands (ev):

   -16.8255 -13.1443  -9.8040  -4.3711   0.8324   7.7447   8.4114   8.5459
     9.3419  10.5978  11.8420  12.2225  12.2829  14.4493

     occupation numbers 
     1.0000   1.0000   1.0000   0.9999   0.0001   0.0000   0.0000   0.0000
     0.0000   0.0000   0.0000   0.0000   0.0000   0.0000

          k = 0.1667 0.5453 0.0000 (  4168 PWs)   bands (ev):

   -15.8479 -14.3001  -9.9687  -3.6035  -0.0921   8.3121   9.2907   9.7156
    10.8820  10.9736  11.1625  12.4549  12.7215  13.3593

     occupation numbers 
     1.0000   1.0000   1.0000   0.9990   0.0025   0.0000   0.0000   0.0000
     0.0000   0.0000   0.0000   0.0000   0.0000   0.0000

          k = 0.1667 0.6094 0.0000 (  4168 PWs)   bands (ev):

   -15.8479 -14.3001  -9.9687  -3.6035  -0.0921   8.3121   9.2907   9.7156
    10.8820  10.9736  11.1625  12.4549  12.7216  13.3593

     occupation numbers 
     1.0000   1.0000   1.0000   0.9990   0.0025   0.0000   0.0000   0.0000
     0.0000   0.0000   0.0000   0.0000   0.0000   0.0000

          k = 0.1667 0.6736 0.0000 (  4152 PWs)   bands (ev):

   -16.8255 -13.1443  -9.8040  -4.3711   0.8324   7.7447   8.4114   8.5459
     9.3419  10.5978  11.8420  12.2225  12.2829  14.4494

     occupation numbers 
     1.0000   1.0000   1.0000   0.9999   0.0001   0.0000   0.0000   0.0000
     0.0000   0.0000   0.0000   0.0000   0.0000   0.0000

          k = 0.1667 0.7377 0.0000 (  4152 PWs)   bands (ev):

   -17.7726 -11.8664  -9.4671  -5.3329   2.0905   6.3914   7.2648   7.9178
     8.5416   9.5279  10.5104  11.9240  12.2904  14.4574

     occupation numbers 
     1.0000   1.0000   1.0000   1.0000   0.0000   0.0000   0.0000   0.0000
     0.0000   0.0000   0.0000   0.0000   0.0000   0.0000

          k = 0.1667 0.8019 0.0000 (  4159 PWs)   bands (ev):

   -18.6085 -10.6103  -8.9341  -6.2549   3.4199   5.2122   6.1100   6.7082
     8.4356   8.6150   9.3565  10.7609  11.9415  13.4951

     occupation numbers 
     1.0000   1.0000   1.0000   1.0000   0.0000   0.0000   0.0000   0.0000
     0.0000   0.0000   0.0000   0.0000   0.0000   0.0000

          k = 0.1667 0.8660 0.0000 (  4166 PWs)   bands (ev):

   -19.3165  -9.4989  -8.1690  -7.0640   4.2231   4.7122   5.1294   5.6958
     7.4814   8.1913   8.5249   9.9210  11.2352  12.5303

     occupation numbers 
     1.0000   1.0000   1.0000   1.0000   0.0000   0.0000   0.0000   0.0000
     0.0000   0.0000   0.0000   0.0000   0.0000   0.0000

          k = 0.1667 0.9302 0.0000 (  4160 PWs)   bands (ev):

   -19.8890  -8.5815  -7.7307  -7.2451   3.4288   4.3370   4.8849   5.8983
     6.7065   7.4027   7.7097   9.7969  10.5488  11.7502

     occupation numbers 
     1.0000   1.0000   1.0000   1.0000   0.0000   0.0000   0.0000   0.0000
     0.0000   0.0000   0.0000   0.0000   0.0000   0.0000

          k = 0.1667 0.9943 0.0000 (  4170 PWs)   bands (ev):

   -20.3215  -8.2400  -7.7790  -6.4170   2.8319   3.7400   4.2764   6.1070
     6.7751   6.9315   7.0620   9.7188  10.0005  11.1592

     occupation numbers 
     1.0000   1.0000   1.0000   1.0000   0.0000   0.0000   0.0000   0.0000
     0.0000   0.0000   0.0000   0.0000   0.0000   0.0000

          k = 0.1667 1.0585 0.0000 (  4166 PWs)   bands (ev):

   -20.6113  -8.5831  -7.0648  -5.9158   2.4339   3.3408   3.8709   5.7151
     6.4651   6.7653   7.7069   9.2056   9.6231  10.7629

     occupation numbers 
     1.0000   1.0000   1.0000   1.0000   0.0000   0.0000   0.0000   0.0000
     0.0000   0.0000   0.0000   0.0000   0.0000   0.0000

          k = 0.1667 1.1226 0.0000 (  4167 PWs)   bands (ev):

   -20.7565  -8.7558  -6.5473  -5.7936   2.2351   3.1409   3.6684   5.5176
     6.3173   6.9578   8.1385   8.4215   9.4289  10.5671

     occupation numbers 
     1.0000   1.0000   1.0000   1.0000   0.0000   0.0000   0.0000   0.0000
     0.0000   0.0000   0.0000   0.0000   0.0000   0.0000

          k = 0.1667 1.1868 0.0000 (  4167 PWs)   bands (ev):

   -20.7565  -8.7558  -6.5473  -5.7936   2.2351   3.1409   3.6684   5.5176
     6.3173   6.9578   8.1385   8.4215   9.4289  10.5671

     occupation numbers 
     1.0000   1.0000   1.0000   1.0000   0.0000   0.0000   0.0000   0.0000
     0.0000   0.0000   0.0000   0.0000   0.0000   0.0000

          k = 0.2222 0.1283 0.0000 (  4170 PWs)   bands (ev):

   -20.1048  -8.4392  -7.9853  -6.5135   3.1296   4.0363   4.5798   6.2556
     6.4998   6.5039   7.2692  10.2899  10.8576  11.4496

     occupation numbers 
     1.0000   1.0000   1.0000   1.0000   0.0000   0.0000   0.0000   0.0000
     0.0000   0.0000   0.0000   0.0000   0.0000   0.0000

          k = 0.2222 0.1925 0.0000 (  4167 PWs)   bands (ev):

   -19.7452  -9.1701  -7.5646  -7.0213   3.6263   4.5225   5.0863   5.5120
     6.7135   6.9175   7.7599  10.7502  11.2519  11.9462

     occupation numbers 
     1.0000   1.0000   1.0000   1.0000   0.0000   0.0000   0.0000   0.0000
     0.0000   0.0000   0.0000   0.0000   0.0000   0.0000

          k = 0.2222 0.2566 0.0000 (  4173 PWs)   bands (ev):

   -19.2451  -9.8948  -7.8887  -6.9841   4.3214   4.4917   5.2498   5.7961
     7.4746   7.5886   8.4564  11.0590  11.3452  12.6289

     occupation numbers 
     1.0000   1.0000   1.0000   1.0000   0.0000   0.0000   0.0000   0.0000
     0.0000   0.0000   0.0000   0.0000   0.0000   0.0000

          k = 0.2222 0.3208 0.0000 (  4159 PWs)   bands (ev):

   -18.6085 -10.6103  -8.9341  -6.2549   3.4199   5.2122   6.1100   6.7082
     8.4356   8.6150   9.3565  10.7609  11.9415  13.4951

     occupation numbers 
     1.0000   1.0000   1.0000   1.0000   0.0000   0.0000   0.0000   0.0000
     0.0000   0.0000   0.0000   0.0000   0.0000   0.0000

          k = 0.2222 0.3849 0.0000 (  4148 PWs)   bands (ev):

   -17.8420 -11.4072  -9.9060  -5.3959   2.2683   6.2943   7.1498   7.8209
     9.4055   9.7686  10.4576  10.6698  12.1078  14.3938

     occupation numbers 
     1.0000   1.0000   1.0000   1.0000   0.0000   0.0000   0.0000   0.0000
     0.0000   0.0000   0.0000   0.0000   0.0000   0.0000

          k = 0.2222 0.4491 0.0000 (  4142 PWs)   bands (ev):

   -16.9575 -12.4084 -10.5648  -4.4459   1.0951   7.5588   8.2872   9.1299
     9.9753  10.2937  11.4802  11.7542  12.0594  15.1234

     occupation numbers 
     1.0000   1.0000   1.0000   1.0000   0.0000   0.0000   0.0000   0.0000
     0.0000   0.0000   0.0000   0.0000   0.0000   0.0000

          k = 0.2222 0.5132 0.0000 (  4143 PWs)   bands (ev):

   -15.9877 -13.5252 -10.9046  -3.5120   0.0197   8.9796   9.2121   9.8638
    10.6437  10.9251  11.7640  12.7882  13.0814  14.0060

     occupation numbers 
     1.0000   1.0000   1.0000   0.9986   0.0017   0.0000   0.0000   0.0000
     0.0000   0.0000   0.0000   0.0000   0.0000   0.0000

          k = 0.2222 0.5774 0.0000 (  4164 PWs)   bands (ev):

   -15.2535 -14.3209 -11.0090  -3.0103  -0.5318   9.4715   9.7889  10.4033
    10.6597  11.7626  12.2962  12.3489  12.5942  14.1471

     occupation numbers 
     1.0000   1.0000   1.0000   0.9914   0.0126   0.0000   0.0000   0.0000
     0.0000   0.0000   0.0000   0.0000   0.0000   0.0000

          k = 0.2222 0.6415 0.0000 (  4143 PWs)   bands (ev):

   -15.9877 -13.5252 -10.9046  -3.5120   0.0197   8.9796   9.2121   9.8638
    10.6437  10.9251  11.7641  12.7882  13.0814  14.0060

     occupation numbers 
     1.0000   1.0000   1.0000   0.9986   0.0017   0.0000   0.0000   0.0000
     0.0000   0.0000   0.0000   0.0000   0.0000   0.0000

          k = 0.2222 0.7057 0.0000 (  4142 PWs)   bands (ev):

   -16.9575 -12.4084 -10.5648  -4.4459   1.0951   7.5588   8.2872   9.1299
     9.9753  10.2937  11.4802  11.7542  12.0594  15.1232

     occupation numbers 
     1.0000   1.0000   1.0000   1.0000   0.0000   0.0000   0.0000   0.0000
     0.0000   0.0000   0.0000   0.0000   0.0000   0.0000

          k = 0.2222 0.7698 0.0000 (  4148 PWs)   bands (ev):

   -17.8420 -11.4072  -9.9060  -5.3959   2.2683   6.2943   7.1498   7.8209
     9.4055   9.7686  10.4576  10.6698  12.1078  14.3938

     occupation numbers 
     1.0000   1.0000   1.0000   1.0000   0.0000   0.0000   0.0000   0.0000
     0.0000   0.0000   0.0000   0.0000   0.0000   0.0000

          k = 0.2222 0.8340 0.0000 (  4159 PWs)   bands (ev):

   -18.6085 -10.6103  -8.9341  -6.2549   3.4199   5.2122   6.1100   6.7082
     8.4356   8.6150   9.3565  10.7608  11.9415  13.4951

     occupation numbers 
     1.0000   1.0000   1.0000   1.0000   0.0000   0.0000   0.0000   0.0000
     0.0000   0.0000   0.0000   0.0000   0.0000   0.0000

          k = 0.2222 0.8981 0.0000 (  4173 PWs)   bands (ev):

   -19.2451  -9.8948  -7.8887  -6.9841   4.3214   4.4917   5.2498   5.7961
     7.4746   7.5886   8.4564  11.0590  11.3452  12.6289

     occupation numbers 
     1.0000   1.0000   1.0000   1.0000   0.0000   0.0000   0.0000   0.0000
     0.0000   0.0000   0.0000   0.0000   0.0000   0.0000

          k = 0.2222 0.9623 0.0000 (  4167 PWs)   bands (ev):

   -19.7452  -9.1701  -7.5646  -7.0213   3.6263   4.5225   5.0863   5.5120
     6.7135   6.9175   7.7599  10.7502  11.2519  11.9462

     occupation numbers 
     1.0000   1.0000   1.0000   1.0000   0.0000   0.0000   0.0000   0.0000
     0.0000   0.0000   0.0000   0.0000   0.0000   0.0000

          k = 0.2222 1.0264 0.0000 (  4170 PWs)   bands (ev):

   -20.1048  -8.4392  -7.9853  -6.5135   3.1296   4.0363   4.5798   6.2556
     6.4998   6.5039   7.2692  10.2899  10.8576  11.4496

     occupation numbers 
     1.0000   1.0000   1.0000   1.0000   0.0000   0.0000   0.0000   0.0000
     0.0000   0.0000   0.0000   0.0000   0.0000   0.0000

          k = 0.2222 1.0906 0.0000 (  4170 PWs)   bands (ev):

   -20.3215  -8.2400  -7.7790  -6.4170   2.8319   3.7400   4.2764   6.1070
     6.7751   6.9315   7.0620   9.7188  10.0005  11.1592

     occupation numbers 
     1.0000   1.0000   1.0000   1.0000   0.0000   0.0000   0.0000   0.0000
     0.0000   0.0000   0.0000   0.0000   0.0000   0.0000

          k = 0.2222 1.1547 0.0000 (  4147 PWs)   bands (ev):

   -20.3939  -8.3249  -7.4455  -6.5013   2.7329   3.6409   4.1753   6.0133
     6.8038   7.1379   7.3977   8.9364   9.9010  11.0624

     occupation numbers 
     1.0000   1.0000   1.0000   1.0000   0.0000   0.0000   0.0000   0.0000
     0.0000   0.0000   0.0000   0.0000   0.0000   0.0000

          k = 0.2222 1.2189 0.0000 (  4170 PWs)   bands (ev):

   -20.3215  -8.2400  -7.7790  -6.4170   2.8319   3.7400   4.2764   6.1070
     6.7751   6.9315   7.0620   9.7188  10.0005  11.1592

     occupation numbers 
     1.0000   1.0000   1.0000   1.0000   0.0000   0.0000   0.0000   0.0000
     0.0000   0.0000   0.0000   0.0000   0.0000   0.0000

          k = 0.2778 0.1604 0.0000 (  4172 PWs)   bands (ev):

   -19.4586  -9.8997  -7.2345  -7.0707   4.0214   4.6830   5.0733   5.4880
     6.3082   7.3164   8.1488  11.1317  12.3261  12.7007

     occupation numbers 
     1.0000   1.0000   1.0000   1.0000   0.0000   0.0000   0.0000   0.0000
     0.0000   0.0000   0.0000   0.0000   0.0000   0.0000

          k = 0.2778 0.2245 0.0000 (  4166 PWs)   bands (ev):

   -19.0314 -10.6204  -7.5488  -6.7456   3.9524   4.6153   5.5622   6.0901
     6.5311   7.8990   8.7419  11.6555  12.7541  12.9604

     occupation numbers 
     1.0000   1.0000   1.0000   1.0000   0.0000   0.0000   0.0000   0.0000
     0.0000   0.0000   0.0000   0.0000   0.0000   0.0000

          k = 0.2778 0.2887 0.0000 (  4169 PWs)   bands (ev):

   -18.4674 -11.2806  -8.4001  -6.1072   3.0485   5.4070   6.3276   6.9015
     7.3278   8.6529   9.5315  12.2001  12.3577  13.6920

     occupation numbers 
     1.0000   1.0000   1.0000   1.0000   0.0000   0.0000   0.0000   0.0000
     0.0000   0.0000   0.0000   0.0000   0.0000   0.0000

          k = 0.2778 0.3528 0.0000 (  4152 PWs)   bands (ev):

   -17.7726 -11.8664  -9.4671  -5.3329   2.0905   6.3914   7.2648   7.9178
     8.5416   9.5279  10.5104  11.9240  12.2904  14.4574

     occupation numbers 
     1.0000   1.0000   1.0000   1.0000   0.0000   0.0000   0.0000   0.0000
     0.0000   0.0000   0.0000   0.0000   0.0000   0.0000

          k = 0.2778 0.4170 0.0000 (  4142 PWs)   bands (ev):

   -16.9575 -12.4084 -10.5648  -4.4459   1.0951   7.5588   8.2872   9.1299
     9.9753  10.2937  11.4802  11.7542  12.0594  15.1233

     occupation numbers 
     1.0000   1.0000   1.0000   1.0000   0.0000   0.0000   0.0000   0.0000
     0.0000   0.0000   0.0000   0.0000   0.0000   0.0000

          k = 0.2778 0.4811 0.0000 (  4132 PWs)   bands (ev):

   -16.0430 -13.0337 -11.4488  -3.4894   0.0828   8.8876   9.0142  10.5290
    10.8016  11.2625  11.3157  12.7739  13.0117  15.0272

     occupation numbers 
     1.0000   1.0000   1.0000   0.9985   0.0013   0.0000   0.0000   0.0000
     0.0000   0.0000   0.0000   0.0000   0.0000   0.0000

          k = 0.2778 0.5453 0.0000 (  4134 PWs)   bands (ev):

   -15.1043 -13.8503 -11.8806  -2.6081  -0.8207   9.0954  10.2940  11.1149
    11.5793  11.9325  12.1405  13.5844  13.6913  14.2247

     occupation numbers 
     1.0000   1.0000   1.0000   0.9633   0.0356   0.0000   0.0000   0.0000
     0.0000   0.0000   0.0000   0.0000   0.0000   0.0000

          k = 0.2778 0.6094 0.0000 (  4134 PWs)   bands (ev):

   -15.1043 -13.8503 -11.8806  -2.6081  -0.8207   9.0954  10.2940  11.1149
    11.5794  11.9326  12.1405  13.5844  13.6913  14.2245

     occupation numbers 
     1.0000   1.0000   1.0000   0.9633   0.0356   0.0000   0.0000   0.0000
     0.0000   0.0000   0.0000   0.0000   0.0000   0.0000

          k = 0.2778 0.6736 0.0000 (  4132 PWs)   bands (ev):

   -16.0430 -13.0337 -11.4488  -3.4894   0.0828   8.8876   9.0142  10.5290
    10.8016  11.2625  11.3157  12.7739  13.0117  15.0273

     occupation numbers 
     1.0000   1.0000   1.0000   0.9985   0.0013   0.0000   0.0000   0.0000
     0.0000   0.0000   0.0000   0.0000   0.0000   0.0000

          k = 0.2778 0.7377 0.0000 (  4142 PWs)   bands (ev):

   -16.9575 -12.4084 -10.5648  -4.4459   1.0951   7.5588   8.2872   9.1299
     9.9753  10.2937  11.4802  11.7542  12.0594  15.1232

     occupation numbers 
     1.0000   1.0000   1.0000   1.0000   0.0000   0.0000   0.0000   0.0000
     0.0000   0.0000   0.0000   0.0000   0.0000   0.0000

          k = 0.2778 0.8019 0.0000 (  4152 PWs)   bands (ev):

   -17.7726 -11.8664  -9.4671  -5.3329   2.0905   6.3914   7.2648   7.9178
     8.5416   9.5279  10.5104  11.9240  12.2904  14.4574

     occupation numbers 
     1.0000   1.0000   1.0000   1.0000   0.0000   0.0000   0.0000   0.0000
     0.0000   0.0000   0.0000   0.0000   0.0000   0.0000

          k = 0.2778 0.8660 0.0000 (  4169 PWs)   bands (ev):

   -18.4674 -11.2806  -8.4001  -6.1072   3.0485   5.4070   6.3276   6.9015
     7.3278   8.6529   9.5315  12.2001  12.3577  13.6920

     occupation numbers 
     1.0000   1.0000   1.0000   1.0000   0.0000   0.0000   0.0000   0.0000
     0.0000   0.0000   0.0000   0.0000   0.0000   0.0000

          k = 0.2778 0.9302 0.0000 (  4166 PWs)   bands (ev):

   -19.0314 -10.6204  -7.5488  -6.7456   3.9524   4.6153   5.5622   6.0901
     6.5311   7.8990   8.7419  11.6555  12.7541  12.9604

     occupation numbers 
     1.0000   1.0000   1.0000   1.0000   0.0000   0.0000   0.0000   0.0000
     0.0000   0.0000   0.0000   0.0000   0.0000   0.0000

          k = 0.2778 0.9943 0.0000 (  4172 PWs)   bands (ev):

   -19.4586  -9.8997  -7.2345  -7.0707   4.0214   4.6830   5.0733   5.4880
     6.3082   7.3164   8.1488  11.1317  12.3261  12.7007

     occupation numbers 
     1.0000   1.0000   1.0000   1.0000   0.0000   0.0000   0.0000   0.0000
     0.0000   0.0000   0.0000   0.0000   0.0000   0.0000

          k = 0.2778 1.0585 0.0000 (  4167 PWs)   bands (ev):

   -19.7452  -9.1701  -7.5646  -7.0213   3.6263   4.5225   5.0863   5.5120
     6.7135   6.9175   7.7599  10.7502  11.2519  11.9462

     occupation numbers 
     1.0000   1.0000   1.0000   1.0000   0.0000   0.0000   0.0000   0.0000
     0.0000   0.0000   0.0000   0.0000   0.0000   0.0000

          k = 0.2778 1.1226 0.0000 (  4160 PWs)   bands (ev):

   -19.8890  -8.5815  -7.7307  -7.2451   3.4288   4.3370   4.8849   5.8983
     6.7065   7.4027   7.7097   9.7969  10.5488  11.7502

     occupation numbers 
     1.0000   1.0000   1.0000   1.0000   0.0000   0.0000   0.0000   0.0000
     0.0000   0.0000   0.0000   0.0000   0.0000   0.0000

          k = 0.2778 1.1868 0.0000 (  4160 PWs)   bands (ev):

   -19.8890  -8.5815  -7.7307  -7.2451   3.4288   4.3370   4.8849   5.8983
     6.7065   7.4027   7.7097   9.7969  10.5488  11.7502

     occupation numbers 
     1.0000   1.0000   1.0000   1.0000   0.0000   0.0000   0.0000   0.0000
     0.0000   0.0000   0.0000   0.0000   0.0000   0.0000

          k = 0.2778 1.2509 0.0000 (  4167 PWs)   bands (ev):

   -19.7452  -9.1701  -7.5646  -7.0213   3.6263   4.5225   5.0863   5.5120
     6.7135   6.9175   7.7599  10.7502  11.2519  11.9462

     occupation numbers 
     1.0000   1.0000   1.0000   1.0000   0.0000   0.0000   0.0000   0.0000
     0.0000   0.0000   0.0000   0.0000   0.0000   0.0000

          k = 0.3333 0.1925 0.0000 (  4166 PWs)   bands (ev):

   -18.6774 -11.3699  -7.5388  -6.3531   3.2352   5.1022   6.0597   6.0920
     6.6214   8.3968   9.2349  12.1210  13.3853  14.1625

     occupation numbers 
     1.0000   1.0000   1.0000   1.0000   0.0000   0.0000   0.0000   0.0000
     0.0000   0.0000   0.0000   0.0000   0.0000   0.0000

          k = 0.3333 0.2566 0.0000 (  4163 PWs)   bands (ev):

   -18.1868 -12.0601  -7.9662  -5.8165   2.4452   5.7821   6.3436   6.7423
     7.3243   9.0681   9.9248  12.6380  13.4671  14.0737

     occupation numbers 
     1.0000   1.0000   1.0000   1.0000   0.0000   0.0000   0.0000   0.0000
     0.0000   0.0000   0.0000   0.0000   0.0000   0.0000

          k = 0.3333 0.3208 0.0000 (  4166 PWs)   bands (ev):

   -17.5659 -12.6567  -8.7713  -5.1491   1.6379   6.6672   7.1704   7.5941
     8.2330   9.8724  10.8048  12.7284  12.7771  14.3973

     occupation numbers 
     1.0000   1.0000   1.0000   1.0000   0.0000   0.0000   0.0000   0.0000
     0.0000   0.0000   0.0000   0.0000   0.0000   0.0000

          k = 0.3333 0.3849 0.0000 (  4152 PWs)   bands (ev):

   -16.8255 -13.1443  -9.8040  -4.3711   0.8324   7.7447   8.4114   8.5459
     9.3419  10.5978  11.8420  12.2226  12.2829  14.4500

     occupation numbers 
     1.0000   1.0000   1.0000   0.9999   0.0001   0.0000   0.0000   0.0000
     0.0000   0.0000   0.0000   0.0000   0.0000   0.0000

          k = 0.3333 0.4491 0.0000 (  4143 PWs)   bands (ev):

   -15.9877 -13.5252 -10.9046  -3.5120   0.0197   8.9796   9.2121   9.8638
    10.6437  10.9251  11.7641  12.7882  13.0814  14.0061

     occupation numbers 
     1.0000   1.0000   1.0000   0.9986   0.0017   0.0000   0.0000   0.0000
     0.0000   0.0000   0.0000   0.0000   0.0000   0.0000

          k = 0.3333 0.5132 0.0000 (  4134 PWs)   bands (ev):

   -15.1043 -13.8503 -11.8806  -2.6081  -0.8207   9.0954  10.2940  11.1149
    11.5794  11.9325  12.1405  13.5844  13.6913  14.2246

     occupation numbers 
     1.0000   1.0000   1.0000   0.9633   0.0356   0.0000   0.0000   0.0000
     0.0000   0.0000   0.0000   0.0000   0.0000   0.0000

          k = 0.3333 0.5774 0.0000 (  4140 PWs)   bands (ev):

   -14.3234 -14.3234 -12.3329  -1.7003  -1.7003   8.9515  11.2243  11.2243
    11.8254  13.2671  13.2671  13.5489  13.5489  13.7736

     occupation numbers 
     1.0000   1.0000   1.0000   0.4832   0.4832   0.0000   0.0000   0.0000
     0.0000   0.0000   0.0000   0.0000   0.0000   0.0000

          k = 0.3333 0.6415 0.0000 (  4134 PWs)   bands (ev):

   -15.1043 -13.8503 -11.8806  -2.6081  -0.8207   9.0954  10.2940  11.1149
    11.5793  11.9325  12.1406  13.5844  13.6913  14.2246

     occupation numbers 
     1.0000   1.0000   1.0000   0.9633   0.0356   0.0000   0.0000   0.0000
     0.0000   0.0000   0.0000   0.0000   0.0000   0.0000

          k = 0.3333 0.7057 0.0000 (  4143 PWs)   bands (ev):

   -15.9877 -13.5252 -10.9046  -3.5120   0.0197   8.9796   9.2121   9.8638
    10.6437  10.9251  11.7641  12.7882  13.0814  14.0061

     occupation numbers 
     1.0000   1.0000   1.0000   0.9986   0.0017   0.0000   0.0000   0.0000
     0.0000   0.0000   0.0000   0.0000   0.0000   0.0000

          k = 0.3333 0.7698 0.0000 (  4152 PWs)   bands (ev):

   -16.8255 -13.1443  -9.8040  -4.3711   0.8324   7.7447   8.4114   8.5459
     9.3419  10.5978  11.8420  12.2225  12.2829  14.4495

     occupation numbers 
     1.0000   1.0000   1.0000   0.9999   0.0001   0.0000   0.0000   0.0000
     0.0000   0.0000   0.0000   0.0000   0.0000   0.0000

          k = 0.3333 0.8340 0.0000 (  4166 PWs)   bands (ev):

   -17.5659 -12.6567  -8.7713  -5.1491   1.6379   6.6672   7.1704   7.5941
     8.2330   9.8724  10.8048  12.7284  12.7771  14.3973

     occupation numbers 
     1.0000   1.0000   1.0000   1.0000   0.0000   0.0000   0.0000   0.0000
     0.0000   0.0000   0.0000   0.0000   0.0000   0.0000

          k = 0.3333 0.8981 0.0000 (  4163 PWs)   bands (ev):

   -18.1868 -12.0601  -7.9662  -5.8165   2.4452   5.7821   6.3436   6.7423
     7.3243   9.0681   9.9248  12.6380  13.4671  14.0737

     occupation numbers 
     1.0000   1.0000   1.0000   1.0000   0.0000   0.0000   0.0000   0.0000
     0.0000   0.0000   0.0000   0.0000   0.0000   0.0000

          k = 0.3333 0.9623 0.0000 (  4166 PWs)   bands (ev):

   -18.6774 -11.3699  -7.5388  -6.3531   3.2352   5.1022   6.0597   6.0920
     6.6214   8.3968   9.2349  12.1210  13.3853  14.1625

     occupation numbers 
     1.0000   1.0000   1.0000   1.0000   0.0000   0.0000   0.0000   0.0000
     0.0000   0.0000   0.0000   0.0000   0.0000   0.0000

          k = 0.3333 1.0264 0.0000 (  4166 PWs)   bands (ev):

   -19.0314 -10.6204  -7.5488  -6.7456   3.9524   4.6153   5.5622   6.0901
     6.5311   7.8990   8.7419  11.6555  12.7541  12.9604

     occupation numbers 
     1.0000   1.0000   1.0000   1.0000   0.0000   0.0000   0.0000   0.0000
     0.0000   0.0000   0.0000   0.0000   0.0000   0.0000

          k = 0.3333 1.0906 0.0000 (  4173 PWs)   bands (ev):

   -19.2451  -9.8948  -7.8887  -6.9841   4.3214   4.4917   5.2498   5.7961
     7.4746   7.5886   8.4564  11.0590  11.3452  12.6289

     occupation numbers 
     1.0000   1.0000   1.0000   1.0000   0.0000   0.0000   0.0000   0.0000
     0.0000   0.0000   0.0000   0.0000   0.0000   0.0000

          k = 0.3333 1.1547 0.0000 (  4166 PWs)   bands (ev):

   -19.3165  -9.4989  -8.1690  -7.0640   4.2231   4.7122   5.1294   5.6958
     7.4814   8.1913   8.5249   9.9210  11.2352  12.5303

     occupation numbers 
     1.0000   1.0000   1.0000   1.0000   0.0000   0.0000   0.0000   0.0000
     0.0000   0.0000   0.0000   0.0000   0.0000   0.0000

          k = 0.3333 1.2189 0.0000 (  4173 PWs)   bands (ev):

   -19.2451  -9.8948  -7.8887  -6.9841   4.3214   4.4917   5.2498   5.7961
     7.4746   7.5886   8.4564  11.0590  11.3452  12.6289

     occupation numbers 
     1.0000   1.0000   1.0000   1.0000   0.0000   0.0000   0.0000   0.0000
     0.0000   0.0000   0.0000   0.0000   0.0000   0.0000

          k = 0.3333 1.2830 0.0000 (  4166 PWs)   bands (ev):

   -19.0314 -10.6204  -7.5488  -6.7456   3.9524   4.6153   5.5622   6.0901
     6.5311   7.8990   8.7419  11.6555  12.7541  12.9605

     occupation numbers 
     1.0000   1.0000   1.0000   1.0000   0.0000   0.0000   0.0000   0.0000
     0.0000   0.0000   0.0000   0.0000   0.0000   0.0000

          k = 0.3889 0.2245 0.0000 (  4160 PWs)   bands (ev):

   -17.7706 -12.7948  -7.8890  -5.3949   1.7532   5.8862   6.4291   7.3417
     7.9290   9.6611  10.5152  13.0325  13.1060  14.2595

     occupation numbers 
     1.0000   1.0000   1.0000   1.0000   0.0000   0.0000   0.0000   0.0000
     0.0000   0.0000   0.0000   0.0000   0.0000   0.0000

          k = 0.3889 0.2887 0.0000 (  4169 PWs)   bands (ev):

   -17.2267 -13.4351  -8.2536  -4.8614   1.0696   6.1659   7.1967   8.1138
     8.7367  10.4005  11.2955  12.2070  12.9101  14.0415

     occupation numbers 
     1.0000   1.0000   1.0000   1.0000   0.0000   0.0000   0.0000   0.0000
     0.0000   0.0000   0.0000   0.0000   0.0000   0.0000

          k = 0.3889 0.3528 0.0000 (  4173 PWs)   bands (ev):

   -16.5707 -13.9507  -8.9964  -4.2475   0.4463   7.0290   8.1610   9.0112
     9.7438  11.1028  11.4693  12.2621  12.2630  13.3269

     occupation numbers 
     1.0000   1.0000   1.0000   0.9999   0.0004   0.0000   0.0000   0.0000
     0.0000   0.0000   0.0000   0.0000   0.0000   0.0000

          k = 0.3889 0.4170 0.0000 (  4168 PWs)   bands (ev):

   -15.8479 -14.3001  -9.9687  -3.6035  -0.0921   8.3121   9.2907   9.7156
    10.8820  10.9736  11.1625  12.4549  12.7215  13.3593

     occupation numbers 
     1.0000   1.0000   1.0000   0.9990   0.0025   0.0000   0.0000   0.0000
     0.0000   0.0000   0.0000   0.0000   0.0000   0.0000

          k = 0.3889 0.4811 0.0000 (  4164 PWs)   bands (ev):

   -15.2535 -14.3209 -11.0090  -3.0103  -0.5318   9.4715   9.7889  10.4033
    10.6597  11.7626  12.2962  12.3489  12.5942  14.1474

     occupation numbers 
     1.0000   1.0000   1.0000   0.9914   0.0126   0.0000   0.0000   0.0000
     0.0000   0.0000   0.0000   0.0000   0.0000   0.0000

          k = 0.3889 0.5453 0.0000 (  4134 PWs)   bands (ev):

   -15.1043 -13.8503 -11.8806  -2.6081  -0.8207   9.0954  10.2940  11.1149
    11.5793  11.9325  12.1405  13.5844  13.6912  14.2247

     occupation numbers 
     1.0000   1.0000   1.0000   0.9633   0.0356   0.0000   0.0000   0.0000
     0.0000   0.0000   0.0000   0.0000   0.0000   0.0000

          k = 0.3889 0.6094 0.0000 (  4134 PWs)   bands (ev):

   -15.1043 -13.8503 -11.8806  -2.6081  -0.8207   9.0954  10.2940  11.1149
    11.5794  11.9325  12.1405  13.5844  13.6913  14.2245

     occupation numbers 
     1.0000   1.0000   1.0000   0.9633   0.0356   0.0000   0.0000   0.0000
     0.0000   0.0000   0.0000   0.0000   0.0000   0.0000

          k = 0.3889 0.6736 0.0000 (  4164 PWs)   bands (ev):

   -15.2535 -14.3209 -11.0090  -3.0103  -0.5318   9.4715   9.7889  10.4033
    10.6597  11.7626  12.2962  12.3489  12.5942  14.1473

     occupation numbers 
     1.0000   1.0000   1.0000   0.9914   0.0126   0.0000   0.0000   0.0000
     0.0000   0.0000   0.0000   0.0000   0.0000   0.0000

          k = 0.3889 0.7377 0.0000 (  4168 PWs)   bands (ev):

   -15.8479 -14.3001  -9.9687  -3.6035  -0.0921   8.3121   9.2907   9.7156
    10.8820  10.9736  11.1625  12.4549  12.7215  13.3593

     occupation numbers 
     1.0000   1.0000   1.0000   0.9990   0.0025   0.0000   0.0000   0.0000
     0.0000   0.0000   0.0000   0.0000   0.0000   0.0000

          k = 0.3889 0.8019 0.0000 (  4173 PWs)   bands (ev):

   -16.5707 -13.9507  -8.9964  -4.2475   0.4463   7.0290   8.1610   9.0112
     9.7438  11.1028  11.4693  12.2621  12.2630  13.3269

     occupation numbers 
     1.0000   1.0000   1.0000   0.9999   0.0004   0.0000   0.0000   0.0000
     0.0000   0.0000   0.0000   0.0000   0.0000   0.0000

          k = 0.3889 0.8660 0.0000 (  4169 PWs)   bands (ev):

   -17.2267 -13.4351  -8.2536  -4.8614   1.0696   6.1659   7.1967   8.1138
     8.7367  10.4005  11.2955  12.2070  12.9101  14.0415

     occupation numbers 
     1.0000   1.0000   1.0000   1.0000   0.0000   0.0000   0.0000   0.0000
     0.0000   0.0000   0.0000   0.0000   0.0000   0.0000

          k = 0.3889 0.9302 0.0000 (  4160 PWs)   bands (ev):

   -17.7706 -12.7948  -7.8890  -5.3949   1.7532   5.8862   6.4291   7.3417
     7.9290   9.6611  10.5152  13.0325  13.1060  14.2595

     occupation numbers 
     1.0000   1.0000   1.0000   1.0000   0.0000   0.0000   0.0000   0.0000
     0.0000   0.0000   0.0000   0.0000   0.0000   0.0000

          k = 0.3889 0.9943 0.0000 (  4163 PWs)   bands (ev):

   -18.1868 -12.0601  -7.9662  -5.8165   2.4452   5.7821   6.3436   6.7423
     7.3243   9.0681   9.9248  12.6380  13.4670  14.0737

     occupation numbers 
     1.0000   1.0000   1.0000   1.0000   0.0000   0.0000   0.0000   0.0000
     0.0000   0.0000   0.0000   0.0000   0.0000   0.0000

          k = 0.3889 1.0585 0.0000 (  4169 PWs)   bands (ev):

   -18.4674 -11.2806  -8.4001  -6.1072   3.0485   5.4070   6.3276   6.9015
     7.3278   8.6529   9.5315  12.2001  12.3577  13.6920

     occupation numbers 
     1.0000   1.0000   1.0000   1.0000   0.0000   0.0000   0.0000   0.0000
     0.0000   0.0000   0.0000   0.0000   0.0000   0.0000

          k = 0.3889 1.1226 0.0000 (  4159 PWs)   bands (ev):

   -18.6085 -10.6103  -8.9341  -6.2549   3.4199   5.2122   6.1100   6.7082
     8.4356   8.6150   9.3565  10.7609  11.9415  13.4951

     occupation numbers 
     1.0000   1.0000   1.0000   1.0000   0.0000   0.0000   0.0000   0.0000
     0.0000   0.0000   0.0000   0.0000   0.0000   0.0000

          k = 0.3889 1.1868 0.0000 (  4159 PWs)   bands (ev):

   -18.6085 -10.6103  -8.9341  -6.2549   3.4199   5.2122   6.1100   6.7082
     8.4356   8.6150   9.3565  10.7609  11.9415  13.4951

     occupation numbers 
     1.0000   1.0000   1.0000   1.0000   0.0000   0.0000   0.0000   0.0000
     0.0000   0.0000   0.0000   0.0000   0.0000   0.0000

          k = 0.3889 1.2509 0.0000 (  4169 PWs)   bands (ev):

   -18.4674 -11.2806  -8.4001  -6.1072   3.0485   5.4070   6.3276   6.9015
     7.3278   8.6529   9.5315  12.2001  12.3577  13.6920

     occupation numbers 
     1.0000   1.0000   1.0000   1.0000   0.0000   0.0000   0.0000   0.0000
     0.0000   0.0000   0.0000   0.0000   0.0000   0.0000

          k = 0.3889 1.3151 0.0000 (  4163 PWs)   bands (ev):

   -18.1868 -12.0601  -7.9662  -5.8165   2.4452   5.7821   6.3436   6.7423
     7.3243   9.0681   9.9248  12.6380  13.4671  14.0737

     occupation numbers 
     1.0000   1.0000   1.0000   1.0000   0.0000   0.0000   0.0000   0.0000
     0.0000   0.0000   0.0000   0.0000   0.0000   0.0000

          k = 0.4444 0.2566 0.0000 (  4178 PWs)   bands (ev):

   -16.7677 -14.1186  -8.1048  -4.5025   0.5273   5.7996   7.8736   8.8084
     9.4433  11.0721  11.2788  11.9835  12.2244  13.0562

     occupation numbers 
     1.0000   1.0000   1.0000   1.0000   0.0003   0.0000   0.0000   0.0000
     0.0000   0.0000   0.0000   0.0000   0.0000   0.0000

          k = 0.4444 0.3208 0.0000 (  4181 PWs)   bands (ev):

   -16.2296 -14.6447  -8.3997  -4.1268   0.1159   6.0998   8.7388   9.6447
    10.3415  10.4563  11.2719  11.9673  12.1556  12.8450

     occupation numbers 
     1.0000   1.0000   1.0000   0.9999   0.0012   0.0000   0.0000   0.0000
     0.0000   0.0000   0.0000   0.0000   0.0000   0.0000

          k = 0.4444 0.3849 0.0000 (  4174 PWs)   bands (ev):

   -15.8141 -14.8089  -9.0718  -3.8075  -0.0933   6.9960   9.6915   9.8584
    10.2422  10.8571  11.4376  11.4652  12.3497  13.2435

     occupation numbers 
     1.0000   1.0000   1.0000   0.9995   0.0025   0.0000   0.0000   0.0000
     0.0000   0.0000   0.0000   0.0000   0.0000   0.0000

          k = 0.4444 0.4491 0.0000 (  4168 PWs)   bands (ev):

   -15.8479 -14.3001  -9.9687  -3.6035  -0.0921   8.3121   9.2907   9.7156
    10.8820  10.9736  11.1625  12.4549  12.7215  13.3593

     occupation numbers 
     1.0000   1.0000   1.0000   0.9990   0.0025   0.0000   0.0000   0.0000
     0.0000   0.0000   0.0000   0.0000   0.0000   0.0000

          k = 0.4444 0.5132 0.0000 (  4143 PWs)   bands (ev):

   -15.9877 -13.5252 -10.9046  -3.5120   0.0197   8.9796   9.2121   9.8638
    10.6437  10.9251  11.7640  12.7882  13.0814  14.0060

     occupation numbers 
     1.0000   1.0000   1.0000   0.9986   0.0017   0.0000   0.0000   0.0000
     0.0000   0.0000   0.0000   0.0000   0.0000   0.0000

          k = 0.4444 0.5774 0.0000 (  4132 PWs)   bands (ev):

   -16.0430 -13.0337 -11.4488  -3.4894   0.0828   8.8876   9.0142  10.5290
    10.8016  11.2626  11.3157  12.7739  13.0117  15.0274

     occupation numbers 
     1.0000   1.0000   1.0000   0.9985   0.0013   0.0000   0.0000   0.0000
     0.0000   0.0000   0.0000   0.0000   0.0000   0.0000

          k = 0.4444 0.6415 0.0000 (  4143 PWs)   bands (ev):

   -15.9877 -13.5252 -10.9046  -3.5120   0.0197   8.9796   9.2121   9.8638
    10.6437  10.9251  11.7640  12.7882  13.0814  14.0060

     occupation numbers 
     1.0000   1.0000   1.0000   0.9986   0.0017   0.0000   0.0000   0.0000
     0.0000   0.0000   0.0000   0.0000   0.0000   0.0000

          k = 0.4444 0.7057 0.0000 (  4168 PWs)   bands (ev):

   -15.8479 -14.3001  -9.9687  -3.6035  -0.0921   8.3121   9.2907   9.7156
    10.8820  10.9736  11.1625  12.4549  12.7215  13.3593

     occupation numbers 
     1.0000   1.0000   1.0000   0.9990   0.0025   0.0000   0.0000   0.0000
     0.0000   0.0000   0.0000   0.0000   0.0000   0.0000

          k = 0.4444 0.7698 0.0000 (  4174 PWs)   bands (ev):

   -15.8141 -14.8089  -9.0718  -3.8075  -0.0933   6.9960   9.6915   9.8584
    10.2422  10.8571  11.4376  11.4652  12.3497  13.2435

     occupation numbers 
     1.0000   1.0000   1.0000   0.9995   0.0025   0.0000   0.0000   0.0000
     0.0000   0.0000   0.0000   0.0000   0.0000   0.0000

          k = 0.4444 0.8340 0.0000 (  4181 PWs)   bands (ev):

   -16.2296 -14.6447  -8.3997  -4.1268   0.1159   6.0998   8.7388   9.6447
    10.3415  10.4563  11.2719  11.9673  12.1556  12.8449

     occupation numbers 
     1.0000   1.0000   1.0000   0.9999   0.0012   0.0000   0.0000   0.0000
     0.0000   0.0000   0.0000   0.0000   0.0000   0.0000

          k = 0.4444 0.8981 0.0000 (  4178 PWs)   bands (ev):

   -16.7677 -14.1186  -8.1048  -4.5025   0.5273   5.7996   7.8736   8.8084
     9.4433  11.0721  11.2788  11.9836  12.2245  13.0562

     occupation numbers 
     1.0000   1.0000   1.0000   1.0000   0.0003   0.0000   0.0000   0.0000
     0.0000   0.0000   0.0000   0.0000   0.0000   0.0000

          k = 0.4444 0.9623 0.0000 (  4169 PWs)   bands (ev):

   -17.2267 -13.4351  -8.2536  -4.8614   1.0696   6.1659   7.1967   8.1138
     8.7367  10.4005  11.2955  12.2070  12.9101  14.0415

     occupation numbers 
     1.0000   1.0000   1.0000   1.0000   0.0000   0.0000   0.0000   0.0000
     0.0000   0.0000   0.0000   0.0000   0.0000   0.0000

          k = 0.4444 1.0264 0.0000 (  4166 PWs)   bands (ev):

   -17.5659 -12.6567  -8.7713  -5.1491   1.6379   6.6672   7.1704   7.5941
     8.2330   9.8724  10.8048  12.7284  12.7771  14.3973

     occupation numbers 
     1.0000   1.0000   1.0000   1.0000   0.0000   0.0000   0.0000   0.0000
     0.0000   0.0000   0.0000   0.0000   0.0000   0.0000

          k = 0.4444 1.0906 0.0000 (  4152 PWs)   bands (ev):

   -17.7726 -11.8664  -9.4671  -5.3329   2.0905   6.3914   7.2648   7.9178
     8.5416   9.5279  10.5104  11.9240  12.2904  14.4574

     occupation numbers 
     1.0000   1.0000   1.0000   1.0000   0.0000   0.0000   0.0000   0.0000
     0.0000   0.0000   0.0000   0.0000   0.0000   0.0000

          k = 0.4444 1.1547 0.0000 (  4148 PWs)   bands (ev):

   -17.8420 -11.4072  -9.9060  -5.3959   2.2683   6.2943   7.1498   7.8209
     9.4055   9.7686  10.4576  10.6698  12.1078  14.3938

     occupation numbers 
     1.0000   1.0000   1.0000   1.0000   0.0000   0.0000   0.0000   0.0000
     0.0000   0.0000   0.0000   0.0000   0.0000   0.0000

          k = 0.4444 1.2189 0.0000 (  4152 PWs)   bands (ev):

   -17.7726 -11.8664  -9.4671  -5.3329   2.0905   6.3914   7.2648   7.9178
     8.5416   9.5279  10.5104  11.9240  12.2904  14.4575

     occupation numbers 
     1.0000   1.0000   1.0000   1.0000   0.0000   0.0000   0.0000   0.0000
     0.0000   0.0000   0.0000   0.0000   0.0000   0.0000

          k = 0.4444 1.2830 0.0000 (  4166 PWs)   bands (ev):

   -17.5659 -12.6567  -8.7713  -5.1491   1.6379   6.6672   7.1704   7.5941
     8.2330   9.8724  10.8048  12.7284  12.7771  14.3973

     occupation numbers 
     1.0000   1.0000   1.0000   1.0000   0.0000   0.0000   0.0000   0.0000
     0.0000   0.0000   0.0000   0.0000   0.0000   0.0000

          k = 0.4444 1.3472 0.0000 (  4169 PWs)   bands (ev):

   -17.2267 -13.4351  -8.2536  -4.8614   1.0696   6.1659   7.1967   8.1138
     8.7367  10.4005  11.2955  12.2070  12.9101  14.0415

     occupation numbers 
     1.0000   1.0000   1.0000   1.0000   0.0000   0.0000   0.0000   0.0000
     0.0000   0.0000   0.0000   0.0000   0.0000   0.0000

          k = 0.5000 0.2887 0.0000 (  4168 PWs)   bands (ev):

   -16.0013 -14.9933  -8.1774  -4.0750  -0.0134   5.7644   9.4359   9.5844
    10.3232  10.5549  11.1452  11.1677  12.4711  12.9419

     occupation numbers 
     1.0000   1.0000   1.0000   0.9998   0.0019   0.0000   0.0000   0.0000
     0.0000   0.0000   0.0000   0.0000   0.0000   0.0000

          k = 0.5000 0.3528 0.0000 (  4181 PWs)   bands (ev):

   -16.2296 -14.6447  -8.3997  -4.1268   0.1159   6.0998   8.7388   9.6447
    10.3415  10.4563  11.2719  11.9673  12.1556  12.8449

     occupation numbers 
     1.0000   1.0000   1.0000   0.9999   0.0012   0.0000   0.0000   0.0000
     0.0000   0.0000   0.0000   0.0000   0.0000   0.0000

          k = 0.5000 0.4170 0.0000 (  4173 PWs)   bands (ev):

   -16.5707 -13.9507  -8.9964  -4.2475   0.4463   7.0290   8.1610   9.0112
     9.7438  11.1028  11.4693  12.2621  12.2630  13.3269

     occupation numbers 
     1.0000   1.0000   1.0000   0.9999   0.0004   0.0000   0.0000   0.0000
     0.0000   0.0000   0.0000   0.0000   0.0000   0.0000

          k = 0.5000 0.4811 0.0000 (  4152 PWs)   bands (ev):

   -16.8255 -13.1443  -9.8040  -4.3711   0.8324   7.7447   8.4114   8.5459
     9.3419  10.5978  11.8420  12.2225  12.2829  14.4493

     occupation numbers 
     1.0000   1.0000   1.0000   0.9999   0.0001   0.0000   0.0000   0.0000
     0.0000   0.0000   0.0000   0.0000   0.0000   0.0000

          k = 0.5000 0.5453 0.0000 (  4142 PWs)   bands (ev):

   -16.9575 -12.4084 -10.5648  -4.4459   1.0951   7.5588   8.2872   9.1299
     9.9753  10.2937  11.4802  11.7542  12.0594  15.1232

     occupation numbers 
     1.0000   1.0000   1.0000   1.0000   0.0000   0.0000   0.0000   0.0000
     0.0000   0.0000   0.0000   0.0000   0.0000   0.0000

          k = 0.5000 0.6094 0.0000 (  4142 PWs)   bands (ev):

   -16.9575 -12.4084 -10.5648  -4.4459   1.0951   7.5588   8.2872   9.1299
     9.9753  10.2937  11.4802  11.7542  12.0594  15.1232

     occupation numbers 
     1.0000   1.0000   1.0000   1.0000   0.0000   0.0000   0.0000   0.0000
     0.0000   0.0000   0.0000   0.0000   0.0000   0.0000

          k = 0.5000 0.6736 0.0000 (  4152 PWs)   bands (ev):

   -16.8255 -13.1443  -9.8040  -4.3711   0.8324   7.7447   8.4114   8.5459
     9.3419  10.5978  11.8420  12.2225  12.2829  14.4496

     occupation numbers 
     1.0000   1.0000   1.0000   0.9999   0.0001   0.0000   0.0000   0.0000
     0.0000   0.0000   0.0000   0.0000   0.0000   0.0000

          k = 0.5000 0.7377 0.0000 (  4173 PWs)   bands (ev):

   -16.5707 -13.9507  -8.9964  -4.2475   0.4463   7.0290   8.1610   9.0112
     9.7438  11.1028  11.4693  12.2621  12.2630  13.3269

     occupation numbers 
     1.0000   1.0000   1.0000   0.9999   0.0004   0.0000   0.0000   0.0000
     0.0000   0.0000   0.0000   0.0000   0.0000   0.0000

          k = 0.5000 0.8019 0.0000 (  4181 PWs)   bands (ev):

   -16.2296 -14.6447  -8.3997  -4.1268   0.1159   6.0998   8.7388   9.6447
    10.3415  10.4563  11.2719  11.9673  12.1556  12.8450

     occupation numbers 
     1.0000   1.0000   1.0000   0.9999   0.0012   0.0000   0.0000   0.0000
     0.0000   0.0000   0.0000   0.0000   0.0000   0.0000

          k = 0.5000 0.8660 0.0000 (  4168 PWs)   bands (ev):

   -16.0013 -14.9933  -8.1774  -4.0750  -0.0134   5.7644   9.4359   9.5844
    10.3232  10.5549  11.1452  11.1677  12.4711  12.9419

     occupation numbers 
     1.0000   1.0000   1.0000   0.9998   0.0019   0.0000   0.0000   0.0000
     0.0000   0.0000   0.0000   0.0000   0.0000   0.0000

          k = 0.5000 0.9302 0.0000 (  4181 PWs)   bands (ev):

   -16.2296 -14.6447  -8.3997  -4.1268   0.1159   6.0998   8.7388   9.6447
    10.3415  10.4563  11.2719  11.9673  12.1556  12.8450

     occupation numbers 
     1.0000   1.0000   1.0000   0.9999   0.0012   0.0000   0.0000   0.0000
     0.0000   0.0000   0.0000   0.0000   0.0000   0.0000

          k = 0.5000 0.9943 0.0000 (  4173 PWs)   bands (ev):

   -16.5707 -13.9507  -8.9964  -4.2475   0.4463   7.0290   8.1610   9.0112
     9.7438  11.1028  11.4693  12.2621  12.2630  13.3269

     occupation numbers 
     1.0000   1.0000   1.0000   0.9999   0.0004   0.0000   0.0000   0.0000
     0.0000   0.0000   0.0000   0.0000   0.0000   0.0000

          k = 0.5000 1.0585 0.0000 (  4152 PWs)   bands (ev):

   -16.8255 -13.1443  -9.8040  -4.3711   0.8324   7.7447   8.4114   8.5459
     9.3419  10.5978  11.8420  12.2225  12.2829  14.4495

     occupation numbers 
     1.0000   1.0000   1.0000   0.9999   0.0001   0.0000   0.0000   0.0000
     0.0000   0.0000   0.0000   0.0000   0.0000   0.0000

          k = 0.5000 1.1226 0.0000 (  4142 PWs)   bands (ev):

   -16.9575 -12.4084 -10.5648  -4.4459   1.0951   7.5588   8.2872   9.1299
     9.9753  10.2937  11.4802  11.7542  12.0594  15.1232

     occupation numbers 
     1.0000   1.0000   1.0000   1.0000   0.0000   0.0000   0.0000   0.0000
     0.0000   0.0000   0.0000   0.0000   0.0000   0.0000

          k = 0.5000 1.1868 0.0000 (  4142 PWs)   bands (ev):

   -16.9575 -12.4084 -10.5648  -4.4459   1.0951   7.5588   8.2872   9.1299
     9.9753  10.2937  11.4802  11.7542  12.0594  15.1232

     occupation numbers 
     1.0000   1.0000   1.0000   1.0000   0.0000   0.0000   0.0000   0.0000
     0.0000   0.0000   0.0000   0.0000   0.0000   0.0000

          k = 0.5000 1.2509 0.0000 (  4152 PWs)   bands (ev):

   -16.8255 -13.1443  -9.8040  -4.3711   0.8324   7.7447   8.4114   8.5459
     9.3419  10.5978  11.8420  12.2226  12.2829  14.4496

     occupation numbers 
     1.0000   1.0000   1.0000   0.9999   0.0001   0.0000   0.0000   0.0000
     0.0000   0.0000   0.0000   0.0000   0.0000   0.0000

          k = 0.5000 1.3151 0.0000 (  4173 PWs)   bands (ev):

   -16.5707 -13.9507  -8.9964  -4.2475   0.4463   7.0290   8.1610   9.0112
     9.7438  11.1028  11.4693  12.2621  12.2630  13.3269

     occupation numbers 
     1.0000   1.0000   1.0000   0.9999   0.0004   0.0000   0.0000   0.0000
     0.0000   0.0000   0.0000   0.0000   0.0000   0.0000

          k = 0.5000 1.3792 0.0000 (  4181 PWs)   bands (ev):

   -16.2296 -14.6447  -8.3997  -4.1268   0.1159   6.0998   8.7388   9.6447
    10.3415  10.4563  11.2719  11.9673  12.1556  12.8450

     occupation numbers 
     1.0000   1.0000   1.0000   0.9999   0.0012   0.0000   0.0000   0.0000
     0.0000   0.0000   0.0000   0.0000   0.0000   0.0000

          k = 0.5556 0.3208 0.0000 (  4178 PWs)   bands (ev):

   -16.7677 -14.1186  -8.1048  -4.5025   0.5273   5.7996   7.8736   8.8084
     9.4433  11.0721  11.2788  11.9836  12.2244  13.0562

     occupation numbers 
     1.0000   1.0000   1.0000   1.0000   0.0003   0.0000   0.0000   0.0000
     0.0000   0.0000   0.0000   0.0000   0.0000   0.0000

          k = 0.5556 0.3849 0.0000 (  4169 PWs)   bands (ev):

   -17.2267 -13.4351  -8.2535  -4.8614   1.0696   6.1659   7.1967   8.1138
     8.7367  10.4005  11.2955  12.2070  12.9101  14.0415

     occupation numbers 
     1.0000   1.0000   1.0000   1.0000   0.0000   0.0000   0.0000   0.0000
     0.0000   0.0000   0.0000   0.0000   0.0000   0.0000

          k = 0.5556 0.4491 0.0000 (  4166 PWs)   bands (ev):

   -17.5659 -12.6567  -8.7713  -5.1491   1.6379   6.6672   7.1704   7.5941
     8.2330   9.8724  10.8048  12.7284  12.7771  14.3973

     occupation numbers 
     1.0000   1.0000   1.0000   1.0000   0.0000   0.0000   0.0000   0.0000
     0.0000   0.0000   0.0000   0.0000   0.0000   0.0000

          k = 0.5556 0.5132 0.0000 (  4152 PWs)   bands (ev):

   -17.7726 -11.8664  -9.4671  -5.3329   2.0905   6.3914   7.2648   7.9178
     8.5416   9.5279  10.5104  11.9240  12.2904  14.4574

     occupation numbers 
     1.0000   1.0000   1.0000   1.0000   0.0000   0.0000   0.0000   0.0000
     0.0000   0.0000   0.0000   0.0000   0.0000   0.0000

          k = 0.5556 0.5774 0.0000 (  4148 PWs)   bands (ev):

   -17.8420 -11.4072  -9.9060  -5.3959   2.2683   6.2943   7.1498   7.8209
     9.4055   9.7686  10.4576  10.6698  12.1078  14.3939

     occupation numbers 
     1.0000   1.0000   1.0000   1.0000   0.0000   0.0000   0.0000   0.0000
     0.0000   0.0000   0.0000   0.0000   0.0000   0.0000

          k = 0.5556 0.6415 0.0000 (  4152 PWs)   bands (ev):

   -17.7726 -11.8664  -9.4671  -5.3329   2.0905   6.3914   7.2648   7.9178
     8.5416   9.5279  10.5104  11.9240  12.2904  14.4574

     occupation numbers 
     1.0000   1.0000   1.0000   1.0000   0.0000   0.0000   0.0000   0.0000
     0.0000   0.0000   0.0000   0.0000   0.0000   0.0000

          k = 0.5556 0.7057 0.0000 (  4166 PWs)   bands (ev):

   -17.5659 -12.6567  -8.7713  -5.1491   1.6379   6.6672   7.1704   7.5941
     8.2330   9.8724  10.8048  12.7284  12.7771  14.3973

     occupation numbers 
     1.0000   1.0000   1.0000   1.0000   0.0000   0.0000   0.0000   0.0000
     0.0000   0.0000   0.0000   0.0000   0.0000   0.0000

          k = 0.5556 0.7698 0.0000 (  4169 PWs)   bands (ev):

   -17.2267 -13.4351  -8.2536  -4.8614   1.0696   6.1659   7.1967   8.1138
     8.7367  10.4005  11.2955  12.2070  12.9101  14.0415

     occupation numbers 
     1.0000   1.0000   1.0000   1.0000   0.0000   0.0000   0.0000   0.0000
     0.0000   0.0000   0.0000   0.0000   0.0000   0.0000

          k = 0.5556 0.8340 0.0000 (  4178 PWs)   bands (ev):

   -16.7677 -14.1186  -8.1048  -4.5025   0.5273   5.7996   7.8736   8.8084
     9.4433  11.0721  11.2788  11.9835  12.2244  13.0562

     occupation numbers 
     1.0000   1.0000   1.0000   1.0000   0.0003   0.0000   0.0000   0.0000
     0.0000   0.0000   0.0000   0.0000   0.0000   0.0000

          k = 0.5556 0.8981 0.0000 (  4181 PWs)   bands (ev):

   -16.2296 -14.6447  -8.3997  -4.1268   0.1159   6.0998   8.7388   9.6447
    10.3415  10.4563  11.2719  11.9674  12.1556  12.8450

     occupation numbers 
     1.0000   1.0000   1.0000   0.9999   0.0012   0.0000   0.0000   0.0000
     0.0000   0.0000   0.0000   0.0000   0.0000   0.0000

          k = 0.5556 0.9623 0.0000 (  4174 PWs)   bands (ev):

   -15.8141 -14.8089  -9.0718  -3.8075  -0.0933   6.9960   9.6915   9.8584
    10.2422  10.8571  11.4376  11.4652  12.3497  13.2435

     occupation numbers 
     1.0000   1.0000   1.0000   0.9995   0.0025   0.0000   0.0000   0.0000
     0.0000   0.0000   0.0000   0.0000   0.0000   0.0000

          k = 0.5556 1.0264 0.0000 (  4168 PWs)   bands (ev):

   -15.8479 -14.3001  -9.9687  -3.6035  -0.0921   8.3121   9.2907   9.7156
    10.8820  10.9736  11.1625  12.4549  12.7215  13.3593

     occupation numbers 
     1.0000   1.0000   1.0000   0.9990   0.0025   0.0000   0.0000   0.0000
     0.0000   0.0000   0.0000   0.0000   0.0000   0.0000

          k = 0.5556 1.0906 0.0000 (  4143 PWs)   bands (ev):

   -15.9877 -13.5252 -10.9046  -3.5120   0.0197   8.9796   9.2121   9.8638
    10.6437  10.9251  11.7640  12.7882  13.0814  14.0060

     occupation numbers 
     1.0000   1.0000   1.0000   0.9986   0.0017   0.0000   0.0000   0.0000
     0.0000   0.0000   0.0000   0.0000   0.0000   0.0000

          k = 0.5556 1.1547 0.0000 (  4132 PWs)   bands (ev):

   -16.0430 -13.0337 -11.4488  -3.4894   0.0828   8.8876   9.0142  10.5290
    10.8016  11.2625  11.3157  12.7739  13.0117  15.0273

     occupation numbers 
     1.0000   1.0000   1.0000   0.9985   0.0013   0.0000   0.0000   0.0000
     0.0000   0.0000   0.0000   0.0000   0.0000   0.0000

          k = 0.5556 1.2189 0.0000 (  4143 PWs)   bands (ev):

   -15.9877 -13.5252 -10.9046  -3.5120   0.0197   8.9796   9.2121   9.8638
    10.6437  10.9251  11.7640  12.7882  13.0814  14.0060

     occupation numbers 
     1.0000   1.0000   1.0000   0.9986   0.0017   0.0000   0.0000   0.0000
     0.0000   0.0000   0.0000   0.0000   0.0000   0.0000

          k = 0.5556 1.2830 0.0000 (  4168 PWs)   bands (ev):

   -15.8479 -14.3001  -9.9687  -3.6035  -0.0921   8.3121   9.2907   9.7156
    10.8820  10.9736  11.1625  12.4549  12.7215  13.3593

     occupation numbers 
     1.0000   1.0000   1.0000   0.9990   0.0025   0.0000   0.0000   0.0000
     0.0000   0.0000   0.0000   0.0000   0.0000   0.0000

          k = 0.5556 1.3472 0.0000 (  4174 PWs)   bands (ev):

   -15.8141 -14.8089  -9.0718  -3.8075  -0.0933   6.9960   9.6915   9.8584
    10.2422  10.8571  11.4377  11.4652  12.3497  13.2435

     occupation numbers 
     1.0000   1.0000   1.0000   0.9995   0.0025   0.0000   0.0000   0.0000
     0.0000   0.0000   0.0000   0.0000   0.0000   0.0000

          k = 0.5556 1.4113 0.0000 (  4181 PWs)   bands (ev):

   -16.2296 -14.6447  -8.3997  -4.1268   0.1159   6.0998   8.7388   9.6447
    10.3415  10.4563  11.2719  11.9673  12.1556  12.8450

     occupation numbers 
     1.0000   1.0000   1.0000   0.9999   0.0012   0.0000   0.0000   0.0000
     0.0000   0.0000   0.0000   0.0000   0.0000   0.0000

          k = 0.6111 0.3528 0.0000 (  4160 PWs)   bands (ev):

   -17.7706 -12.7948  -7.8890  -5.3949   1.7532   5.8862   6.4291   7.3417
     7.9290   9.6611  10.5152  13.0325  13.1060  14.2595

     occupation numbers 
     1.0000   1.0000   1.0000   1.0000   0.0000   0.0000   0.0000   0.0000
     0.0000   0.0000   0.0000   0.0000   0.0000   0.0000

          k = 0.6111 0.4170 0.0000 (  4163 PWs)   bands (ev):

   -18.1868 -12.0601  -7.9662  -5.8165   2.4452   5.7821   6.3436   6.7423
     7.3243   9.0681   9.9248  12.6380  13.4671  14.0737

     occupation numbers 
     1.0000   1.0000   1.0000   1.0000   0.0000   0.0000   0.0000   0.0000
     0.0000   0.0000   0.0000   0.0000   0.0000   0.0000

          k = 0.6111 0.4811 0.0000 (  4169 PWs)   bands (ev):

   -18.4674 -11.2806  -8.4001  -6.1072   3.0485   5.4070   6.3276   6.9015
     7.3278   8.6529   9.5315  12.2001  12.3577  13.6920

     occupation numbers 
     1.0000   1.0000   1.0000   1.0000   0.0000   0.0000   0.0000   0.0000
     0.0000   0.0000   0.0000   0.0000   0.0000   0.0000

          k = 0.6111 0.5453 0.0000 (  4159 PWs)   bands (ev):

   -18.6085 -10.6103  -8.9341  -6.2549   3.4199   5.2122   6.1100   6.7082
     8.4356   8.6150   9.3565  10.7609  11.9415  13.4951

     occupation numbers 
     1.0000   1.0000   1.0000   1.0000   0.0000   0.0000   0.0000   0.0000
     0.0000   0.0000   0.0000   0.0000   0.0000   0.0000

          k = 0.6111 0.6094 0.0000 (  4159 PWs)   bands (ev):

   -18.6085 -10.6103  -8.9341  -6.2549   3.4199   5.2122   6.1100   6.7082
     8.4356   8.6150   9.3565  10.7608  11.9415  13.4951

     occupation numbers 
     1.0000   1.0000   1.0000   1.0000   0.0000   0.0000   0.0000   0.0000
     0.0000   0.0000   0.0000   0.0000   0.0000   0.0000

          k = 0.6111 0.6736 0.0000 (  4169 PWs)   bands (ev):

   -18.4674 -11.2806  -8.4001  -6.1072   3.0485   5.4070   6.3276   6.9015
     7.3278   8.6529   9.5315  12.2001  12.3577  13.6920

     occupation numbers 
     1.0000   1.0000   1.0000   1.0000   0.0000   0.0000   0.0000   0.0000
     0.0000   0.0000   0.0000   0.0000   0.0000   0.0000

          k = 0.6111 0.7377 0.0000 (  4163 PWs)   bands (ev):

   -18.1868 -12.0601  -7.9662  -5.8165   2.4452   5.7821   6.3436   6.7423
     7.3243   9.0681   9.9248  12.6380  13.4671  14.0737

     occupation numbers 
     1.0000   1.0000   1.0000   1.0000   0.0000   0.0000   0.0000   0.0000
     0.0000   0.0000   0.0000   0.0000   0.0000   0.0000

          k = 0.6111 0.8019 0.0000 (  4160 PWs)   bands (ev):

   -17.7706 -12.7948  -7.8890  -5.3949   1.7532   5.8862   6.4291   7.3417
     7.9290   9.6611  10.5152  13.0325  13.1060  14.2595

     occupation numbers 
     1.0000   1.0000   1.0000   1.0000   0.0000   0.0000   0.0000   0.0000
     0.0000   0.0000   0.0000   0.0000   0.0000   0.0000

          k = 0.6111 0.8660 0.0000 (  4169 PWs)   bands (ev):

   -17.2267 -13.4351  -8.2536  -4.8614   1.0696   6.1659   7.1967   8.1138
     8.7367  10.4005  11.2955  12.2070  12.9101  14.0415

     occupation numbers 
     1.0000   1.0000   1.0000   1.0000   0.0000   0.0000   0.0000   0.0000
     0.0000   0.0000   0.0000   0.0000   0.0000   0.0000

          k = 0.6111 0.9302 0.0000 (  4173 PWs)   bands (ev):

   -16.5707 -13.9507  -8.9964  -4.2475   0.4463   7.0290   8.1610   9.0112
     9.7438  11.1028  11.4693  12.2621  12.2630  13.3269

     occupation numbers 
     1.0000   1.0000   1.0000   0.9999   0.0004   0.0000   0.0000   0.0000
     0.0000   0.0000   0.0000   0.0000   0.0000   0.0000

          k = 0.6111 0.9943 0.0000 (  4168 PWs)   bands (ev):

   -15.8479 -14.3001  -9.9687  -3.6035  -0.0921   8.3121   9.2907   9.7156
    10.8820  10.9736  11.1625  12.4549  12.7216  13.3593

     occupation numbers 
     1.0000   1.0000   1.0000   0.9990   0.0025   0.0000   0.0000   0.0000
     0.0000   0.0000   0.0000   0.0000   0.0000   0.0000

          k = 0.6111 1.0585 0.0000 (  4164 PWs)   bands (ev):

   -15.2535 -14.3209 -11.0090  -3.0103  -0.5318   9.4715   9.7889  10.4033
    10.6597  11.7626  12.2962  12.3489  12.5942  14.1475

     occupation numbers 
     1.0000   1.0000   1.0000   0.9914   0.0126   0.0000   0.0000   0.0000
     0.0000   0.0000   0.0000   0.0000   0.0000   0.0000

          k = 0.6111 1.1226 0.0000 (  4134 PWs)   bands (ev):

   -15.1043 -13.8503 -11.8806  -2.6081  -0.8207   9.0954  10.2940  11.1149
    11.5793  11.9325  12.1405  13.5844  13.6913  14.2249

     occupation numbers 
     1.0000   1.0000   1.0000   0.9633   0.0356   0.0000   0.0000   0.0000
     0.0000   0.0000   0.0000   0.0000   0.0000   0.0000

          k = 0.6111 1.1868 0.0000 (  4134 PWs)   bands (ev):

   -15.1043 -13.8503 -11.8806  -2.6081  -0.8207   9.0954  10.2940  11.1149
    11.5793  11.9325  12.1405  13.5844  13.6913  14.2246

     occupation numbers 
     1.0000   1.0000   1.0000   0.9633   0.0356   0.0000   0.0000   0.0000
     0.0000   0.0000   0.0000   0.0000   0.0000   0.0000

          k = 0.6111 1.2509 0.0000 (  4164 PWs)   bands (ev):

   -15.2535 -14.3209 -11.0090  -3.0103  -0.5318   9.4715   9.7890  10.4033
    10.6597  11.7626  12.2962  12.3489  12.5943  14.1471

     occupation numbers 
     1.0000   1.0000   1.0000   0.9914   0.0126   0.0000   0.0000   0.0000
     0.0000   0.0000   0.0000   0.0000   0.0000   0.0000

          k = 0.6111 1.3151 0.0000 (  4168 PWs)   bands (ev):

   -15.8479 -14.3001  -9.9687  -3.6035  -0.0921   8.3121   9.2907   9.7156
    10.8820  10.9736  11.1625  12.4549  12.7215  13.3593

     occupation numbers 
     1.0000   1.0000   1.0000   0.9990   0.0025   0.0000   0.0000   0.0000
     0.0000   0.0000   0.0000   0.0000   0.0000   0.0000

          k = 0.6111 1.3792 0.0000 (  4173 PWs)   bands (ev):

   -16.5707 -13.9507  -8.9964  -4.2475   0.4463   7.0290   8.1610   9.0112
     9.7438  11.1028  11.4693  12.2621  12.2630  13.3269

     occupation numbers 
     1.0000   1.0000   1.0000   0.9999   0.0004   0.0000   0.0000   0.0000
     0.0000   0.0000   0.0000   0.0000   0.0000   0.0000

          k = 0.6111 1.4434 0.0000 (  4169 PWs)   bands (ev):

   -17.2267 -13.4351  -8.2536  -4.8614   1.0696   6.1659   7.1967   8.1138
     8.7367  10.4005  11.2955  12.2070  12.9101  14.0415

     occupation numbers 
     1.0000   1.0000   1.0000   1.0000   0.0000   0.0000   0.0000   0.0000
     0.0000   0.0000   0.0000   0.0000   0.0000   0.0000

          k = 0.6667 0.3849 0.0000 (  4166 PWs)   bands (ev):

   -18.6774 -11.3699  -7.5388  -6.3531   3.2352   5.1022   6.0597   6.0920
     6.6214   8.3968   9.2349  12.1210  13.3853  14.1625

     occupation numbers 
     1.0000   1.0000   1.0000   1.0000   0.0000   0.0000   0.0000   0.0000
     0.0000   0.0000   0.0000   0.0000   0.0000   0.0000

          k = 0.6667 0.4491 0.0000 (  4166 PWs)   bands (ev):

   -19.0314 -10.6204  -7.5488  -6.7456   3.9524   4.6153   5.5622   6.0901
     6.5311   7.8990   8.7419  11.6555  12.7541  12.9605

     occupation numbers 
     1.0000   1.0000   1.0000   1.0000   0.0000   0.0000   0.0000   0.0000
     0.0000   0.0000   0.0000   0.0000   0.0000   0.0000

          k = 0.6667 0.5132 0.0000 (  4173 PWs)   bands (ev):

   -19.2451  -9.8948  -7.8887  -6.9841   4.3214   4.4917   5.2498   5.7961
     7.4746   7.5886   8.4564  11.0590  11.3452  12.6289

     occupation numbers 
     1.0000   1.0000   1.0000   1.0000   0.0000   0.0000   0.0000   0.0000
     0.0000   0.0000   0.0000   0.0000   0.0000   0.0000

          k = 0.6667 0.5774 0.0000 (  4166 PWs)   bands (ev):

   -19.3165  -9.4989  -8.1690  -7.0640   4.2231   4.7122   5.1294   5.6958
     7.4814   8.1913   8.5249   9.9210  11.2352  12.5303

     occupation numbers 
     1.0000   1.0000   1.0000   1.0000   0.0000   0.0000   0.0000   0.0000
     0.0000   0.0000   0.0000   0.0000   0.0000   0.0000

          k = 0.6667 0.6415 0.0000 (  4173 PWs)   bands (ev):

   -19.2451  -9.8948  -7.8887  -6.9841   4.3214   4.4917   5.2498   5.7961
     7.4746   7.5886   8.4564  11.0590  11.3452  12.6289

     occupation numbers 
     1.0000   1.0000   1.0000   1.0000   0.0000   0.0000   0.0000   0.0000
     0.0000   0.0000   0.0000   0.0000   0.0000   0.0000

          k = 0.6667 0.7057 0.0000 (  4166 PWs)   bands (ev):

   -19.0314 -10.6204  -7.5488  -6.7456   3.9524   4.6153   5.5622   6.0901
     6.5311   7.8990   8.7419  11.6555  12.7541  12.9604

     occupation numbers 
     1.0000   1.0000   1.0000   1.0000   0.0000   0.0000   0.0000   0.0000
     0.0000   0.0000   0.0000   0.0000   0.0000   0.0000

          k = 0.6667 0.7698 0.0000 (  4166 PWs)   bands (ev):

   -18.6774 -11.3699  -7.5388  -6.3531   3.2352   5.1022   6.0597   6.0920
     6.6214   8.3968   9.2349  12.1210  13.3853  14.1625

     occupation numbers 
     1.0000   1.0000   1.0000   1.0000   0.0000   0.0000   0.0000   0.0000
     0.0000   0.0000   0.0000   0.0000   0.0000   0.0000

          k = 0.6667 0.8340 0.0000 (  4163 PWs)   bands (ev):

   -18.1868 -12.0601  -7.9662  -5.8165   2.4452   5.7821   6.3436   6.7423
     7.3243   9.0681   9.9248  12.6380  13.4670  14.0737

     occupation numbers 
     1.0000   1.0000   1.0000   1.0000   0.0000   0.0000   0.0000   0.0000
     0.0000   0.0000   0.0000   0.0000   0.0000   0.0000

          k = 0.6667 0.8981 0.0000 (  4166 PWs)   bands (ev):

   -17.5659 -12.6567  -8.7713  -5.1491   1.6379   6.6672   7.1704   7.5941
     8.2330   9.8724  10.8048  12.7284  12.7772  14.3973

     occupation numbers 
     1.0000   1.0000   1.0000   1.0000   0.0000   0.0000   0.0000   0.0000
     0.0000   0.0000   0.0000   0.0000   0.0000   0.0000

          k = 0.6667 0.9623 0.0000 (  4152 PWs)   bands (ev):

   -16.8255 -13.1443  -9.8040  -4.3711   0.8324   7.7447   8.4114   8.5459
     9.3419  10.5978  11.8420  12.2225  12.2829  14.4495

     occupation numbers 
     1.0000   1.0000   1.0000   0.9999   0.0001   0.0000   0.0000   0.0000
     0.0000   0.0000   0.0000   0.0000   0.0000   0.0000

          k = 0.6667 1.0264 0.0000 (  4143 PWs)   bands (ev):

   -15.9877 -13.5252 -10.9046  -3.5120   0.0197   8.9796   9.2121   9.8638
    10.6437  10.9251  11.7641  12.7882  13.0814  14.0060

     occupation numbers 
     1.0000   1.0000   1.0000   0.9986   0.0017   0.0000   0.0000   0.0000
     0.0000   0.0000   0.0000   0.0000   0.0000   0.0000

          k = 0.6667 1.0906 0.0000 (  4134 PWs)   bands (ev):

   -15.1043 -13.8503 -11.8806  -2.6081  -0.8207   9.0954  10.2940  11.1149
    11.5794  11.9326  12.1405  13.5844  13.6913  14.2249

     occupation numbers 
     1.0000   1.0000   1.0000   0.9633   0.0356   0.0000   0.0000   0.0000
     0.0000   0.0000   0.0000   0.0000   0.0000   0.0000

          k = 0.6667 1.1547 0.0000 (  4140 PWs)   bands (ev):

   -14.3234 -14.3234 -12.3329  -1.7003  -1.7003   8.9515  11.2243  11.2244
    11.8254  13.2671  13.2671  13.5489  13.5489  13.7736

     occupation numbers 
     1.0000   1.0000   1.0000   0.4832   0.4832   0.0000   0.0000   0.0000
     0.0000   0.0000   0.0000   0.0000   0.0000   0.0000

          k = 0.6667 1.2189 0.0000 (  4134 PWs)   bands (ev):

   -15.1043 -13.8503 -11.8806  -2.6081  -0.8207   9.0954  10.2940  11.1149
    11.5793  11.9325  12.1406  13.5844  13.6913  14.2245

     occupation numbers 
     1.0000   1.0000   1.0000   0.9633   0.0356   0.0000   0.0000   0.0000
     0.0000   0.0000   0.0000   0.0000   0.0000   0.0000

          k = 0.6667 1.2830 0.0000 (  4143 PWs)   bands (ev):

   -15.9877 -13.5252 -10.9046  -3.5120   0.0197   8.9796   9.2121   9.8638
    10.6437  10.9251  11.7640  12.7882  13.0814  14.0060

     occupation numbers 
     1.0000   1.0000   1.0000   0.9986   0.0017   0.0000   0.0000   0.0000
     0.0000   0.0000   0.0000   0.0000   0.0000   0.0000

          k = 0.6667 1.3472 0.0000 (  4152 PWs)   bands (ev):

   -16.8255 -13.1443  -9.8040  -4.3711   0.8324   7.7447   8.4114   8.5459
     9.3419  10.5978  11.8420  12.2226  12.2829  14.4502

     occupation numbers 
     1.0000   1.0000   1.0000   0.9999   0.0001   0.0000   0.0000   0.0000
     0.0000   0.0000   0.0000   0.0000   0.0000   0.0000

          k = 0.6667 1.4113 0.0000 (  4166 PWs)   bands (ev):

   -17.5659 -12.6567  -8.7713  -5.1491   1.6379   6.6672   7.1704   7.5941
     8.2330   9.8724  10.8048  12.7284  12.7771  14.3973

     occupation numbers 
     1.0000   1.0000   1.0000   1.0000   0.0000   0.0000   0.0000   0.0000
     0.0000   0.0000   0.0000   0.0000   0.0000   0.0000

          k = 0.6667 1.4755 0.0000 (  4163 PWs)   bands (ev):

   -18.1868 -12.0601  -7.9662  -5.8165   2.4452   5.7821   6.3436   6.7423
     7.3243   9.0681   9.9248  12.6380  13.4671  14.0737

     occupation numbers 
     1.0000   1.0000   1.0000   1.0000   0.0000   0.0000   0.0000   0.0000
     0.0000   0.0000   0.0000   0.0000   0.0000   0.0000

          k = 0.7222 0.4170 0.0000 (  4172 PWs)   bands (ev):

   -19.4586  -9.8997  -7.2345  -7.0707   4.0214   4.6830   5.0733   5.4880
     6.3082   7.3164   8.1488  11.1317  12.3261  12.7007

     occupation numbers 
     1.0000   1.0000   1.0000   1.0000   0.0000   0.0000   0.0000   0.0000
     0.0000   0.0000   0.0000   0.0000   0.0000   0.0000

          k = 0.7222 0.4811 0.0000 (  4167 PWs)   bands (ev):

   -19.7452  -9.1701  -7.5646  -7.0213   3.6263   4.5225   5.0863   5.5120
     6.7135   6.9175   7.7599  10.7502  11.2519  11.9462

     occupation numbers 
     1.0000   1.0000   1.0000   1.0000   0.0000   0.0000   0.0000   0.0000
     0.0000   0.0000   0.0000   0.0000   0.0000   0.0000

          k = 0.7222 0.5453 0.0000 (  4160 PWs)   bands (ev):

   -19.8890  -8.5815  -7.7307  -7.2451   3.4288   4.3370   4.8849   5.8983
     6.7065   7.4027   7.7097   9.7969  10.5488  11.7502

     occupation numbers 
     1.0000   1.0000   1.0000   1.0000   0.0000   0.0000   0.0000   0.0000
     0.0000   0.0000   0.0000   0.0000   0.0000   0.0000

          k = 0.7222 0.6094 0.0000 (  4160 PWs)   bands (ev):

   -19.8890  -8.5815  -7.7307  -7.2451   3.4288   4.3370   4.8849   5.8983
     6.7065   7.4027   7.7097   9.7969  10.5488  11.7502

     occupation numbers 
     1.0000   1.0000   1.0000   1.0000   0.0000   0.0000   0.0000   0.0000
     0.0000   0.0000   0.0000   0.0000   0.0000   0.0000

          k = 0.7222 0.6736 0.0000 (  4167 PWs)   bands (ev):

   -19.7452  -9.1701  -7.5646  -7.0213   3.6263   4.5225   5.0863   5.5120
     6.7135   6.9175   7.7599  10.7502  11.2519  11.9462

     occupation numbers 
     1.0000   1.0000   1.0000   1.0000   0.0000   0.0000   0.0000   0.0000
     0.0000   0.0000   0.0000   0.0000   0.0000   0.0000

          k = 0.7222 0.7377 0.0000 (  4172 PWs)   bands (ev):

   -19.4586  -9.8997  -7.2345  -7.0707   4.0214   4.6830   5.0733   5.4880
     6.3082   7.3164   8.1488  11.1317  12.3261  12.7007

     occupation numbers 
     1.0000   1.0000   1.0000   1.0000   0.0000   0.0000   0.0000   0.0000
     0.0000   0.0000   0.0000   0.0000   0.0000   0.0000

          k = 0.7222 0.8019 0.0000 (  4166 PWs)   bands (ev):

   -19.0314 -10.6204  -7.5488  -6.7456   3.9524   4.6153   5.5622   6.0901
     6.5311   7.8990   8.7419  11.6555  12.7541  12.9604

     occupation numbers 
     1.0000   1.0000   1.0000   1.0000   0.0000   0.0000   0.0000   0.0000
     0.0000   0.0000   0.0000   0.0000   0.0000   0.0000

          k = 0.7222 0.8660 0.0000 (  4169 PWs)   bands (ev):

   -18.4674 -11.2806  -8.4001  -6.1072   3.0485   5.4070   6.3276   6.9015
     7.3278   8.6529   9.5315  12.2001  12.3577  13.6920

     occupation numbers 
     1.0000   1.0000   1.0000   1.0000   0.0000   0.0000   0.0000   0.0000
     0.0000   0.0000   0.0000   0.0000   0.0000   0.0000

          k = 0.7222 0.9302 0.0000 (  4152 PWs)   bands (ev):

   -17.7726 -11.8664  -9.4671  -5.3329   2.0905   6.3914   7.2648   7.9178
     8.5416   9.5279  10.5104  11.9240  12.2904  14.4575

     occupation numbers 
     1.0000   1.0000   1.0000   1.0000   0.0000   0.0000   0.0000   0.0000
     0.0000   0.0000   0.0000   0.0000   0.0000   0.0000

          k = 0.7222 0.9943 0.0000 (  4142 PWs)   bands (ev):

   -16.9575 -12.4084 -10.5648  -4.4459   1.0951   7.5588   8.2872   9.1299
     9.9753  10.2937  11.4802  11.7542  12.0594  15.1232

     occupation numbers 
     1.0000   1.0000   1.0000   1.0000   0.0000   0.0000   0.0000   0.0000
     0.0000   0.0000   0.0000   0.0000   0.0000   0.0000

          k = 0.7222 1.0585 0.0000 (  4132 PWs)   bands (ev):

   -16.0430 -13.0337 -11.4488  -3.4894   0.0828   8.8876   9.0142  10.5290
    10.8016  11.2626  11.3157  12.7739  13.0117  15.0271

     occupation numbers 
     1.0000   1.0000   1.0000   0.9985   0.0013   0.0000   0.0000   0.0000
     0.0000   0.0000   0.0000   0.0000   0.0000   0.0000

          k = 0.7222 1.1226 0.0000 (  4134 PWs)   bands (ev):

   -15.1043 -13.8503 -11.8806  -2.6081  -0.8207   9.0954  10.2940  11.1149
    11.5793  11.9326  12.1405  13.5844  13.6913  14.2245

     occupation numbers 
     1.0000   1.0000   1.0000   0.9633   0.0356   0.0000   0.0000   0.0000
     0.0000   0.0000   0.0000   0.0000   0.0000   0.0000

          k = 0.7222 1.1868 0.0000 (  4134 PWs)   bands (ev):

   -15.1043 -13.8503 -11.8806  -2.6081  -0.8207   9.0954  10.2940  11.1149
    11.5793  11.9325  12.1405  13.5844  13.6913  14.2247

     occupation numbers 
     1.0000   1.0000   1.0000   0.9633   0.0356   0.0000   0.0000   0.0000
     0.0000   0.0000   0.0000   0.0000   0.0000   0.0000

          k = 0.7222 1.2509 0.0000 (  4132 PWs)   bands (ev):

   -16.0430 -13.0337 -11.4488  -3.4894   0.0828   8.8876   9.0142  10.5290
    10.8016  11.2625  11.3157  12.7739  13.0117  15.0277

     occupation numbers 
     1.0000   1.0000   1.0000   0.9985   0.0013   0.0000   0.0000   0.0000
     0.0000   0.0000   0.0000   0.0000   0.0000   0.0000

          k = 0.7222 1.3151 0.0000 (  4142 PWs)   bands (ev):

   -16.9575 -12.4084 -10.5648  -4.4459   1.0951   7.5588   8.2872   9.1299
     9.9753  10.2937  11.4802  11.7542  12.0594  15.1232

     occupation numbers 
     1.0000   1.0000   1.0000   1.0000   0.0000   0.0000   0.0000   0.0000
     0.0000   0.0000   0.0000   0.0000   0.0000   0.0000

          k = 0.7222 1.3792 0.0000 (  4152 PWs)   bands (ev):

   -17.7726 -11.8664  -9.4671  -5.3329   2.0905   6.3914   7.2648   7.9178
     8.5416   9.5279  10.5104  11.9240  12.2904  14.4575

     occupation numbers 
     1.0000   1.0000   1.0000   1.0000   0.0000   0.0000   0.0000   0.0000
     0.0000   0.0000   0.0000   0.0000   0.0000   0.0000

          k = 0.7222 1.4434 0.0000 (  4169 PWs)   bands (ev):

   -18.4674 -11.2806  -8.4001  -6.1072   3.0485   5.4070   6.3276   6.9015
     7.3278   8.6529   9.5315  12.2001  12.3577  13.6920

     occupation numbers 
     1.0000   1.0000   1.0000   1.0000   0.0000   0.0000   0.0000   0.0000
     0.0000   0.0000   0.0000   0.0000   0.0000   0.0000

          k = 0.7222 1.5075 0.0000 (  4166 PWs)   bands (ev):

   -19.0314 -10.6204  -7.5488  -6.7456   3.9524   4.6153   5.5622   6.0901
     6.5311   7.8990   8.7419  11.6555  12.7541  12.9604

     occupation numbers 
     1.0000   1.0000   1.0000   1.0000   0.0000   0.0000   0.0000   0.0000
     0.0000   0.0000   0.0000   0.0000   0.0000   0.0000

          k = 0.7778 0.4491 0.0000 (  4170 PWs)   bands (ev):

   -20.1048  -8.4392  -7.9853  -6.5135   3.1296   4.0363   4.5798   6.2556
     6.4998   6.5039   7.2692  10.2899  10.8576  11.4496

     occupation numbers 
     1.0000   1.0000   1.0000   1.0000   0.0000   0.0000   0.0000   0.0000
     0.0000   0.0000   0.0000   0.0000   0.0000   0.0000

          k = 0.7778 0.5132 0.0000 (  4170 PWs)   bands (ev):

   -20.3215  -8.2400  -7.7790  -6.4170   2.8319   3.7400   4.2764   6.1070
     6.7751   6.9315   7.0620   9.7188  10.0005  11.1592

     occupation numbers 
     1.0000   1.0000   1.0000   1.0000   0.0000   0.0000   0.0000   0.0000
     0.0000   0.0000   0.0000   0.0000   0.0000   0.0000

          k = 0.7778 0.5774 0.0000 (  4147 PWs)   bands (ev):

   -20.3939  -8.3249  -7.4455  -6.5013   2.7329   3.6409   4.1753   6.0133
     6.8038   7.1379   7.3977   8.9364   9.9010  11.0624

     occupation numbers 
     1.0000   1.0000   1.0000   1.0000   0.0000   0.0000   0.0000   0.0000
     0.0000   0.0000   0.0000   0.0000   0.0000   0.0000

          k = 0.7778 0.6415 0.0000 (  4170 PWs)   bands (ev):

   -20.3215  -8.2400  -7.7790  -6.4170   2.8319   3.7400   4.2764   6.1070
     6.7751   6.9315   7.0620   9.7188  10.0005  11.1592

     occupation numbers 
     1.0000   1.0000   1.0000   1.0000   0.0000   0.0000   0.0000   0.0000
     0.0000   0.0000   0.0000   0.0000   0.0000   0.0000

          k = 0.7778 0.7057 0.0000 (  4170 PWs)   bands (ev):

   -20.1048  -8.4392  -7.9853  -6.5135   3.1296   4.0363   4.5798   6.2556
     6.4998   6.5039   7.2692  10.2899  10.8576  11.4496

     occupation numbers 
     1.0000   1.0000   1.0000   1.0000   0.0000   0.0000   0.0000   0.0000
     0.0000   0.0000   0.0000   0.0000   0.0000   0.0000

          k = 0.7778 0.7698 0.0000 (  4167 PWs)   bands (ev):

   -19.7452  -9.1701  -7.5646  -7.0213   3.6263   4.5225   5.0863   5.5120
     6.7135   6.9175   7.7599  10.7502  11.2519  11.9462

     occupation numbers 
     1.0000   1.0000   1.0000   1.0000   0.0000   0.0000   0.0000   0.0000
     0.0000   0.0000   0.0000   0.0000   0.0000   0.0000

          k = 0.7778 0.8340 0.0000 (  4173 PWs)   bands (ev):

   -19.2451  -9.8948  -7.8887  -6.9841   4.3214   4.4917   5.2498   5.7961
     7.4746   7.5886   8.4564  11.0590  11.3452  12.6290

     occupation numbers 
     1.0000   1.0000   1.0000   1.0000   0.0000   0.0000   0.0000   0.0000
     0.0000   0.0000   0.0000   0.0000   0.0000   0.0000

          k = 0.7778 0.8981 0.0000 (  4159 PWs)   bands (ev):

   -18.6085 -10.6103  -8.9341  -6.2549   3.4199   5.2122   6.1100   6.7082
     8.4356   8.6150   9.3565  10.7608  11.9415  13.4951

     occupation numbers 
     1.0000   1.0000   1.0000   1.0000   0.0000   0.0000   0.0000   0.0000
     0.0000   0.0000   0.0000   0.0000   0.0000   0.0000

          k = 0.7778 0.9623 0.0000 (  4148 PWs)   bands (ev):

   -17.8420 -11.4072  -9.9060  -5.3959   2.2683   6.2943   7.1498   7.8209
     9.4055   9.7686  10.4576  10.6698  12.1078  14.3938

     occupation numbers 
     1.0000   1.0000   1.0000   1.0000   0.0000   0.0000   0.0000   0.0000
     0.0000   0.0000   0.0000   0.0000   0.0000   0.0000

          k = 0.7778 1.0264 0.0000 (  4142 PWs)   bands (ev):

   -16.9575 -12.4084 -10.5648  -4.4459   1.0951   7.5588   8.2872   9.1299
     9.9753  10.2937  11.4802  11.7542  12.0594  15.1232

     occupation numbers 
     1.0000   1.0000   1.0000   1.0000   0.0000   0.0000   0.0000   0.0000
     0.0000   0.0000   0.0000   0.0000   0.0000   0.0000

          k = 0.7778 1.0906 0.0000 (  4143 PWs)   bands (ev):

   -15.9877 -13.5252 -10.9046  -3.5120   0.0197   8.9796   9.2121   9.8638
    10.6437  10.9251  11.7641  12.7882  13.0814  14.0061

     occupation numbers 
     1.0000   1.0000   1.0000   0.9986   0.0017   0.0000   0.0000   0.0000
     0.0000   0.0000   0.0000   0.0000   0.0000   0.0000

          k = 0.7778 1.1547 0.0000 (  4164 PWs)   bands (ev):

   -15.2535 -14.3209 -11.0090  -3.0103  -0.5318   9.4715   9.7889  10.4033
    10.6597  11.7626  12.2962  12.3489  12.5942  14.1473

     occupation numbers 
     1.0000   1.0000   1.0000   0.9914   0.0126   0.0000   0.0000   0.0000
     0.0000   0.0000   0.0000   0.0000   0.0000   0.0000

          k = 0.7778 1.2189 0.0000 (  4143 PWs)   bands (ev):

   -15.9877 -13.5252 -10.9046  -3.5120   0.0197   8.9796   9.2121   9.8638
    10.6437  10.9251  11.7640  12.7882  13.0814  14.0060

     occupation numbers 
     1.0000   1.0000   1.0000   0.9986   0.0017   0.0000   0.0000   0.0000
     0.0000   0.0000   0.0000   0.0000   0.0000   0.0000

          k = 0.7778 1.2830 0.0000 (  4142 PWs)   bands (ev):

   -16.9575 -12.4084 -10.5648  -4.4459   1.0951   7.5588   8.2872   9.1299
     9.9753  10.2937  11.4802  11.7542  12.0594  15.1232

     occupation numbers 
     1.0000   1.0000   1.0000   1.0000   0.0000   0.0000   0.0000   0.0000
     0.0000   0.0000   0.0000   0.0000   0.0000   0.0000

          k = 0.7778 1.3472 0.0000 (  4148 PWs)   bands (ev):

   -17.8420 -11.4072  -9.9060  -5.3959   2.2683   6.2943   7.1498   7.8209
     9.4055   9.7686  10.4576  10.6698  12.1078  14.3938

     occupation numbers 
     1.0000   1.0000   1.0000   1.0000   0.0000   0.0000   0.0000   0.0000
     0.0000   0.0000   0.0000   0.0000   0.0000   0.0000

          k = 0.7778 1.4113 0.0000 (  4159 PWs)   bands (ev):

   -18.6085 -10.6103  -8.9341  -6.2549   3.4199   5.2122   6.1100   6.7082
     8.4356   8.6150   9.3565  10.7609  11.9415  13.4951

     occupation numbers 
     1.0000   1.0000   1.0000   1.0000   0.0000   0.0000   0.0000   0.0000
     0.0000   0.0000   0.0000   0.0000   0.0000   0.0000

          k = 0.7778 1.4755 0.0000 (  4173 PWs)   bands (ev):

   -19.2451  -9.8948  -7.8887  -6.9841   4.3214   4.4917   5.2498   5.7961
     7.4746   7.5886   8.4564  11.0590  11.3452  12.6289

     occupation numbers 
     1.0000   1.0000   1.0000   1.0000   0.0000   0.0000   0.0000   0.0000
     0.0000   0.0000   0.0000   0.0000   0.0000   0.0000

          k = 0.7778 1.5396 0.0000 (  4167 PWs)   bands (ev):

   -19.7452  -9.1701  -7.5646  -7.0213   3.6263   4.5225   5.0863   5.5120
     6.7135   6.9175   7.7599  10.7502  11.2519  11.9462

     occupation numbers 
     1.0000   1.0000   1.0000   1.0000   0.0000   0.0000   0.0000   0.0000
     0.0000   0.0000   0.0000   0.0000   0.0000   0.0000

          k = 0.8333 0.4811 0.0000 (  4166 PWs)   bands (ev):

   -20.6113  -8.5831  -7.0648  -5.9158   2.4339   3.3408   3.8709   5.7151
     6.4651   6.7653   7.7069   9.2056   9.6231  10.7629

     occupation numbers 
     1.0000   1.0000   1.0000   1.0000   0.0000   0.0000   0.0000   0.0000
     0.0000   0.0000   0.0000   0.0000   0.0000   0.0000

          k = 0.8333 0.5453 0.0000 (  4167 PWs)   bands (ev):

   -20.7565  -8.7558  -6.5473  -5.7936   2.2351   3.1409   3.6684   5.5176
     6.3173   6.9578   8.1385   8.4216   9.4289  10.5671

     occupation numbers 
     1.0000   1.0000   1.0000   1.0000   0.0000   0.0000   0.0000   0.0000
     0.0000   0.0000   0.0000   0.0000   0.0000   0.0000

          k = 0.8333 0.6094 0.0000 (  4167 PWs)   bands (ev):

   -20.7565  -8.7558  -6.5473  -5.7936   2.2351   3.1409   3.6684   5.5176
     6.3173   6.9578   8.1385   8.4215   9.4289  10.5671

     occupation numbers 
     1.0000   1.0000   1.0000   1.0000   0.0000   0.0000   0.0000   0.0000
     0.0000   0.0000   0.0000   0.0000   0.0000   0.0000

          k = 0.8333 0.6736 0.0000 (  4166 PWs)   bands (ev):

   -20.6113  -8.5831  -7.0648  -5.9158   2.4339   3.3408   3.8709   5.7151
     6.4651   6.7653   7.7069   9.2056   9.6231  10.7629

     occupation numbers 
     1.0000   1.0000   1.0000   1.0000   0.0000   0.0000   0.0000   0.0000
     0.0000   0.0000   0.0000   0.0000   0.0000   0.0000

          k = 0.8333 0.7377 0.0000 (  4170 PWs)   bands (ev):

   -20.3215  -8.2400  -7.7790  -6.4170   2.8319   3.7400   4.2764   6.1070
     6.7751   6.9315   7.0620   9.7188  10.0005  11.1592

     occupation numbers 
     1.0000   1.0000   1.0000   1.0000   0.0000   0.0000   0.0000   0.0000
     0.0000   0.0000   0.0000   0.0000   0.0000   0.0000

          k = 0.8333 0.8019 0.0000 (  4160 PWs)   bands (ev):

   -19.8890  -8.5815  -7.7307  -7.2451   3.4288   4.3370   4.8849   5.8983
     6.7065   7.4027   7.7097   9.7969  10.5488  11.7502

     occupation numbers 
     1.0000   1.0000   1.0000   1.0000   0.0000   0.0000   0.0000   0.0000
     0.0000   0.0000   0.0000   0.0000   0.0000   0.0000

          k = 0.8333 0.8660 0.0000 (  4166 PWs)   bands (ev):

   -19.3165  -9.4989  -8.1690  -7.0640   4.2231   4.7122   5.1294   5.6958
     7.4814   8.1913   8.5249   9.9210  11.2352  12.5303

     occupation numbers 
     1.0000   1.0000   1.0000   1.0000   0.0000   0.0000   0.0000   0.0000
     0.0000   0.0000   0.0000   0.0000   0.0000   0.0000

          k = 0.8333 0.9302 0.0000 (  4159 PWs)   bands (ev):

   -18.6085 -10.6103  -8.9341  -6.2549   3.4199   5.2122   6.1100   6.7082
     8.4356   8.6150   9.3565  10.7609  11.9415  13.4951

     occupation numbers 
     1.0000   1.0000   1.0000   1.0000   0.0000   0.0000   0.0000   0.0000
     0.0000   0.0000   0.0000   0.0000   0.0000   0.0000

          k = 0.8333 0.9943 0.0000 (  4152 PWs)   bands (ev):

   -17.7726 -11.8664  -9.4671  -5.3329   2.0905   6.3914   7.2648   7.9178
     8.5416   9.5279  10.5104  11.9240  12.2904  14.4575

     occupation numbers 
     1.0000   1.0000   1.0000   1.0000   0.0000   0.0000   0.0000   0.0000
     0.0000   0.0000   0.0000   0.0000   0.0000   0.0000

          k = 0.8333 1.0585 0.0000 (  4152 PWs)   bands (ev):

   -16.8255 -13.1443  -9.8040  -4.3711   0.8324   7.7447   8.4114   8.5459
     9.3419  10.5978  11.8420  12.2225  12.2829  14.4493

     occupation numbers 
     1.0000   1.0000   1.0000   0.9999   0.0001   0.0000   0.0000   0.0000
     0.0000   0.0000   0.0000   0.0000   0.0000   0.0000

          k = 0.8333 1.1226 0.0000 (  4168 PWs)   bands (ev):

   -15.8479 -14.3001  -9.9687  -3.6035  -0.0921   8.3121   9.2907   9.7156
    10.8820  10.9736  11.1625  12.4549  12.7215  13.3593

     occupation numbers 
     1.0000   1.0000   1.0000   0.9990   0.0025   0.0000   0.0000   0.0000
     0.0000   0.0000   0.0000   0.0000   0.0000   0.0000

          k = 0.8333 1.1868 0.0000 (  4168 PWs)   bands (ev):

   -15.8479 -14.3001  -9.9687  -3.6035  -0.0921   8.3121   9.2907   9.7156
    10.8820  10.9736  11.1625  12.4549  12.7216  13.3593

     occupation numbers 
     1.0000   1.0000   1.0000   0.9990   0.0025   0.0000   0.0000   0.0000
     0.0000   0.0000   0.0000   0.0000   0.0000   0.0000

          k = 0.8333 1.2509 0.0000 (  4152 PWs)   bands (ev):

   -16.8255 -13.1443  -9.8040  -4.3711   0.8324   7.7447   8.4114   8.5459
     9.3419  10.5978  11.8420  12.2225  12.2829  14.4508

     occupation numbers 
     1.0000   1.0000   1.0000   0.9999   0.0001   0.0000   0.0000   0.0000
     0.0000   0.0000   0.0000   0.0000   0.0000   0.0000

          k = 0.8333 1.3151 0.0000 (  4152 PWs)   bands (ev):

   -17.7726 -11.8664  -9.4671  -5.3329   2.0905   6.3914   7.2648   7.9178
     8.5416   9.5279  10.5104  11.9240  12.2904  14.4574

     occupation numbers 
     1.0000   1.0000   1.0000   1.0000   0.0000   0.0000   0.0000   0.0000
     0.0000   0.0000   0.0000   0.0000   0.0000   0.0000

          k = 0.8333 1.3792 0.0000 (  4159 PWs)   bands (ev):

   -18.6085 -10.6103  -8.9341  -6.2549   3.4199   5.2122   6.1100   6.7082
     8.4356   8.6150   9.3565  10.7608  11.9415  13.4951

     occupation numbers 
     1.0000   1.0000   1.0000   1.0000   0.0000   0.0000   0.0000   0.0000
     0.0000   0.0000   0.0000   0.0000   0.0000   0.0000

          k = 0.8333 1.4434 0.0000 (  4166 PWs)   bands (ev):

   -19.3165  -9.4989  -8.1690  -7.0640   4.2231   4.7122   5.1294   5.6958
     7.4814   8.1913   8.5249   9.9210  11.2352  12.5303

     occupation numbers 
     1.0000   1.0000   1.0000   1.0000   0.0000   0.0000   0.0000   0.0000
     0.0000   0.0000   0.0000   0.0000   0.0000   0.0000

          k = 0.8333 1.5075 0.0000 (  4160 PWs)   bands (ev):

   -19.8890  -8.5815  -7.7307  -7.2451   3.4288   4.3370   4.8849   5.8983
     6.7065   7.4027   7.7097   9.7969  10.5488  11.7502

     occupation numbers 
     1.0000   1.0000   1.0000   1.0000   0.0000   0.0000   0.0000   0.0000
     0.0000   0.0000   0.0000   0.0000   0.0000   0.0000

          k = 0.8333 1.5717 0.0000 (  4170 PWs)   bands (ev):

   -20.3215  -8.2400  -7.7790  -6.4170   2.8319   3.7400   4.2764   6.1070
     6.7751   6.9315   7.0620   9.7188  10.0005  11.1592

     occupation numbers 
     1.0000   1.0000   1.0000   1.0000   0.0000   0.0000   0.0000   0.0000
     0.0000   0.0000   0.0000   0.0000   0.0000   0.0000

          k = 0.8889 0.5132 0.0000 (  4176 PWs)   bands (ev):

   -20.9748  -9.0164  -5.8918  -5.3532   1.9365   2.8404   3.3643   5.2194
     6.0275   6.7561   7.8655   8.8042   9.1428  10.2682

     occupation numbers 
     1.0000   1.0000   1.0000   1.0000   0.0000   0.0000   0.0000   0.0000
     0.0000   0.0000   0.0000   0.0000   0.0000   0.0000

          k = 0.8889 0.5774 0.0000 (  4157 PWs)   bands (ev):

   -21.0477  -9.1033  -5.6051  -5.2499   1.8370   2.7401   3.2630   5.1199
     5.9324   6.8213   7.4947   9.0437   9.0444  10.1688

     occupation numbers 
     1.0000   1.0000   1.0000   1.0000   0.0000   0.0000   0.0000   0.0000
     0.0000   0.0000   0.0000   0.0000   0.0000   0.0000

          k = 0.8889 0.6415 0.0000 (  4176 PWs)   bands (ev):

   -20.9748  -9.0164  -5.8918  -5.3532   1.9365   2.8404   3.3643   5.2194
     6.0275   6.7561   7.8655   8.8042   9.1428  10.2682

     occupation numbers 
     1.0000   1.0000   1.0000   1.0000   0.0000   0.0000   0.0000   0.0000
     0.0000   0.0000   0.0000   0.0000   0.0000   0.0000

          k = 0.8889 0.7057 0.0000 (  4167 PWs)   bands (ev):

   -20.7565  -8.7558  -6.5473  -5.7936   2.2351   3.1409   3.6684   5.5176
     6.3173   6.9578   8.1385   8.4215   9.4289  10.5671

     occupation numbers 
     1.0000   1.0000   1.0000   1.0000   0.0000   0.0000   0.0000   0.0000
     0.0000   0.0000   0.0000   0.0000   0.0000   0.0000

          k = 0.8889 0.7698 0.0000 (  4147 PWs)   bands (ev):

   -20.3939  -8.3249  -7.4455  -6.5013   2.7329   3.6409   4.1753   6.0133
     6.8038   7.1379   7.3977   8.9364   9.9010  11.0624

     occupation numbers 
     1.0000   1.0000   1.0000   1.0000   0.0000   0.0000   0.0000   0.0000
     0.0000   0.0000   0.0000   0.0000   0.0000   0.0000

          k = 0.8889 0.8340 0.0000 (  4160 PWs)   bands (ev):

   -19.8890  -8.5815  -7.7307  -7.2451   3.4288   4.3370   4.8849   5.8983
     6.7065   7.4027   7.7097   9.7969  10.5488  11.7502

     occupation numbers 
     1.0000   1.0000   1.0000   1.0000   0.0000   0.0000   0.0000   0.0000
     0.0000   0.0000   0.0000   0.0000   0.0000   0.0000

          k = 0.8889 0.8981 0.0000 (  4173 PWs)   bands (ev):

   -19.2451  -9.8948  -7.8887  -6.9841   4.3214   4.4917   5.2498   5.7961
     7.4746   7.5886   8.4564  11.0590  11.3452  12.6289

     occupation numbers 
     1.0000   1.0000   1.0000   1.0000   0.0000   0.0000   0.0000   0.0000
     0.0000   0.0000   0.0000   0.0000   0.0000   0.0000

          k = 0.8889 0.9623 0.0000 (  4169 PWs)   bands (ev):

   -18.4674 -11.2806  -8.4001  -6.1072   3.0485   5.4070   6.3276   6.9015
     7.3278   8.6529   9.5315  12.2001  12.3577  13.6920

     occupation numbers 
     1.0000   1.0000   1.0000   1.0000   0.0000   0.0000   0.0000   0.0000
     0.0000   0.0000   0.0000   0.0000   0.0000   0.0000

          k = 0.8889 1.0264 0.0000 (  4166 PWs)   bands (ev):

   -17.5659 -12.6567  -8.7713  -5.1491   1.6379   6.6672   7.1704   7.5941
     8.2330   9.8724  10.8048  12.7284  12.7772  14.3973

     occupation numbers 
     1.0000   1.0000   1.0000   1.0000   0.0000   0.0000   0.0000   0.0000
     0.0000   0.0000   0.0000   0.0000   0.0000   0.0000

          k = 0.8889 1.0906 0.0000 (  4173 PWs)   bands (ev):

   -16.5707 -13.9507  -8.9964  -4.2475   0.4463   7.0290   8.1610   9.0112
     9.7438  11.1028  11.4693  12.2621  12.2630  13.3269

     occupation numbers 
     1.0000   1.0000   1.0000   0.9999   0.0004   0.0000   0.0000   0.0000
     0.0000   0.0000   0.0000   0.0000   0.0000   0.0000

          k = 0.8889 1.1547 0.0000 (  4174 PWs)   bands (ev):

   -15.8141 -14.8089  -9.0718  -3.8075  -0.0933   6.9960   9.6915   9.8584
    10.2422  10.8571  11.4376  11.4652  12.3498  13.2435

     occupation numbers 
     1.0000   1.0000   1.0000   0.9995   0.0025   0.0000   0.0000   0.0000
     0.0000   0.0000   0.0000   0.0000   0.0000   0.0000

          k = 0.8889 1.2189 0.0000 (  4173 PWs)   bands (ev):

   -16.5707 -13.9507  -8.9964  -4.2475   0.4463   7.0290   8.1610   9.0112
     9.7438  11.1028  11.4693  12.2621  12.2630  13.3269

     occupation numbers 
     1.0000   1.0000   1.0000   0.9999   0.0004   0.0000   0.0000   0.0000
     0.0000   0.0000   0.0000   0.0000   0.0000   0.0000

          k = 0.8889 1.2830 0.0000 (  4166 PWs)   bands (ev):

   -17.5659 -12.6567  -8.7713  -5.1491   1.6379   6.6672   7.1704   7.5941
     8.2330   9.8724  10.8048  12.7284  12.7771  14.3973

     occupation numbers 
     1.0000   1.0000   1.0000   1.0000   0.0000   0.0000   0.0000   0.0000
     0.0000   0.0000   0.0000   0.0000   0.0000   0.0000

          k = 0.8889 1.3472 0.0000 (  4169 PWs)   bands (ev):

   -18.4674 -11.2806  -8.4001  -6.1072   3.0485   5.4070   6.3276   6.9015
     7.3278   8.6529   9.5315  12.2001  12.3577  13.6920

     occupation numbers 
     1.0000   1.0000   1.0000   1.0000   0.0000   0.0000   0.0000   0.0000
     0.0000   0.0000   0.0000   0.0000   0.0000   0.0000

          k = 0.8889 1.4113 0.0000 (  4173 PWs)   bands (ev):

   -19.2451  -9.8948  -7.8887  -6.9841   4.3214   4.4917   5.2498   5.7961
     7.4746   7.5886   8.4564  11.0590  11.3452  12.6289

     occupation numbers 
     1.0000   1.0000   1.0000   1.0000   0.0000   0.0000   0.0000   0.0000
     0.0000   0.0000   0.0000   0.0000   0.0000   0.0000

          k = 0.8889 1.4755 0.0000 (  4160 PWs)   bands (ev):

   -19.8890  -8.5815  -7.7307  -7.2451   3.4288   4.3370   4.8849   5.8983
     6.7065   7.4027   7.7097   9.7969  10.5488  11.7502

     occupation numbers 
     1.0000   1.0000   1.0000   1.0000   0.0000   0.0000   0.0000   0.0000
     0.0000   0.0000   0.0000   0.0000   0.0000   0.0000

          k = 0.8889 1.5396 0.0000 (  4147 PWs)   bands (ev):

   -20.3939  -8.3249  -7.4455  -6.5013   2.7329   3.6409   4.1753   6.0133
     6.8038   7.1379   7.3977   8.9364   9.9010  11.0624

     occupation numbers 
     1.0000   1.0000   1.0000   1.0000   0.0000   0.0000   0.0000   0.0000
     0.0000   0.0000   0.0000   0.0000   0.0000   0.0000

          k = 0.8889 1.6038 0.0000 (  4167 PWs)   bands (ev):

   -20.7565  -8.7558  -6.5473  -5.7936   2.2351   3.1409   3.6684   5.5176
     6.3173   6.9578   8.1385   8.4215   9.4289  10.5671

     occupation numbers 
     1.0000   1.0000   1.0000   1.0000   0.0000   0.0000   0.0000   0.0000
     0.0000   0.0000   0.0000   0.0000   0.0000   0.0000

          k = 0.9444 0.5453 0.0000 (  4158 PWs)   bands (ev):

   -21.1937  -9.2782  -5.0754  -4.9346   1.6379   2.5394   3.0603   4.9206
     5.7381   6.6993   6.9733   8.8513   9.5322   9.9681

     occupation numbers 
     1.0000   1.0000   1.0000   1.0000   0.0000   0.0000   0.0000   0.0000
     0.0000   0.0000   0.0000   0.0000   0.0000   0.0000

          k = 0.9444 0.6094 0.0000 (  4158 PWs)   bands (ev):

   -21.1937  -9.2782  -5.0754  -4.9346   1.6379   2.5394   3.0603   4.9206
     5.7381   6.6993   6.9733   8.8513   9.5322   9.9681

     occupation numbers 
     1.0000   1.0000   1.0000   1.0000   0.0000   0.0000   0.0000   0.0000
     0.0000   0.0000   0.0000   0.0000   0.0000   0.0000

          k = 0.9444 0.6736 0.0000 (  4157 PWs)   bands (ev):

   -21.0477  -9.1033  -5.6051  -5.2499   1.8370   2.7401   3.2630   5.1199
     5.9324   6.8213   7.4947   9.0437   9.0444  10.1688

     occupation numbers 
     1.0000   1.0000   1.0000   1.0000   0.0000   0.0000   0.0000   0.0000
     0.0000   0.0000   0.0000   0.0000   0.0000   0.0000

          k = 0.9444 0.7377 0.0000 (  4167 PWs)   bands (ev):

   -20.7565  -8.7558  -6.5473  -5.7936   2.2351   3.1409   3.6684   5.5176
     6.3173   6.9578   8.1385   8.4215   9.4289  10.5671

     occupation numbers 
     1.0000   1.0000   1.0000   1.0000   0.0000   0.0000   0.0000   0.0000
     0.0000   0.0000   0.0000   0.0000   0.0000   0.0000

          k = 0.9444 0.8019 0.0000 (  4170 PWs)   bands (ev):

   -20.3215  -8.2400  -7.7790  -6.4170   2.8319   3.7400   4.2764   6.1070
     6.7751   6.9315   7.0620   9.7188  10.0005  11.1592

     occupation numbers 
     1.0000   1.0000   1.0000   1.0000   0.0000   0.0000   0.0000   0.0000
     0.0000   0.0000   0.0000   0.0000   0.0000   0.0000

          k = 0.9444 0.8660 0.0000 (  4167 PWs)   bands (ev):

   -19.7452  -9.1701  -7.5646  -7.0213   3.6263   4.5225   5.0863   5.5120
     6.7135   6.9175   7.7599  10.7502  11.2519  11.9462

     occupation numbers 
     1.0000   1.0000   1.0000   1.0000   0.0000   0.0000   0.0000   0.0000
     0.0000   0.0000   0.0000   0.0000   0.0000   0.0000

          k = 0.9444 0.9302 0.0000 (  4166 PWs)   bands (ev):

   -19.0314 -10.6204  -7.5488  -6.7456   3.9524   4.6153   5.5622   6.0901
     6.5311   7.8990   8.7419  11.6555  12.7541  12.9604

     occupation numbers 
     1.0000   1.0000   1.0000   1.0000   0.0000   0.0000   0.0000   0.0000
     0.0000   0.0000   0.0000   0.0000   0.0000   0.0000

          k = 0.9444 0.9943 0.0000 (  4163 PWs)   bands (ev):

   -18.1868 -12.0601  -7.9662  -5.8165   2.4452   5.7821   6.3436   6.7423
     7.3243   9.0681   9.9248  12.6380  13.4671  14.0737

     occupation numbers 
     1.0000   1.0000   1.0000   1.0000   0.0000   0.0000   0.0000   0.0000
     0.0000   0.0000   0.0000   0.0000   0.0000   0.0000

          k = 0.9444 1.0585 0.0000 (  4169 PWs)   bands (ev):

   -17.2267 -13.4351  -8.2536  -4.8614   1.0696   6.1659   7.1967   8.1138
     8.7367  10.4005  11.2955  12.2070  12.9101  14.0415

     occupation numbers 
     1.0000   1.0000   1.0000   1.0000   0.0000   0.0000   0.0000   0.0000
     0.0000   0.0000   0.0000   0.0000   0.0000   0.0000

          k = 0.9444 1.1226 0.0000 (  4181 PWs)   bands (ev):

   -16.2296 -14.6447  -8.3997  -4.1268   0.1159   6.0998   8.7388   9.6447
    10.3415  10.4563  11.2719  11.9673  12.1556  12.8449

     occupation numbers 
     1.0000   1.0000   1.0000   0.9999   0.0012   0.0000   0.0000   0.0000
     0.0000   0.0000   0.0000   0.0000   0.0000   0.0000

          k = 0.9444 1.1868 0.0000 (  4181 PWs)   bands (ev):

   -16.2296 -14.6447  -8.3997  -4.1268   0.1159   6.0998   8.7388   9.6447
    10.3415  10.4563  11.2719  11.9673  12.1556  12.8450

     occupation numbers 
     1.0000   1.0000   1.0000   0.9999   0.0012   0.0000   0.0000   0.0000
     0.0000   0.0000   0.0000   0.0000   0.0000   0.0000

          k = 0.9444 1.2509 0.0000 (  4169 PWs)   bands (ev):

   -17.2267 -13.4351  -8.2535  -4.8614   1.0696   6.1659   7.1967   8.1138
     8.7367  10.4005  11.2955  12.2070  12.9101  14.0415

     occupation numbers 
     1.0000   1.0000   1.0000   1.0000   0.0000   0.0000   0.0000   0.0000
     0.0000   0.0000   0.0000   0.0000   0.0000   0.0000

          k = 0.9444 1.3151 0.0000 (  4163 PWs)   bands (ev):

   -18.1868 -12.0601  -7.9662  -5.8165   2.4452   5.7821   6.3436   6.7423
     7.3243   9.0681   9.9248  12.6380  13.4671  14.0737

     occupation numbers 
     1.0000   1.0000   1.0000   1.0000   0.0000   0.0000   0.0000   0.0000
     0.0000   0.0000   0.0000   0.0000   0.0000   0.0000

          k = 0.9444 1.3792 0.0000 (  4166 PWs)   bands (ev):

   -19.0314 -10.6204  -7.5488  -6.7456   3.9524   4.6153   5.5622   6.0901
     6.5311   7.8990   8.7419  11.6555  12.7541  12.9604

     occupation numbers 
     1.0000   1.0000   1.0000   1.0000   0.0000   0.0000   0.0000   0.0000
     0.0000   0.0000   0.0000   0.0000   0.0000   0.0000

          k = 0.9444 1.4434 0.0000 (  4167 PWs)   bands (ev):

   -19.7452  -9.1701  -7.5646  -7.0213   3.6263   4.5225   5.0863   5.5120
     6.7135   6.9175   7.7599  10.7502  11.2519  11.9462

     occupation numbers 
     1.0000   1.0000   1.0000   1.0000   0.0000   0.0000   0.0000   0.0000
     0.0000   0.0000   0.0000   0.0000   0.0000   0.0000

          k = 0.9444 1.5075 0.0000 (  4170 PWs)   bands (ev):

   -20.3215  -8.2400  -7.7790  -6.4170   2.8319   3.7400   4.2764   6.1070
     6.7751   6.9315   7.0620   9.7188  10.0005  11.1592

     occupation numbers 
     1.0000   1.0000   1.0000   1.0000   0.0000   0.0000   0.0000   0.0000
     0.0000   0.0000   0.0000   0.0000   0.0000   0.0000

          k = 0.9444 1.5717 0.0000 (  4167 PWs)   bands (ev):

   -20.7565  -8.7558  -6.5473  -5.7936   2.2351   3.1409   3.6684   5.5176
     6.3173   6.9578   8.1385   8.4215   9.4289  10.5671

     occupation numbers 
     1.0000   1.0000   1.0000   1.0000   0.0000   0.0000   0.0000   0.0000
     0.0000   0.0000   0.0000   0.0000   0.0000   0.0000

          k = 0.9444 1.6358 0.0000 (  4157 PWs)   bands (ev):

   -21.0477  -9.1033  -5.6051  -5.2499   1.8370   2.7401   3.2630   5.1199
     5.9324   6.8213   7.4947   9.0437   9.0444  10.1688

     occupation numbers 
     1.0000   1.0000   1.0000   1.0000   0.0000   0.0000   0.0000   0.0000
     0.0000   0.0000   0.0000   0.0000   0.0000   0.0000

     the Fermi energy is    -1.7187 ev
     (compare with:    -1.7187 eV, computed in scf)

     Writing all to output data dir ./tmp/graphene.save/ :
     XML data file, pseudopotentials, collected wavefunctions

     init_run     :      0.35s CPU      0.35s WALL (       1 calls)
     electrons    :     43.65s CPU     25.17s WALL (       1 calls)

     Called by init_run:
     wfcinit      :      0.00s CPU      0.00s WALL (       1 calls)
     wfcinit:wfcr :      3.03s CPU      1.87s WALL (     324 calls)
     potinit      :      0.02s CPU      0.01s WALL (       1 calls)
     hinit0       :      0.28s CPU      0.28s WALL (       1 calls)

     Called by electrons:
     c_bands      :     43.64s CPU     25.15s WALL (       1 calls)
     v_of_rho     :      0.01s CPU      0.01s WALL (       1 calls)
     v_h          :      0.00s CPU      0.00s WALL (       1 calls)
     v_xc         :      0.01s CPU      0.01s WALL (       1 calls)

     Called by c_bands:
     init_us_2    :      0.13s CPU      0.04s WALL (     324 calls)
     cegterg      :     39.64s CPU     22.96s WALL (     325 calls)

     Called by sum_band:

     Called by *egterg:
     cdiaghg      :      9.91s CPU      4.51s WALL (    3318 calls)
     cegterg:over :      2.97s CPU      1.61s WALL (    2994 calls)
     cegterg:upda :      1.03s CPU      0.85s WALL (    2994 calls)
     cegterg:last :      0.27s CPU      0.26s WALL (     649 calls)
     h_psi        :     26.99s CPU     16.55s WALL (    3643 calls)
     g_psi        :      0.21s CPU      0.17s WALL (    2994 calls)

     Called by h_psi:
     h_psi:calbec :      1.03s CPU      0.54s WALL (    3643 calls)
     vloc_psi     :     25.27s CPU     15.60s WALL (    3643 calls)
                                        0.00s GPU  (    3643 calls)
     add_vuspsi   :      0.46s CPU      0.20s WALL (    3643 calls)

     General routines
     calbec       :      1.01s CPU      0.53s WALL (    3643 calls)
     fft          :      0.27s CPU      0.26s WALL (      10 calls)
     fftw         :     22.95s CPU     14.23s WALL (   89318 calls)

     Parallel routines

     PWSCF        :     45.20s CPU     26.59s WALL


   This run was terminated on:  16:15:27   6Aug2026            

=------------------------------------------------------------------------------=
   JOB DONE.
=------------------------------------------------------------------------------=
