72
Lattice="14.76 0.0 0.0 -7.38 12.782534959858314 0.0 0.0 0.0 15.0" Properties=species:S:1:pos:R:3:REF_forces:R:3:MLIP_forces:R:3:historical_X0_saved_forces_Ry_A:R:3 REF_energy=-11162.248144604893 MLIP_energy=-89.60324539279237 config_type=s0_sscha_overlap_094 split=frozen_overlap_screen sscha_index=94 overlap_local_index=5 selection_group=typical lattice_temperature_K=450.0 degauss_Ry=0.0019000869 kgrid=8 sscha_random_seed=453005 historical_X0_saved_energy_Ry=8.197445232290695 corrected_X0_support_level=corrected_X0_core pbc="T T F"
C        0.02732167       0.08399910       7.25731887      -1.96297119      -2.77827957       0.01311700      -1.92677898      -2.73319585       0.02435080      -0.12221335      -0.33844522       0.00179012
C        2.43521821       0.07568281       7.40026617       2.68952329      -4.41105066       1.24958853       2.59935053      -4.80020531       1.23911911       0.06969370      -0.28133650       0.09107345
C        4.96158205      -0.03605385       7.67723634      -2.42688279       2.51224932      -0.59388215      -2.40595731       2.55644304      -0.61218113      -0.37366164       0.11349028      -0.04499427
C        7.42743340      -0.01839804       7.58001055      -0.71232182      -0.84366431      -1.03919542      -0.77976344      -0.88225821      -1.01243195      -0.06296805      -0.06646313      -0.07441243
C        9.91143271      -0.06970536       7.42920426      -1.23834201       0.12950492      -1.55292908      -1.22877039       0.13004821      -1.53111327      -0.06450551       0.04534918      -0.11253469
C       12.32207043       0.03316884       7.29008882       3.71814659      -1.59261097      -1.49108300       3.69760381      -1.58106832      -1.49065792       0.47232344      -0.02807566      -0.10956132
C       -1.20325504       2.23349331       7.33641776      -1.87863540      -1.53964394      -0.61445406      -1.85768986      -1.52231113      -0.59182054       0.01667836       0.00525222      -0.04349795
C        1.22213197       2.12081137       7.41380138       2.34126788       3.67245088      -0.66533902       2.35638690       3.67586077      -0.63213909       0.16350138       0.30153509      -0.04646150
C        3.68861194       2.09863285       7.49693561      -0.47409343       1.88614174       0.55233724      -0.44471486       1.84244362       0.55872776       0.03902620       0.04744243       0.04106594
C        6.17238638       2.08843090       7.55980879      -1.77341892       3.99486028       1.17463085      -1.79507188       4.00049339       1.17599723      -0.35818381       0.20851337       0.08643426
C        8.55757705       2.13084218       7.33775072       2.44119406      -1.87703798       2.43669977       2.44286695      -1.90125160       2.40124333       0.06933578      -0.01672999       0.17648818
C       11.04313948       2.08760772       7.33405835       0.00297451       0.63022701       1.54485171      -0.02551111       0.61385659       1.54194936       0.00322206      -0.13701582       0.11333102
C       -2.52382337       4.29903474       7.45546517      -2.80091093      -0.90983550       0.58079344      -2.78748584      -0.87624576       0.54562357      -0.37144989      -0.05191556       0.04010293
C       -0.00669091       4.28947359       7.48502067      -0.11771590       0.08778286      -1.47712396      -0.14370898       0.04772586      -1.43273193       0.14880811      -0.09705721      -0.10530376
C        2.51693258       4.28063944       7.60715897      -3.51010783      -2.40743213      -1.32898214      -3.42986230      -2.26243951      -1.29636997      -0.06257237      -0.06911651      -0.09528120
C        4.94840740       4.26134146       7.52036239      -2.84443534      -0.85672243       1.11491466      -2.87424952      -0.87034784       1.05621338      -0.04612955       0.00531008       0.07763045
C        7.35617653       4.24274950       7.53532704       1.16255643       3.40230970       1.09160838       1.16261557       3.32938610       1.08575691       0.16665381       0.13381514       0.07980161
C        9.78372654       4.21817221       7.63621903       0.10299994       1.69680005       0.15299504       0.12821218       1.66952822       0.15131056      -0.20522951       0.20230769       0.01112104
C       -3.67471867       6.41587357       7.62583526      -3.70290637       0.36116595       0.81234390      -3.77507444       0.35575262       0.78606468      -0.39009573      -0.02078384       0.05777502
C       -1.22225846       6.38368199       7.53853608      -3.03607611      -0.34884985      -0.49724390      -3.02637569      -0.31023018      -0.47983613      -0.35126238      -0.13774740      -0.03526721
C        1.17741493       6.32804612       7.55638439       4.08750278       1.36339327      -0.56887689       4.03498125       1.38050100      -0.59861661       0.24497445       0.11071535      -0.04399735
C        3.67324636       6.38083933       7.60775016      -0.49147974       3.97436782      -0.63664525      -0.45978343       3.94664678      -0.65273905      -0.02311605       0.40326588      -0.04797567
C        6.09363381       6.34206122       7.70762054       1.35663050       5.99922468      -0.41691826       1.35734779       5.97960153      -0.46745682       0.30389488       0.38275185      -0.03435745
C        8.54319863       6.39519646       7.82774840       1.76129334       0.45220897      -1.24992226       1.79982505       0.49695147      -1.21694288       0.13135739       0.12370452      -0.08944372
C       -4.93962159       8.55535375       7.63009324       1.29351943      -1.11800667       0.49328208       1.30863800      -1.09709985       0.48555979       0.22880458      -0.10698569       0.03568778
C       -2.45895460       8.55064755       7.59011245       2.30501790      -0.97816874       0.42593126       2.30858026      -1.00078201       0.39774750       0.36625336      -0.00807943       0.02923408
C       -0.00221445       8.48706060       7.38834312       2.12958176      -1.45277690       1.37746415       2.11561631      -1.48276937       1.35670275       0.04477114      -0.03759315       0.09971605
C        2.44172771       8.51451376       7.41049013       4.17202291      -1.54908374       0.46062264       4.06095559      -1.43882936       0.46617616       0.27629457      -0.29159329       0.03426304
C        4.91365348       8.54131663       7.57874663       1.31895484       0.81932059      -0.15154468       1.30325675       0.80248307      -0.16879087      -0.18727889       0.02678237      -0.01240595
C        7.35601989       8.54310122       7.62886858      -0.00119531      -1.52909521       0.82262600       0.00757259      -1.53293837       0.81434275      -0.02444477      -0.05907742       0.05985318
C       -6.17170500      10.63021169       7.43742293       0.45067787       1.69696742       0.38429096       0.43869737       1.65230829       0.40456624       0.02575726       0.29886769       0.02973498
C       -3.65434612      10.69382882       7.55917094      -1.06670802      -3.84685318       0.14977242      -0.97208744      -3.84090812       0.16463975      -0.06723695      -0.33158925       0.01210047
C       -1.17719691      10.65732851       7.53576725      -2.52429340      -1.41440627      -0.48715720      -2.55193602      -1.35655465      -0.45557683      -0.00625819      -0.22204941      -0.03348446
C        1.21664077      10.56505943       7.33232346       2.75186020       2.61123937       0.18416452       2.80552210       2.57755913       0.19416677       0.20504814       0.19082835       0.01427118
C        3.76314417      10.60857987       7.22147720      -0.60185360       2.46617953       0.76864517      -0.59038889       2.40805880       0.79734785       0.02845629       0.26178072       0.05860402
C        6.16093902      10.67847413       7.39984600       1.03780317      -2.51021918       0.46314721       0.99351483      -2.46677446       0.43928056       0.03355366      -0.21132215       0.03228653
C        1.24154932       0.75390731       7.36679503      -0.67269495      -0.87974588      -0.50924580      -0.62729431      -0.86881882      -0.49446946      -0.08979413      -0.13262645      -0.03634273
C        3.67400767       0.74832345       7.57589711       0.84691161      -4.32251755      -0.49630004       0.90411401      -4.22656089      -0.51232080       0.04992310      -0.40873290      -0.03765501
C        6.14820125       0.76114486       7.71055291       2.31068512      -5.53661535      -1.01411868       2.31496437      -5.58001554      -1.03166360       0.09408803      -0.33410261      -0.07582615
C        8.66274051       0.62314478       7.40384567      -1.43443182       2.75564512       0.54064412      -1.39064423       2.75399085       0.47828174      -0.13865852       0.27130591       0.03515313
C       11.12543112       0.64083653       7.30166863      -2.56728636       2.72483868       0.52486217      -2.59015814       2.73910721       0.51894297      -0.15062302       0.16259644       0.03814166
C       13.56484833       0.80725818       7.17747319      -0.60767972      -0.55403751       1.49990934      -0.56460525      -0.57926162       1.47006080      -0.08326211      -0.08495150       0.10804740
C        0.04626720       2.89761763       7.33541982      -1.69459892      -0.44209502       1.10896899      -1.70827969      -0.35540623       1.10180975       0.02621711      -0.07331227       0.08098151
C        2.50972123       2.84589552       7.43136118      -2.35064135       0.15791073       0.98079589      -2.37338121       0.11589819       0.93517907       0.06173387       0.14363842       0.06873429
C        4.87470938       2.76882578       7.60275237       4.07728110       3.79131607      -1.12411690       4.06250704       3.77349825      -1.07806048       0.26425297       0.34734199      -0.07923620
C        7.39179630       2.87301086       7.57346905      -1.67905172      -2.85400216      -1.72245503      -1.69809361      -2.81958384      -1.70468913      -0.07979652      -0.40736345      -0.12529216
C        9.79455404       2.79376950       7.54765360       0.55703438      -0.00226746      -2.08220121       0.54508315       0.06442661      -2.04165188      -0.23993808       0.01570308      -0.15005863
C       12.22487133       2.86715118       7.45099838       2.28442542      -0.11260506      -1.24374133       2.26879573      -0.08977929      -1.21966830       0.09049554       0.10568437      -0.08964399
C       -1.33282389       4.98148534       7.38034832       3.89933300       0.12930798       1.55986129       3.91165440       0.03459155       1.56721017       0.24971679       0.03438016       0.11518764
C        1.26475756       4.95593270       7.50477646      -1.78251317      -0.99901525       1.09572035      -1.86208358      -1.01136726       1.04435666      -0.38185755      -0.09885325       0.07675867
C        3.63853415       5.01508507       7.62122314       5.49646629      -1.83832128      -0.35489708       5.44897557      -1.90257112      -0.34087148       0.51376767      -0.26692024      -0.02505375
C        6.14517646       5.01617053       7.57656211      -0.67895507      -5.16221259      -0.12774732      -0.69034262      -5.12087139      -0.12862668      -0.06037933      -0.31430994      -0.00945401
C        8.59702880       4.99605636       7.66648152      -1.93179785      -2.32749088       0.12630441      -1.93636621      -2.31054148       0.15873576       0.09320155      -0.06202832       0.01166690
C       10.94442362       5.01044757       7.61503032       4.26720901      -1.56818267      -0.59690808       4.28669858      -1.59654986      -0.60174513       0.37161583      -0.14235731      -0.04422762
C       -2.47311421       7.13692837       7.63209309       1.54065669      -0.86960622      -0.78368021       1.54899998      -0.80763448      -0.78162047       0.25246715      -0.03199397      -0.05744834
C        0.00971018       6.98974688       7.49455936      -2.01631592       4.79828194      -0.23626561      -1.94498479       4.79377743      -0.22253876      -0.30712135       0.34825269      -0.01635651
C        2.41267802       7.09832027       7.52183240       1.05536406      -0.80878009       0.28918174       1.06921506      -0.81233910       0.27809717       0.01071846      -0.15323174       0.02043989
C        4.92815909       7.17705595       7.58168351      -1.80465114      -5.05613710       1.00348948      -1.82027552      -5.05231487       0.97041072      -0.31614804      -0.41158930       0.07132406
C        7.32886513       7.09778152       7.76150611      -0.22119869       0.24512692      -0.08665672      -0.20123112       0.28563672      -0.05553836      -0.03747192       0.16446496      -0.00408205
C        9.78973320       7.10878392       7.72577354       1.31563606       1.28322987      -0.11442515       1.30937254       1.23994026      -0.10059277       0.21687982       0.00160217      -0.00739356
C       -3.62264874       9.24305349       7.64046361      -3.83407763       0.93651019      -0.65004173      -3.84339473       0.92630765      -0.63116736      -0.33330710       0.16938594      -0.04638967
C       -1.16600643       9.23375435       7.51727049      -1.78957419      -0.30501640      -0.31034629      -1.78362062      -0.32631605      -0.29694433       0.09471216      -0.14923189      -0.02182502
C        1.29683665       9.18761526       7.42482803      -5.37779136       0.37533067      -1.19578100      -5.26695886       0.30133062      -1.11608030      -0.21997483       0.20201510      -0.08203045
C        3.73034372       9.24281761       7.39538793      -1.93751032      -1.44572694      -0.17433853      -1.92918495      -1.42673343      -0.20429031      -0.10461447      -0.05811264      -0.01501486
C        6.14847670       9.23804902       7.63902872      -0.22217185       1.35056604      -1.42378643      -0.21517990       1.36650961      -1.40332161      -0.12080870      -0.00199200      -0.10314234
C        8.58472866       9.24804524       7.55811474       0.28135659      -0.83195808       0.17707187       0.25427696      -0.84351309       0.16785735      -0.20540616      -0.07924981       0.01233739
C       -4.87796622      11.27601174       7.49125008      -3.52202618       5.39179076      -0.81853332      -3.48449003       5.82742493      -0.80226883      -0.32679403       0.35604213      -0.05896557
C       -2.47824746      11.35047808       7.55299647       4.52997395       1.70878961       0.83751063       4.44898331       1.60316821       0.83512817       0.25286724       0.17594309       0.06138104
C        0.02090296      11.30239395       7.40023681       0.50974203       2.58738364       1.37654652       0.47104575       2.62490663       1.34104660      -0.00389494       0.09262844       0.09856496
C        2.49635646      11.31701627       7.29780246      -0.17388062      -1.29564882       0.18542230      -0.16898360      -1.31797825       0.20432157       0.12275361      -0.14252512       0.01501740
C        5.02505331      11.37128461       7.23201383      -4.88395829       1.03657469       0.46789064      -4.81836694       0.99181380       0.44939119      -0.28588825       0.11790515       0.03302968
C        7.33136261      11.37482155       7.36186233       4.25155099       2.14672253      -0.19112321       4.22690162       2.09638868      -0.20018242       0.39852626       0.29585907      -0.01471334
72
Lattice="14.76 0.0 0.0 -7.38 12.782534959858314 0.0 0.0 0.0 15.0" Properties=species:S:1:pos:R:3:REF_forces:R:3:MLIP_forces:R:3:historical_X0_saved_forces_Ry_A:R:3 REF_energy=-11162.236826574002 MLIP_energy=-89.60115155752669 config_type=s0_sscha_overlap_065 split=frozen_overlap_screen sscha_index=65 overlap_local_index=1 selection_group=typical lattice_temperature_K=450.0 degauss_Ry=0.0019000869 kgrid=8 sscha_random_seed=453005 historical_X0_saved_energy_Ry=0.7478449074156421 corrected_X0_support_level=corrected_X0_core pbc="T T F"
C        0.01358438      -0.02080645       7.58997408      -0.09082036       1.10484314      -0.72977344      -0.09881683       1.06949314      -0.72924815       0.03163754      -0.25996362      -0.05359888
C        2.39132831      -0.00260158       7.48098387       4.97499591       0.53059650       0.76496747       4.74153920       0.72647979       0.77414108       0.38726068       0.21728129       0.05689826
C        4.91774170       0.07612333       7.23886382       1.41287749       0.91938330       2.83850535       1.45394661       0.79623612       2.76141847      -0.26448107       0.11497755       0.20296054
C        7.37462041       0.05535273       7.42747147       4.69889183      -3.07818718      -1.02702716       4.44065941      -3.03863223      -0.98776898       0.46905088      -0.32328354      -0.07259963
C        9.79066468      -0.01788117       7.44007730       0.75866492       1.59536283      -0.17908993       0.75839568       1.55755053      -0.18928749      -0.09641822       0.04482899      -0.01391243
C       12.27971636       0.03770182       7.51976333       0.00596419      -2.76625452      -0.28059040       0.03188816      -2.78253842      -0.29422896       0.19180582       0.05259954      -0.02162544
C       -1.28401533       2.06861573       7.41527313       0.81512686       2.44105471      -0.34813894       0.76361148       2.44919861      -0.30510557       0.37202882       0.40291016      -0.02242469
C        1.11291734       2.14945790       7.38913334       6.69293197      -1.13503689       1.17125036       6.69215048      -1.01865355       1.16526638       0.40430365       0.03280705       0.08564580
C        3.61173618       2.14806486       7.55618839       2.08447175      -0.58058260       0.14978656       2.20340054      -0.55666907       0.15665126       0.19673881      -0.20587550       0.01151379
C        6.22838636       2.09607499       7.58360250      -3.71555646       2.67164641      -0.11899965      -3.85295238       2.69583204      -0.10512035      -0.64428185      -0.00801784      -0.00772616
C        8.62448815       2.20033563       7.57869076      -1.17791723      -2.22826995      -0.05341415      -1.15087077      -2.21753432      -0.08044949      -0.22563299       0.14831782      -0.00591322
C       11.00326739       2.13697599       7.51569515       2.53785340      -0.04706199      -0.54266449       2.52884028      -0.02898157      -0.53384301       0.35490293      -0.31839622      -0.03923689
C       -2.44151930       4.27153900       7.32971272      -1.34753831      -0.54231765       0.52901682      -1.29536886      -0.54822712       0.57175189      -0.45003811       0.05401078       0.04202304
C       -0.05020662       4.28649968       7.40494451       3.67945534      -3.30583780       0.87524363       3.64060803      -3.33221747       0.91163772       0.28457890      -0.49488546       0.06700417
C        2.41926688       4.32914209       7.54510458       5.57708528      -4.86488431       0.86143783       5.15195075      -4.64719701       0.90847647       0.69816725      -0.13445644       0.06677185
C        4.88210880       4.22244186       7.72306757       0.66821711      -0.55616715      -0.57834369       0.67372171      -0.46900348      -0.58730033       0.22531962       0.25142424      -0.04316573
C        7.40289995       4.28964321       7.66751626      -1.01325324      -1.56027370      -0.11195612      -1.01476419      -1.54891261      -0.13277437       0.27485908      -0.30653687      -0.00975886
C        9.86678528       4.29488433       7.62707764       1.83293199      -1.01543637      -0.85722945       1.86193896      -1.01721315      -0.87040684      -0.22678965      -0.10088630      -0.06397378
C       -3.70405646       6.43153744       7.39995621       3.56337877       1.17158229      -0.50957773       3.54916805       1.12096430      -0.51843154      -0.01170124       0.11814016      -0.03810401
C       -1.16033580       6.37324781       7.39547269      -5.99408531       0.56935177      -1.27285882      -5.95784383       0.63021721      -1.23599806      -0.59361012      -0.22767905      -0.09084451
C        1.21496964       6.34296513       7.52223034       1.09326237       1.37080962       0.38557111       1.09209023       1.38891735       0.37129952       0.19583390       0.21951148       0.02728973
C        3.70501025       6.35640871       7.80743135      -1.53372500       1.92427120      -0.67485982      -1.49685044       1.95064039      -0.65675220      -0.12407802       0.45461878      -0.04827065
C        6.10720804       6.34121615       7.71906746       1.83086868      -1.17863611       0.86755371       1.84540296      -1.15461872       0.86629188       0.52432313      -0.26872690       0.06367108
C        8.63359443       6.37998915       7.55320289      -0.13995594       0.68936649       0.91893412      -0.12552826       0.68062864       0.91607135      -0.17617059       0.01297521       0.06733020
C       -4.93621150       8.59672212       7.49786007       5.41956922      -3.82595783       0.18388735       5.22585323      -3.76703652       0.20004307       0.52929085      -0.48952271       0.01470276
C       -2.43501602       8.58219342       7.30506552      -0.61848786      -2.09737689      -0.07349138      -0.59650311      -2.04092892      -0.08727371       0.34032130       0.01756483      -0.00641453
C        0.01897268       8.50699604       7.23331980      -1.95118474      -0.42547078       0.77829967      -1.95920130      -0.41488560       0.75146768      -0.43047533       0.17568933       0.05523167
C        2.45358857       8.50836887       7.41454833      -0.59037337      -1.84761787       0.18825772      -0.62766180      -1.84357664       0.22206929       0.11120263      -0.43678273       0.01632185
C        5.00345165       8.41880627       7.79112238      -4.60942567       1.68039384      -1.12421486      -4.53182785       1.66130167      -1.14323262      -0.78627995      -0.01409579      -0.08402602
C        7.35361020       8.45846785       7.65132135       2.64570603       0.12846234       0.82610007       2.65826455       0.13457304       0.81061503       0.18011705       0.24488694       0.05957912
C       -6.15160154      10.60418502       7.51857193      -0.98312017       1.90660438       0.72656419      -1.02531255       1.89632857       0.69021884       0.01236998       0.43129352       0.05073002
C       -3.67537008      10.78388600       7.40758641       0.52804700      -3.55132390      -0.21016454       0.54792066      -3.63145394      -0.16577083      -0.13230679      -0.22851748      -0.01218386
C       -1.22610427      10.64642503       7.21181157       2.90783103       2.50525412       0.11087677       3.00526617       2.53065702       0.10546211       0.38239640      -0.08803314       0.00775127
C        1.25847679      10.64274337       7.29561217      -2.38616962      -0.87695907      -0.74009899      -2.36189282      -0.87172689      -0.73911455      -0.30557740      -0.17012878      -0.05432386
C        3.71243417      10.65058269       7.37583314      -0.77031768      -2.80173883       0.64530344      -0.77783992      -3.00655809       0.66074526       0.03152391       0.05174084       0.04856389
C        6.15453468      10.63196853       7.78088958       0.03974437      -0.77065655      -1.58357355       0.03127472      -0.76187358      -1.62202481       0.14902191      -0.18453178      -0.11921687
C        1.27960129       0.70769133       7.52179402      -6.50928733       2.03208835      -0.51439161      -6.18630974       1.84907688      -0.50846449      -0.64780087       0.18336791      -0.03737157
C        3.66988321       0.75710879       7.59644923      -0.39201199      -3.07300332      -2.81297352      -0.49704890      -2.98460842      -2.74924642       0.02321893      -0.49156918      -0.20206586
C        6.24840483       0.72731330       7.46049737      -6.24442488       0.73996580      -1.03698273      -6.03278727       0.70512216      -0.94287628      -0.35429416       0.26023918      -0.06930021
C        8.59701671       0.79515709       7.45397546       0.82786848      -2.34177207       0.50231565       0.85265271      -2.32756443       0.46799930       0.01132482       0.07696485       0.03439755
C       11.03730061       0.73416862       7.50598886      -0.42692911      -1.84769938      -0.26400576      -0.41798590      -1.79933703      -0.24906499       0.05065996      -0.26089784      -0.01830570
C       13.51810478       0.68062075       7.47801861       0.38141827      -0.08516368       0.76257968       0.33555502      -0.10091394       0.76144275      -0.14300911      -0.21513514       0.05596512
C       -0.04623924       2.81964039       7.41122119      -2.70072687       1.74420527      -0.39666388      -2.64239043       1.68048736      -0.35439198      -0.07715830      -0.11143198      -0.02604754
C        2.46562753       2.87163073       7.47960620      -4.93123728       1.09766076      -0.22301852      -5.05541921       1.01659213      -0.21875539       0.01747559       0.30408545      -0.01607842
C        4.84865363       2.80439480       7.56347360       3.63371824       0.87207603       0.94845245       3.65459567       0.74275634       0.90792373       0.06958287       0.25398433       0.06673116
C        7.39558369       2.85287742       7.62837145      -0.08378865       1.67479989       0.20283844      -0.04626361       1.73272848       0.19058649       0.24097298      -0.16208183       0.01400778
C        9.82386963       2.83621144       7.59551032       1.24418664       3.35080562       0.07759127       1.26534000       3.36961659       0.06228870      -0.27024399       0.14821019       0.00457845
C       12.27314749       2.82322625       7.36283600      -0.71943246       0.39137667       0.74377129      -0.69051392       0.40498560       0.78996949      -0.09328297       0.26106530       0.05806152
C       -1.22333033       4.94979655       7.37163244      -0.45714446       1.69526098      -0.08190275      -0.51207151       1.69600920      -0.05294920       0.08202074       0.24284638      -0.00389155
C        1.27096305       4.92858598       7.59490366      -6.90595944       3.17269348      -1.38071634      -6.46814705       2.96976825      -1.41698647      -0.92823545       0.31066165      -0.10414656
C        3.68522816       4.98846438       7.75872233      -0.77751959      -1.62497474      -0.65003067      -0.70491125      -1.65717092      -0.65476489       0.04699582      -0.43229068      -0.04812441
C        6.12799319       4.92788403       7.69827298       0.58787580       0.11838747       0.17929228       0.58928706       0.09592493       0.20465065      -0.13968912      -0.00946276       0.01504163
C        8.65947360       4.95532436       7.62052659      -1.48958019       1.84716279       0.03172998      -1.54049585       1.82790159       0.02947164       0.13957193       0.41117716       0.00216631
C       11.11730377       5.05270927       7.45398046      -1.51137569      -3.64550110       0.13928206      -1.55449257      -3.58221113       0.14380060       0.12659829      -0.40025906       0.01056911
C       -2.44889402       7.16263087       7.23302970       0.90971466      -1.87649342       1.67828707       0.93756431      -1.94775661       1.64405832       0.39948776      -0.01773731       0.12083625
C       -0.02860590       7.06251781       7.39751703       4.19395031       1.78969940      -0.24632762       4.09752292       1.75142396      -0.21523391      -0.02453784       0.25500749      -0.01581902
C        2.45320283       7.07105917       7.57349524      -0.26593331      -0.10726617       0.38464500      -0.25678452      -0.10729726       0.34083049      -0.08323945      -0.26640358       0.02505076
C        4.93797718       7.04222813       7.84741010      -0.74700368      -0.00360392      -0.35281963      -0.76048587       0.00139977      -0.34401086      -0.44055235      -0.13780146      -0.02528429
C        7.33452205       7.03928156       7.70268898       2.30856730       0.58375226      -1.17049600       2.29040876       0.62686703      -1.16347611       0.13350855       0.29534256      -0.08551392
C        9.89573791       7.12739268       7.51521849      -4.26694316       1.15142458      -0.24818627      -4.28268093       1.18419349      -0.26361737      -0.02227271      -0.12154784      -0.01937577
C       -3.64179259       9.25929879       7.46458031      -2.21040387       3.63836191      -0.74948094      -2.20339439       3.66004491      -0.72454423      -0.40876733       0.50207858      -0.05325291
C       -1.21796906       9.24507137       7.24978014       1.00355813       0.38756243      -0.39403827       1.01266775       0.33854063      -0.42861652       0.31301132      -0.28961807      -0.03150264
C        1.18836197       9.22531365       7.27749335       2.93608128      -0.42920633       0.04688509       2.96402914      -0.40874873       0.03946539       0.53422300       0.25731734       0.00290078
C        3.70496646       9.09320593       7.47095118       1.79147758       4.45181139       0.89848228       1.76234676       4.65042566       0.85250916       0.24427575       0.50675726       0.06265812
C        6.16666216       9.14811315       7.78208861       0.59393794       2.98844951      -0.17855026       0.57703275       2.92073227      -0.13558662       0.09685509       0.03058893      -0.00996533
C        8.65994722       9.20823009       7.58383801      -5.31019166       0.88374241      -0.14573655      -5.13508751       0.74047180      -0.14997008      -0.75513215      -0.05573128      -0.01102257
C       -4.98235784      11.38035170       7.45848764       2.30687243      -0.67441090      -0.06467790       2.35598122      -0.64773518      -0.11545409       0.08860447      -0.32341676      -0.00848579
C       -2.38473500      11.45986853       7.24831006      -3.29902309      -1.50342892       0.16172290      -3.38105938      -1.46580448       0.19893833      -0.18877210       0.05053071       0.01462165
C        0.09014744      11.39571086       7.23937642      -4.02077777      -0.36723221       0.70055876      -4.05518268      -0.37137822       0.65282157      -0.50563925      -0.02606959       0.04798159
C        2.41551151      11.33315576       7.31837763       4.63030894       1.46954178       0.60347802       4.59927744       1.47198738       0.60927359       0.64397816      -0.01809268       0.04478066
C        4.94673873      11.32382716       7.53410479      -1.43724744       1.76405368       0.58358591      -1.42144323       1.77595768       0.54273050      -0.17599346       0.04235547       0.03988996
C        7.37106704      11.37278246       7.63342794       0.51146107      -2.41806133       0.46001304       0.52603856      -2.40306821       0.38975408       0.11704087       0.16170799       0.02864667
72
Lattice="14.76 0.0 0.0 -7.38 12.782534959858314 0.0 0.0 0.0 15.0" Properties=species:S:1:pos:R:3:REF_forces:R:3:MLIP_forces:R:3:historical_X0_saved_forces_Ry_A:R:3 REF_energy=-11161.321944065472 MLIP_energy=-88.72138255798444 config_type=s0_sscha_overlap_087 split=frozen_overlap_screen sscha_index=87 overlap_local_index=3 selection_group=typical lattice_temperature_K=450.0 degauss_Ry=0.0019000869 kgrid=8 sscha_random_seed=453005 historical_X0_saved_energy_Ry=4.08033223214369 corrected_X0_support_level=corrected_X0_core pbc="T T F"
C        0.00810522       0.00535374       7.27357441      -2.05915101       2.19385162      -0.02356287      -2.03537029       2.28984242       0.03265335      -0.06876392      -0.13666666       0.00239995
C        2.38521934      -0.01976030       7.50171864       2.94235426       0.70235056      -1.78164928       2.96149486       0.72127338      -1.68095629       0.20173955       0.23024360      -0.12354828
C        4.93477266      -0.03412090       7.43283157      -1.00170359       2.51885835       0.18538939      -0.96607000       2.47949287       0.19994871      -0.42602071       0.18413802       0.01469620
C        7.40056582       0.07875577       7.46061594       0.19713136      -2.04490479       0.71174846       0.12477303      -2.01348556       0.71780914       0.09088942      -0.25007532       0.05275813
C        9.87776222      -0.05363261       7.51613747      -2.43495785      -0.03104221       0.12375234      -2.41528260      -0.01258025       0.10549286      -0.31116727      -0.01584499       0.00775385
C       12.30700051      -0.00683123       7.30385231      -1.98318623      -1.84742427       0.79343524      -1.97787255      -1.79257507       0.79445976       0.08729407       0.08551884       0.05839163
C       -1.27723062       2.13295810       7.41908593       0.88857634      -0.82585633       1.04491432       0.89402833      -0.84052179       1.05039745       0.32126029       0.17172363       0.07720276
C        1.20189618       2.08705593       7.41361408       3.08361684       1.84203678       0.01008284       3.03859988       1.88895943       0.01731762       0.17052853       0.19934312       0.00127287
C        3.74341341       2.13368251       7.47377980      -2.37045144      -1.07222587      -0.48595881      -2.32452675      -1.08173852      -0.44587477      -0.10622640      -0.21703046      -0.03277121
C        6.14485151       2.13700244       7.55558949       1.29913780       0.53456089      -1.05352572       1.22244682       0.70429996      -0.97863539      -0.24030868      -0.10603731      -0.07192811
C        8.61189497       2.21908968       7.55094672       2.88135252      -6.26244703      -0.57963258       2.67247603      -6.12661914      -0.54390573       0.07912847      -0.18614827      -0.03997630
C       11.07571567       2.04731887       7.78719984      -1.93359196       2.60591718      -1.65310209      -1.82462896       2.54211061      -1.65515209      -0.02010658      -0.11204688      -0.12165139
C       -2.45441669       4.24883849       7.65103025      -3.95132636       0.99628062       2.72136846      -3.72750266       1.05265390       2.59167406      -0.60312809       0.12918153       0.19048418
C       -0.01102029       4.22287744       7.80260229       0.40756330      -0.02743059      -1.96461489       0.40859435       0.00672608      -2.00206704       0.06790141      -0.18668190      -0.14714922
C        2.46621434       4.27982842       7.61854121      -2.46983178      -2.74641846      -0.46749340      -2.36549162      -2.64454227      -0.46722418       0.14727110      -0.03090700      -0.03434014
C        4.95503224       4.25434666       7.42542864      -1.89635905       1.41401881       1.83627905      -1.88375314       1.38791572       1.78697279       0.05970252       0.33790556       0.13134057
C        7.44898142       4.26959187       7.55176898      -3.93701020      -0.00778813       0.01162241      -3.97634205       0.03515922       0.01561178       0.00660687      -0.19843940       0.00114736
C        9.83711353       4.26873088       7.86414763       0.14355086      -0.26631692      -1.28353146       0.22752629      -0.14944676      -1.26071474      -0.33495554       0.02812900      -0.09266075
C       -3.71527909       6.41152272       7.99236164      -0.04740060       3.57235501      -1.27921793      -0.08849936       3.52864104      -1.27768362      -0.24654972       0.25124852      -0.09390820
C       -1.24929703       6.34190833       7.75761375      -0.65456944       3.16681105      -1.14638317      -0.63103153       3.17470073      -1.14270279      -0.17375765       0.01151751      -0.08398722
C        1.20055980       6.41519918       7.55758695      -0.94011744      -1.28113443       0.05982546      -0.96910587      -1.23528088      -0.01314984      -0.00299350       0.01387985      -0.00096630
C        3.66218908       6.38710767       7.44226066       1.26434358      -1.44585395      -0.19332896       1.20110920      -1.49185481      -0.17768840       0.09279498       0.14798124      -0.01305976
C        6.14811359       6.33579327       7.39183567      -2.66824689       4.90820611      -0.12116118      -2.65427462       4.30851405      -0.04326509       0.13884035       0.13328257      -0.00317997
C        8.61637726       6.40423994       7.56864005      -1.46752346       2.58429266       0.16955963      -1.64914008       2.64801197       0.14625308      -0.26409967       0.21024386       0.01074936
C       -4.95045120       8.53330542       7.49579713       0.24785614       3.58292636       0.64387185       0.22290505       3.50383720       0.64107043       0.19366653       0.09768493       0.04711792
C       -2.40547757       8.52997144       7.60580812      -3.11219156       2.79230031       0.64961981      -3.18351941       2.85752040       0.60731368       0.11090484       0.37160320       0.04463683
C       -0.01855274       8.56607611       7.47466151       1.00673961      -1.19131371      -0.32965451       1.04770724      -1.18440836      -0.30869282      -0.19617768       0.06058125      -0.02268876
C        2.49721917       8.46253149       7.34775729       0.26802465       1.58996762      -0.29073623       0.25750520       1.61520056      -0.26198636       0.12067123      -0.19242118      -0.01925572
C        5.01067296       8.52289310       7.30518622      -3.52009631      -2.28000723       0.98791682      -3.46942980      -2.26715679       1.03778817      -0.70165692      -0.24359392       0.07627601
C        7.37165206       8.48626750       7.31332104       1.13291444      -0.45912266       0.04468680       1.10979857      -0.44545724       0.06517373       0.10401807       0.16357472       0.00479033
C       -6.15813366      10.70341275       7.25289246       0.43152496      -2.66190784      -0.48090145       0.48414541      -2.64853428      -0.49205914       0.05985827       0.11662737      -0.03616552
C       -3.67609244      10.64119290       7.41876627      -1.32722531       1.98360275       0.70268789      -1.31767120       1.92797602       0.69751918      -0.25342156       0.13397125       0.05126710
C       -1.22975832      10.70472882       7.42414260      -0.21132360       0.14428851       1.93119518      -0.21670488       0.09162439       1.95345058       0.19314944      -0.29337322       0.14357615
C        1.17984751      10.67898595       7.39410580       3.04966156      -2.77572903       0.86384875       3.05711366      -2.82295975       0.88186166       0.11687837      -0.27172006       0.06481565
C        3.74924069      10.61103700       7.38846276      -1.87601673      -0.62936723      -0.24227248      -1.89812717      -0.61876276      -0.23581538      -0.01603473       0.18823641      -0.01733228
C        6.23168087      10.64429565       7.18811832      -2.08441827      -0.22970159       0.85854894      -2.05641118      -0.22953586       0.80325976      -0.06578613      -0.13109753       0.05903883
C        1.17679002       0.70274943       7.40833459       1.96618609       0.12773266      -0.08563599       1.94513592       0.12198010      -0.06386594      -0.02691730       0.01005259      -0.00469391
C        3.68444906       0.68170253       7.44600809      -0.22942365       0.46058331       0.61345930      -0.20949437       0.46794287       0.60177421       0.08274492      -0.18561086       0.04422973
C        6.15681566       0.74444145       7.40075346      -0.47074688      -0.58246542       1.02824612      -0.43521448      -0.69834827       1.09614669      -0.00690844       0.15553937       0.08056512
C        8.64653291       0.73524731       7.51607326      -0.22966559      -0.13082313      -0.06138149      -0.17560918      -0.07367524      -0.06908541      -0.02792050       0.19017370      -0.00507783
C       11.03979842       0.67566866       7.58786371       3.42911422      -0.89956163      -0.69387801       3.35546943      -0.84360637      -0.69345522       0.26096086      -0.19525142      -0.05096794
C       13.50372064       0.66249014       7.32115845       0.68928756       3.06310715      -0.27577344       0.67777398       3.07178103      -0.24813850      -0.08922444       0.07609336      -0.01823784
C        0.02283030       2.79593917       7.48449589      -3.00563811       1.73290810       1.01231659      -2.91351719       1.65169525       0.95455726      -0.07693926      -0.06932535       0.07015880
C        2.50960342       2.83577485       7.40516393      -2.43904642      -0.25245482       1.58672958      -2.49562582      -0.30897702       1.52564675       0.15520183       0.21656600       0.11213275
C        4.92275649       2.86643757       7.52523822       2.15107592      -0.79680698      -0.35118750       2.18909639      -0.85040983      -0.36918148       0.00054758       0.06138815      -0.02713466
C        7.44295456       2.81542759       7.53075512      -5.11280730       3.96758602       0.40465950      -4.71936977       3.76409267       0.36002854      -0.14873208      -0.02734105       0.02646150
C        9.84329989       2.79923269       7.60322213       1.99205859       3.53977759       2.73181793       1.66335682       3.41023482       2.55294585      -0.21231361       0.18511548       0.18763777
C       12.23601727       2.85126924       7.68199149       2.51902778      -1.91064281      -1.00075151       2.44797452      -1.96349143      -0.98021558       0.11134145       0.14527319      -0.07204442
C       -1.27134173       4.92738744       7.72220617       2.59897341       0.64258167       0.40830841       2.50650252       0.56853098       0.40095176       0.26560408       0.16374872       0.02946952
C        1.20124022       4.98140375       7.75335139       0.22248836      -0.14599238      -0.72457647       0.20939869      -0.17626108      -0.78827560      -0.41687574       0.03942466      -0.05793755
C        3.64984923       4.91189794       7.56107585       3.87572924       3.65081839      -1.19696036       3.75275744       3.60966115      -1.14072984       0.39743292      -0.01271973      -0.08384246
C        6.14881648       5.04057287       7.54391738       1.56830454      -7.73267246      -0.92724779       1.58212118      -7.05687014      -0.97787360      -0.06049760      -0.48840056      -0.07187251
C        8.59815593       5.00936773       7.63722994       2.68455669      -0.88934330       0.87424732       2.64326355      -0.93666496       0.81920169       0.48237446       0.15519519       0.06021026
C       11.03612884       5.03747662       8.01451472       1.21909988      -3.56125890      -2.09524879       1.10871532      -3.49030474      -1.93174977       0.27503122      -0.38469878      -0.14198077
C       -2.50850884       7.15957859       7.73182396       2.62088640      -3.50815791       1.26270039       2.67852855      -3.48736588       1.24638021       0.48308800      -0.12580937       0.09160710
C       -0.03952093       7.13695284       7.55165247      -0.40794768      -1.60014508       0.93887971      -0.41105370      -1.56402610       0.86242378      -0.32865804      -0.04640923       0.06338698
C        2.42621756       7.04962156       7.33452012       1.22247856       1.13274038       1.22282669       1.24655687       1.17047232       1.22566822       0.05613844      -0.13800274       0.09008506
C        4.92981051       7.08862853       7.35612434      -1.39019085      -0.49862175      -0.00502316      -1.32222211      -0.53219507       0.05058312      -0.46227451      -0.13034039       0.00371787
C        7.26155269       7.10054286       7.35050374       7.44810431      -1.29529323       0.91922543       7.52532073      -1.44710137       0.96570309       0.53935411       0.11440684       0.07097796
C        9.85438107       7.21352041       7.78197080      -2.39815996      -5.40511705      -0.45253730      -2.36586473      -5.35245513      -0.52240980       0.06926312      -0.60406471      -0.03839652
C       -3.72799189       9.29001685       7.64155129       1.93939108      -2.64278577      -1.74051111       2.08024805      -2.61097837      -1.69251477      -0.07552504      -0.00138835      -0.12439775
C       -1.21672631       9.32491349       7.52404529      -0.08940009      -2.98738585      -0.54069425      -0.06054297      -2.95137811      -0.53218469       0.27228459      -0.49673248      -0.03911467
C        1.26767831       9.16414990       7.34248677      -1.63835579       3.13849421       0.62468525      -1.67975772       3.19351613       0.62571484       0.14252176       0.51658984       0.04598931
C        3.76590484       9.21584995       7.40079009      -1.05581040      -1.63360901      -0.92211895      -1.02204549      -1.63892787      -0.88448998       0.08095991      -0.02105127      -0.06500866
C        6.20804788       9.14450115       7.38328104      -0.58099244       6.32767077      -1.90297604      -0.60467151       6.36703185      -1.88842428      -0.04455018       0.29156554      -0.13879656
C        8.55499505       9.24030493       7.29020329       2.15402215       0.16986224       0.34687961       2.16435006       0.21345923       0.37205297      -0.20649896      -0.03613012       0.02734513
C       -4.94084283      11.36106328       7.28810100       1.40826828       0.28242437       1.49744288       1.38826261       0.23929421       1.44369838       0.05363491      -0.21268133       0.10611002
C       -2.45850560      11.37566547       7.52866816      -0.18966154      -0.89907004      -1.54389243      -0.22793723      -0.90526897      -1.50428592      -0.01307435       0.09419356      -0.11056346
C       -0.02006597      11.39618430       7.58803307       1.15355012       1.31569005      -2.42356478       1.17949698       1.28405287      -2.42825771      -0.09075953       0.03420366      -0.17847380
C        2.49466934      11.27518392       7.44012783      -1.59155451       2.60929124      -0.15257466      -1.63897938       2.61378032      -0.16516646       0.12628523       0.05474890      -0.01213952
C        4.92126780      11.31992268       7.22460292       3.20881439       1.33611721       0.40425532       3.23989743       1.30095390       0.40540430       0.19516063       0.05928973       0.02979657
C        7.43883733      11.45847597       7.17637658      -2.53966397      -5.17181078       0.24622684      -2.60178619      -5.31917648       0.21296877      -0.09421001      -0.08214261       0.01565285
72
Lattice="14.76 0.0 0.0 -7.38 12.782534959858314 0.0 0.0 0.0 15.0" Properties=species:S:1:pos:R:3:REF_forces:R:3:MLIP_forces:R:3:historical_X0_saved_forces_Ry_A:R:3 REF_energy=-11161.551402971463 MLIP_energy=-88.905634812598 config_type=s0_sscha_overlap_272 split=frozen_overlap_screen sscha_index=272 overlap_local_index=4 selection_group=typical lattice_temperature_K=450.0 degauss_Ry=0.0019000869 kgrid=8 sscha_random_seed=453005 historical_X0_saved_energy_Ry=9.994524076183122 corrected_X0_support_level=corrected_X0_core pbc="T T F"
C        0.05090590       0.00947181       7.52791675       0.80672733       0.81173301       0.22874591       0.81756298       0.80293179       0.26128031       0.09191081      -0.10411819       0.01920396
C        2.47682323      -0.06824099       7.34292351       0.48732895       1.68643721      -0.00238624       0.42585925       1.65729866       0.00026612      -0.11219850       0.19007401       0.00001940
C        4.88368852      -0.08979156       7.25471623       1.88998400       4.28772513      -0.39271133       1.98990876       4.34422222      -0.36709246      -0.03601142       0.26390219      -0.02698069
C        7.39722553      -0.08432042       7.32017483      -0.67679971       0.48782363       0.39820989      -0.58117402       0.48992269       0.40783070      -0.05840278       0.05370771       0.02997481
C        9.87912008       0.05504521       7.46332039      -0.86299875      -0.18751750       0.29699224      -0.84425525      -0.20149960       0.30134606      -0.01789005       0.02243958       0.02214848
C       12.39990851       0.03471764       7.56144706      -4.14778358       0.61803021       0.06868136      -4.11450730       0.64288074       0.05126269      -0.11367699       0.12143529       0.00376785
C       -1.14911880       2.11473994       7.56513496      -2.72805821       3.37766285      -0.11828206      -3.02906400       3.42477487      -0.17195192      -0.05183726       0.34744340      -0.01263828
C        1.32741641       2.13100987       7.32642844      -1.50175590       0.47113383       1.20446953      -1.45845472       0.44308320       1.20929164      -0.10722199       0.04115513       0.08888120
C        3.62686355       2.14306279       7.32616295       3.62899975      -2.70924082      -0.12198496       3.58361010      -2.73319849      -0.12102140       0.26362406      -0.16771072      -0.00889525
C        6.14027865       2.14632436       7.41782855      -0.36322026      -3.83140265      -1.72859508      -0.35833751      -3.90163169      -1.73335639      -0.25204506      -0.35647351      -0.12739941
C        8.60244932       2.01429860       7.45746960      -0.49836824       3.77041583      -0.58442358      -0.45167737       3.69072185      -0.57318200      -0.15861556       0.40247316      -0.04212826
C       11.12593581       2.15258174       7.43324958      -2.58439911       0.56264325       1.13290082      -2.58291194       0.47340677       1.14701113      -0.16561651      -0.17867044       0.08430351
C       -2.42267815       4.22367670       7.61535528      -3.40477848       5.91760887      -0.72461040      -3.83096666       5.75983450      -0.61535704      -0.46389195       0.43532151      -0.04522788
C       -0.00505675       4.28373025       7.61848085       1.64014244      -0.35179659      -0.73028226       1.60758867      -0.39313439      -0.74131209       0.28995757      -0.15402468      -0.05448558
C        2.51948005       4.30290107       7.43308868      -0.35468702      -1.16723815       0.84319534      -0.41269600      -1.16538937       0.86107976       0.16835036       0.02488755       0.06328835
C        4.93174318       4.23019019       7.48061659      -0.58910247       0.16284879      -1.07127507      -0.58232300       0.17610296      -1.04401183       0.13270452       0.09959351      -0.07673369
C        7.39499098       4.21149546       7.36941573      -4.09299980      -0.72848171       0.65676233      -4.00206823      -0.59619728       0.68295999      -0.21694227      -0.14315404       0.05019647
C        9.74136882       4.24051978       7.60927931       3.07122772      -0.58169564      -1.20977269       3.15814271      -0.55691917      -1.15508649      -0.00148331       0.03507380      -0.08489751
C       -3.78663021       6.41124685       7.49277906       2.07057442      -0.87697809       0.00495246       2.05043834      -0.91840666       0.00938173       0.02415657      -0.13055148       0.00068977
C       -1.33150278       6.43927916       7.52463855       0.38634399      -0.01552381       0.16076851       0.41784835       0.00857189       0.12613881      -0.11352853      -0.09034770       0.00927118
C        1.15095484       6.39910291       7.59855358       1.45842742       1.18761158       0.35938571       1.42626804       1.26318051       0.30693293       0.07718639       0.10385835       0.02255928
C        3.59053203       6.42854589       7.39351631       2.31741884       1.45867964       1.21896746       2.27360774       1.43242691       1.22583702       0.18839073       0.23163605       0.09009733
C        6.16418157       6.34896717       7.49546299      -3.55071429       2.87403336      -0.09283534      -3.74839656       3.00334284      -0.11155589      -0.06013773       0.14582170      -0.00819945
C        8.58614201       6.33589009       7.46976479      -0.67099519       2.67600186       0.80426729      -0.69409687       2.66988383       0.75934303      -0.06906193       0.27986458       0.05581054
C       -4.92148928       8.48304485       7.60964015       0.72964154       1.70862815      -0.31355143       0.66803373       1.72034022      -0.29137383       0.24945316      -0.02148938      -0.02141555
C       -2.46564018       8.50430680       7.43405559      -1.58276828       0.41813928      -0.38279561      -1.59894883       0.44560587      -0.35024042       0.06455306       0.11961216      -0.02574188
C       -0.00286576       8.49049096       7.65726789      -1.06506277       4.96940839      -1.97492013      -1.06461084       4.84519937      -1.95921123      -0.19737221       0.45131791      -0.14399908
C        2.40822009       8.56501300       7.61776046       1.75278427       2.95009637      -0.72858199       1.72728195       2.90087516      -0.71315932       0.08739618       0.05904581      -0.05241620
C        4.90367236       8.60565897       7.62240676       1.76267325      -3.56021632       0.08402725       1.68123914      -3.55930822       0.08969709      -0.15998416      -0.31157567       0.00659264
C        7.38434030       8.54464310       7.63791455       1.46601011      -2.80074535       0.47886822       1.42262739      -2.84470401       0.45156074       0.09249991      -0.16289151       0.03318937
C       -6.12710410      10.70753772       7.69067714       3.05563629      -4.24581049      -0.41758546       3.01253289      -4.23031308      -0.41559905       0.20617483      -0.14788514      -0.03054563
C       -3.64016723      10.59135301       7.34759117      -2.32812157       1.17317406       0.69143855      -2.33455398       1.17459114       0.68538578      -0.15057695       0.03843525       0.05037520
C       -1.25222323      10.60744418       7.44945502       2.91180930      -0.43126810      -1.12103852       2.89124598      -0.37739749      -1.08458232       0.37806812      -0.12655876      -0.07971545
C        1.24291965      10.68675823       7.47453437       0.64040600      -0.71932139       0.92626408       0.71819349      -0.68779916       0.88252673       0.07282654      -0.04802458       0.06486454
C        3.70948884      10.66447192       7.64761230      -0.10503059       2.57627365      -0.41369924      -0.10976782       2.56630103      -0.41657640       0.05216935       0.25597428      -0.03061833
C        6.25314852      10.68618248       7.72845050      -4.13682862      -1.99965851       0.89624517      -4.12030249      -1.97125395       0.90013456      -0.33570163      -0.18379189       0.06615854
C        1.34902293       0.69855133       7.38416271      -5.19514688       0.44132934       0.25410187      -5.14844545       0.42450974       0.24279971      -0.40887278      -0.05668015       0.01784554
C        3.60774362       0.68711315       7.27133441       4.65666326      -0.28160907      -0.14650403       4.75160867      -0.25993441      -0.10543909       0.31752352      -0.12451688      -0.00774929
C        6.22613373       0.68273847       7.22443533      -4.29916551      -0.70630801       1.42211238      -4.48485689      -0.72753797       1.36348027      -0.41586328       0.04234344       0.10021400
C        8.57592201       0.66878391       7.42902248       2.31022746      -1.84991695      -0.34198963       2.26726874      -1.76905510      -0.33264583       0.10486280       0.02831249      -0.02444895
C       11.10606424       0.76730511       7.46052567       1.64941899      -2.07072303       0.18960523       1.70355945      -2.08303263       0.17103513       0.17203595      -0.18742234       0.01257080
C       13.56049283       0.76809677       7.54540865       3.10479810      -3.02628355      -0.06378907       3.08407526      -2.97636955      -0.05097259       0.24863991      -0.32746034      -0.00374640
C        0.05257763       2.80696465       7.47250281       0.43829878       2.03080769       0.48430790       0.43665328       2.06135153       0.45391837       0.16717485       0.09614309       0.03336234
C        2.52449591       2.89770024       7.40968790      -3.39734773      -0.41095253      -0.85857491      -3.35617750      -0.33597093      -0.78798742       0.01487419       0.09582079      -0.05791584
C        4.87405121       2.78446374       7.37176643       1.58888596       1.99920831       0.71908099       1.56621056       2.01316901       0.73557800       0.08327060       0.24688750       0.05406419
C        7.37246343       2.75633143       7.37221517       1.09287131       2.78019196       0.75411818       1.09338117       2.81019549       0.71577402       0.14478589       0.01851129       0.05260858
C        9.82944106       2.77011546       7.48847992      -0.30259673       2.17186432       0.28349858      -0.35993641       2.16238782       0.25540866      -0.32815401       0.18123934       0.01877252
C       12.27486202       2.90092219       7.63542248       3.96159972      -4.23303956      -0.96289279       4.37682855      -4.04310420      -0.98168224       0.24444837      -0.20938865      -0.07215205
C       -1.27103220       5.04316584       7.55230027       2.27707078      -2.71637229       0.79812364       2.32027392      -2.75202309       0.71780437       0.12896941      -0.17488162       0.05275773
C        1.31628311       4.96096590       7.64259261      -4.53600062       1.74340823      -1.14935485      -4.50936194       1.70600564      -1.20180455      -0.57980909       0.09971736      -0.08833121
C        3.72987747       4.96574211       7.41995127      -0.91984172       2.37790610       0.00277628      -0.94782599       2.41476020       0.02569019       0.06550236       0.06425914       0.00188825
C        6.13275669       4.97754041       7.43911820       1.20959322      -3.14716885      -0.20315237       1.23047808      -3.18337226      -0.18913436       0.07328871      -0.15140897      -0.01390087
C        8.50416977       4.94775000       7.51168245       4.44545511      -0.38414287      -0.22767607       4.33997776      -0.52291286      -0.28801322       0.56885652       0.05082794      -0.02116845
C       11.02889757       5.02137843       7.53419689      -0.88963023      -4.01890061       0.78824546      -0.77951344      -4.11522184       0.67455590      -0.01866788      -0.33564403       0.04957880
C       -2.58291002       7.11400247       7.44563870       3.08635429      -0.20404120       0.45338653       3.03578929      -0.19450185       0.47108178       0.37536611      -0.00869457       0.03462358
C       -0.08194062       7.14782600       7.62591419       0.65275784      -3.91767473      -0.08827651       0.70965944      -3.80546633      -0.13669574      -0.12321306      -0.26036798      -0.01004716
C        2.35057946       7.23559463       7.52700545       0.81660268      -6.74093652      -0.15646140       0.83162880      -6.66774797      -0.11320746       0.00666400      -0.57539971      -0.00832059
C        4.83208837       7.17592302       7.51203326       1.71258893      -2.45013739      -0.27451591       2.02830161      -2.56408149      -0.26420331      -0.09811991      -0.16582918      -0.01941855
C        7.35813433       7.04698023       7.49693595       1.22260249       2.39115474       0.34908125       1.25692161       2.40420037       0.36876672       0.09229060       0.23141579       0.02710374
C        9.81523674       7.11906512       7.55258742      -2.82753265      -2.67838450      -0.38984609      -2.78764127      -2.66413785      -0.37580971      -0.09072860      -0.28870572      -0.02762145
C       -3.70475692       9.19868078       7.47529458       1.17583310       0.36573557      -0.17859911       1.13972081       0.32955280      -0.15179085       0.03318855       0.10141547      -0.01115670
C       -1.25032550       9.22027750       7.38878882       0.88579029      -1.76503018       2.02228062       0.93110085      -1.79278743       2.00316930       0.30747712      -0.24817960       0.14723003
C        1.21024996       9.29546844       7.58088116       0.17373587      -2.11190568       0.70264830       0.15910255      -2.10049537       0.65329298       0.15637869       0.03789350       0.04801587
C        3.71679288       9.24665616       7.57062179      -3.18883332       2.40021376       0.88208507      -3.17893029       2.38503737       0.87746699      -0.19926736       0.24735141       0.06449280
C        6.17994593       9.20960207       7.78794593      -0.21905953       3.24130697      -1.26300661      -0.18836019       3.22971271      -1.23852444      -0.13758937       0.12398955      -0.09103002
C        8.67843454       9.20404867       7.70538430      -3.74272170       2.55409814      -0.28633965      -3.65876174       2.52451597      -0.27303651      -0.47135420       0.15213666      -0.02006785
C       -4.89454472      11.35851100       7.45384375       0.82375677      -2.82798131       0.10035478       0.84575034      -2.82724926       0.10140607      -0.03310358      -0.29273111       0.00745291
C       -2.40993896      11.31054527       7.28690821      -3.04618929       0.24253602       0.28551998      -3.03693487       0.20935234       0.31457943      -0.29126131       0.07574801       0.02312105
C        0.01550357      11.26094747       7.44149287      -2.09723085       3.41290625      -0.66365778      -2.10697720       3.41912470      -0.63751556      -0.18818820       0.15604370      -0.04685621
C        2.44765281      11.45782968       7.56312543       2.55739970      -3.34037800      -0.40809552       2.49447956      -3.30416886      -0.39634286       0.33595368      -0.27887199      -0.02913047
C        4.98104912      11.43604069       7.68519093       0.17514920      -2.90612253      -0.30159271       0.15907127      -2.88833734      -0.29862312       0.08678650      -0.19046982      -0.02194813
C        7.43720366      11.34614067       7.72051115      -0.18781986       3.69612946      -0.85281332      -0.17099669       3.68528983      -0.81697485       0.05862891       0.43079091      -0.06004689
72
Lattice="14.76 0.0 0.0 -7.38 12.782534959858314 0.0 0.0 0.0 15.0" Properties=species:S:1:pos:R:3:REF_forces:R:3:MLIP_forces:R:3:historical_X0_saved_forces_Ry_A:R:3 REF_energy=-11162.280473225552 MLIP_energy=-89.82245239840228 config_type=s0_sscha_overlap_168 split=frozen_overlap_screen sscha_index=168 overlap_local_index=0 selection_group=high_committee_disagreement lattice_temperature_K=450.0 degauss_Ry=0.0019000869 kgrid=8 sscha_random_seed=453005 historical_X0_saved_energy_Ry=6.599038780556445 corrected_X0_support_level=outside_corrected_X0_support pbc="T T F"
C       -0.02031540       0.04215193       7.67189338      -0.76346903      -1.59200239       0.17601181      -0.73721566      -1.56744410       0.17158170      -0.06221895      -0.35918687       0.01261113
C        2.52611978       0.09857162       7.55404102      -2.10461172      -0.60882437      -0.04030307      -2.10844568      -0.58742135      -0.05691408      -0.16800862       0.04688168      -0.00418317
C        4.92710575       0.02144970       7.45692792       4.06983596      -1.12108917      -1.03704289       4.01872586      -1.07205856      -1.01282197       0.01937707      -0.05192812      -0.07444131
C        7.36747221      -0.01298980       7.33496465       1.74684014      -0.83104996       0.19085839       1.74908158      -0.82570749       0.23335821       0.21691285      -0.06637399       0.01715143
C        9.86892588      -0.02459077       7.40739611     -11.17824303      -4.18681807      -1.13011631      -7.81092506      -2.02176206      -0.47192448      -0.61203275      -0.20650737      -0.03468618
C       12.25836221      -0.09452661       7.56639119      -1.37135444       2.62061644       1.26309068      -1.52333548       2.88338545       1.23995405       0.04804603       0.39733462       0.09113462
C       -1.32562768       2.12270711       7.79338529       1.83270624      -0.18743625      -0.68103149       1.77320054      -0.25611014      -0.69319740       0.37933412       0.11693255      -0.05094901
C        1.27648230       2.12044762       7.62380048      -3.31680175       0.42894023      -0.59330545      -3.28104953       0.42792738      -0.61325672      -0.22354223       0.13589617      -0.04507386
C        3.70972887       2.10883306       7.49571191       1.38425983       3.01860469      -0.55809574       1.34923030       2.92947784      -0.56625567       0.10649670       0.03039966      -0.04161924
C        6.23234775       2.07521370       7.34629292      -2.19200454       3.36537426       0.56575145      -2.20946798       3.32909123       0.59021995      -0.40572531       0.03675339       0.04338037
C        8.59381823       2.13524099       7.35484327       2.40426762      -2.05102298       0.72025033       2.36838664      -1.94249808       0.78333883      -0.01726548       0.07715372       0.05757419
C       11.01561176       2.10554334       7.56436042      -0.38638898      -0.77149704       1.08132037      -0.15093812      -0.82448011       1.08279614       0.10206669      -0.24396852       0.07958393
C       -2.52045401       4.25669238       7.61140241       1.19971350       0.29416788      -0.68917649       1.23920038       0.31318117      -0.65604331      -0.13745960       0.13087130      -0.04821821
C        0.00724932       4.20023272       7.52560112       0.16939173       1.39750358       0.19637392       0.14904841       1.37812038       0.18903058      -0.03113676      -0.02397669       0.01389327
C        2.41714867       4.31867952       7.53986012       2.68618497      -4.21485621      -0.32002495       2.61072315      -4.31249811      -0.30503338       0.50717798      -0.25467797      -0.02241942
C        4.93635931       4.18162930       7.55527338       0.14794436       4.01648043      -0.16704457       0.15556820       3.97895468      -0.20308826       0.11523928       0.45641360      -0.01492645
C        7.39091703       4.25605625       7.40537385      -0.16908294       0.39980320       0.61362848      -0.19797928       0.44499743       0.62701675       0.27516618      -0.07304920       0.04608526
C        9.79586793       4.26786861       7.40404991       2.34526954      -0.97319134       0.75271590       2.26886600      -0.91867875       0.77979881      -0.09111762      -0.07461857       0.05731405
C       -3.68370736       6.38587663       7.50437658      -0.39447536       1.95313723      -0.77287747      -0.37615806       1.98689803      -0.78260481      -0.19248096       0.19212772      -0.05752045
C       -1.19697640       6.37430392       7.54778907      -1.22769250       0.08437384      -0.40413114      -1.21234935       0.03308982      -0.41856492      -0.28603267      -0.17824712      -0.03076378
C        1.23617921       6.39809704       7.40374077      -0.30651535      -0.44033818       0.70922801      -0.28006318      -0.48845589       0.75662397       0.04364730      -0.03648291       0.05561088
C        3.69966029       6.37291393       7.49554298      -1.44453652      -0.85074461       0.01862636      -1.39327300      -0.81990166       0.00894178      -0.16753741       0.14506537       0.00065720
C        6.12998806       6.41769871       7.47868720       1.27989130      -0.44266297       1.47004186       1.30678900      -0.43858499       1.35539434       0.43210338      -0.10973248       0.09961983
C        8.53727669       6.43768843       7.49335150       5.84729511      -2.69844527      -0.37534841       5.62293928      -2.56622008      -0.24672611       0.36058911      -0.20782190      -0.01813381
C       -4.94581462       8.58611159       7.57986979       4.79959731      -3.28132156      -0.89160561       4.62640027      -3.03969124      -0.90887795       0.41993960      -0.31999720      -0.06680120
C       -2.39034890       8.58410886       7.61231164      -2.37670334      -2.16375403      -0.24301399      -2.34367821      -2.09336768      -0.32351677       0.10924550      -0.07608778      -0.02377771
C        0.07260124       8.42416302       7.50964524      -3.54801001       7.17865527      -0.15975472      -3.73314201       6.37780690      -0.26284731      -0.47368163       0.64101318      -0.01931871
C        2.48174325       8.49580560       7.41811839      -1.29251130       1.39550969      -0.75342604      -1.23982974       1.35647321      -0.66968478       0.00986480      -0.11133674      -0.04922084
C        4.95069603       8.55415643       7.45491691      -0.43463985      -3.14455738       0.00821545      -0.41401025      -3.16608410       0.04579199      -0.38060448      -0.34026874       0.00336571
C        7.41166221       8.57604989       7.53284194      -0.27995277      -0.58018306      -0.40582755      -0.25347907      -0.58417255      -0.40819899      -0.07064986       0.10926994      -0.03000162
C       -6.07245078      10.74011903       7.55641663      -3.51287691      -0.62681644      -0.64655068      -3.45901369      -0.65712004      -0.64588186      -0.22305319       0.16757870      -0.04747137
C       -3.69317302      10.67781782       7.50842063       0.59152445       0.90826790       0.59697493       0.58561089       0.98550811       0.53771409      -0.01236611       0.11080498       0.03952128
C       -1.26481331      10.61722511       7.53108588       2.85809381       2.27204504      -0.38488360       2.91594497       2.20461397      -0.42087440       0.34531232      -0.08906444      -0.03093361
C        1.15159164      10.65223187       7.43194939       3.26499428      -1.25229513      -0.67307701       3.24484398      -1.23412144      -0.64907007       0.20805464      -0.20482782      -0.04770566
C        3.67358403      10.57653925       7.41167977      -0.80254337       2.59178691      -0.47195324      -0.66595838       2.39099337      -0.42975536      -0.02958777       0.36516046      -0.03158654
C        6.14399131      10.70722345       7.33241724       1.87435143      -2.98011271       1.27149587       1.80758818      -2.95909128       1.32501140       0.20946740      -0.23062407       0.09738655
C        1.19948679       0.71789637       7.67838486       3.15159938       1.06522758      -0.44192764       3.15042536       1.06848013      -0.51032217       0.13567016       0.12138651      -0.03750808
C        3.79443471       0.75025078       7.43304189      -4.07450791      -0.88223471       0.88722368      -4.05246440      -0.83721578       0.94352737      -0.29047773      -0.22827435       0.06934828
C        6.22984731       0.72440484       7.30123803      -4.32401830      -1.97143937       0.85151183      -4.27407975      -2.00854876       0.89967904      -0.29215834      -0.05615441       0.06612535
C        8.55648421       0.67455851       7.37218603       2.97520267       1.81048111      -0.37947991       2.99765772       1.61353726      -0.34010583       0.12982713       0.25911238      -0.02499720
C       10.89837978       0.62419523       7.56612804      13.10524320       6.12437699       0.74129532       9.78930342       3.77883743       0.16139999       0.74911553       0.23407231       0.01186304
C       13.46372834       0.65906704       7.78784494      -0.55328289       1.78599778      -1.20469553      -0.58587308       1.80534594      -1.22760991      -0.12897409      -0.00371564      -0.09022761
C       -0.03180185       2.82454046       7.59476845       0.51672052      -2.22684145       1.23861249       0.55273393      -2.16745341       1.18419400       0.09320734      -0.29482882       0.08703677
C        2.47504383       2.80957351       7.44773907      -0.17291029       2.06369647       1.48799922      -0.20919431       2.14567077       1.44197932       0.31248409       0.29530511       0.10598370
C        4.95602378       2.81992159       7.51528111       0.70955865      -2.16106954      -0.76490962       0.70718931      -2.10017567      -0.75690705      -0.03076648      -0.00178492      -0.05563158
C        7.42432349       2.82201626       7.36628488      -2.04206860       1.53991570      -0.30099776      -2.00120526       1.50404018      -0.24865699       0.04069002      -0.09919690      -0.01827606
C        9.84793810       2.84754543       7.50340362      -2.08992789      -0.65255472      -1.33402845      -2.20523424      -0.56060301      -1.30170226      -0.40692186      -0.15444056      -0.09567328
C       12.20836021       2.85998700       7.74437051       1.19665800      -1.97619771      -0.75277530       1.15230148      -2.00779370      -0.81076539      -0.06634249       0.09656121      -0.05959028
C       -1.19456646       4.88695789       7.51020829      -2.97423337       3.30900360       0.75360499      -2.90947427       3.30320367       0.69635178      -0.13913580       0.26911974       0.05118077
C        1.22688273       4.97529953       7.55338172      -1.37678229       0.68534606      -1.06822626      -1.29343964       0.64980211      -1.00534538      -0.43711339       0.14699434      -0.07389129
C        3.68614743       4.92587342       7.56934807       0.43658823       1.35265814      -0.37978459       0.47345148       1.33703651      -0.41221496       0.06590395      -0.13250487      -0.03029754
C        6.16350944       5.01063517       7.49121820      -0.38945888      -2.54417240      -0.27749222      -0.43435206      -2.51376793      -0.29690726      -0.11030589      -0.20979106      -0.02182259
C        8.62622780       4.94566934       7.45691265      -3.42322151       2.84574403      -0.51052056      -3.25269316       2.86415440      -0.48464675      -0.04157938       0.38517663      -0.03562104
C       11.01335106       4.96859252       7.44537290       1.98403032       0.69843966       0.75377571       1.91618068       0.71299115       0.73773143       0.33521922       0.03205373       0.05422257
C       -2.44238828       7.16080269       7.56499216       0.74975965      -3.09965769       0.13262161       0.73640552      -3.10496102       0.10037468       0.31935649      -0.19663404       0.00737714
C        0.02280982       7.13200633       7.47872163      -0.32657844      -6.78922030      -0.03544960      -0.29197217      -5.81740113       0.04593423      -0.29662461      -0.35288292       0.00337596
C        2.44621450       7.11568116       7.36527820       1.38855872      -2.14148776       0.87634894       1.33088996      -2.08810414       0.90630700      -0.03262861      -0.34288002       0.06661227
C        4.89087474       7.06290183       7.55180623       1.66592264       2.96426777      -0.87161040       1.65437943       3.03110351      -0.88224554      -0.13736320       0.08393027      -0.06484372
C        7.41087616       7.13835802       7.60990112      -3.95786082       1.32834065      -1.23893542      -3.77562618       1.14608022      -1.25841199      -0.27224035       0.32246872      -0.09249200
C        9.85102627       7.12743269       7.40892812      -1.68766774       0.42089473       1.79368153      -1.72533296       0.32569936       1.69391048       0.12784012      -0.08197689       0.12450003
C       -3.63723014       9.25849734       7.60474601      -2.28124059       1.09936232      -0.34973611      -2.28888385       1.03725767      -0.41540985      -0.30023335       0.31654876      -0.03053222
C       -1.19115621       9.23515098       7.55875483       1.35760598      -0.87551591       0.16265133       1.44146467      -0.98820389       0.07515815       0.29859429      -0.30925561       0.00552387
C        1.19284547       9.19147895       7.41050863       3.49368620       1.23018827       0.50718764       3.37597535       1.17866363       0.52251965       0.51363257       0.26817576       0.03840428
C        3.72301210       9.19165618       7.39746623      -1.43366024       0.44615170       0.28447868      -1.40614405       0.49366263       0.31844907      -0.04003164       0.07453712       0.02340552
C        6.16056876       9.24107130       7.38311644       1.22071582       1.42573790       0.36995321       1.13995959       1.38462616       0.39574735       0.07397494       0.02955047       0.02908665
C        8.66207206       9.26590917       7.51106988      -2.47780888       3.09848938       0.58451459      -2.27261095       3.03082870       0.58759759      -0.45347059       0.12297914       0.04318751
C       -4.90573116      11.50642530       7.53930398       1.47443922      -3.67164561       0.01409170       1.51867718      -3.67762441      -0.00008107      -0.01023629      -0.43135196      -0.00000598
C       -2.45251599      11.36717441       7.48801619      -0.92405088       0.31607805       0.19153382      -0.97894503       0.29796385       0.18585672      -0.05318946       0.07678866       0.01366028
C        0.00466128      11.37282729       7.45686608      -3.40416861      -1.15975265      -0.11699034      -3.34640533      -1.12907397      -0.11440692      -0.32829516      -0.09877933      -0.00840874
C        2.41360924      11.35629067       7.32984093       1.55853100      -2.84053215       1.05365222       1.39268801      -2.69982969       1.08504477       0.34461629      -0.25407723       0.07974952
C        4.92364689      11.30292906       7.47970530      -2.30521381       0.85319050      -0.88371850      -2.27085363       0.74098900      -0.88590096      -0.13986432      -0.00839476      -0.06511228
C        7.36419428      11.41019919       7.50913393       1.83409413      -0.39751363      -0.00945317       1.84326633      -0.39426481      -0.01155659       0.14428132       0.22128488      -0.00084957
72
Lattice="14.76 0.0 0.0 -7.38 12.782534959858314 0.0 0.0 0.0 15.0" Properties=species:S:1:pos:R:3:REF_forces:R:3:MLIP_forces:R:3:historical_X0_saved_forces_Ry_A:R:3 REF_energy=-11160.902952836752 MLIP_energy=-88.22757549285114 config_type=s0_sscha_overlap_277 split=frozen_overlap_screen sscha_index=277 overlap_local_index=2 selection_group=high_committee_disagreement lattice_temperature_K=450.0 degauss_Ry=0.0019000869 kgrid=8 sscha_random_seed=453005 historical_X0_saved_energy_Ry=5.44690880838758 corrected_X0_support_level=outside_corrected_X0_support pbc="T T F"
C       -0.01709413       0.09306457       7.50115108       0.48327972      -1.55608665      -0.41845912       0.55878186      -1.51048506      -0.39133654      -0.00307321      -0.41777942      -0.02876271
C        2.47014006       0.07941174       7.55766840       0.43670881      -2.60453007      -0.10903611       0.39109343      -2.54747144      -0.13126704       0.04669076      -0.11568141      -0.00964813
C        4.96044851      -0.04863964       7.42554417       0.17798436      -1.05813931       0.08019862       0.20197337      -1.09941898       0.09181962      -0.25996953       0.01317913       0.00674858
C        7.42626985      -0.02540395       7.35254161      -0.97346851      -0.90224741      -0.69560245      -0.99579819      -0.88902583      -0.65773822       0.06805041      -0.05415384      -0.04834317
C        9.86495674       0.04900139       7.38206341      -0.69757011      -5.33272147      -0.78100858      -0.58838351      -5.35082829      -0.77240068      -0.08991779      -0.50363558      -0.05677062
C       12.20356216       0.00438707       7.49435557       6.42589720      -2.24929875       0.45093730       5.86805517      -1.87028629       0.44104093       0.53461680       0.08030419       0.03241579
C       -1.33857186       2.13129532       7.52521571       2.99439570       0.67790683       0.24476054       2.93214491       0.71501494       0.22278418       0.54786071       0.16379001       0.01637426
C        1.20925774       2.25206939       7.64690225       1.32139919      -3.19217370      -1.07953860       1.40794110      -3.19027069      -1.06080337       0.08626241      -0.09800459      -0.07796795
C        3.78298555       2.14162434       7.52295515      -2.68954540      -1.48495709       0.74902637      -2.65513223      -1.50656660       0.69103588      -0.26505410      -0.20592841       0.05078986
C        6.22295801       2.11115822       7.29661618      -3.37665549      -1.37150125       0.80703252      -3.30549870      -1.33309189       0.82702607      -0.54030412      -0.32879243       0.06078507
C        8.59430156       2.12677719       7.47175585       2.14867605      -0.58271148      -1.85587343       2.04476002      -0.58582364      -1.73633245      -0.07052025       0.22348040      -0.12761818
C       11.02413307       2.12938964       7.42035478       1.49926168       0.19184312      -0.28170626       1.48139089       0.17246301      -0.26463368       0.28585873      -0.21531020      -0.01945020
C       -2.46801667       4.28246404       7.57260735       0.15338070      -1.00194502      -0.93094992       0.12731787      -0.99836111      -0.91445469      -0.25964701       0.07424243      -0.06721096
C       -0.02366792       4.32059849       7.51590735       1.26781817      -1.25451065       0.69509517       1.20125759      -1.26685173       0.66565636       0.14997349      -0.31031402       0.04892483
C        2.46426904       4.32236428       7.50358915       0.06481905      -2.45132781       1.03089281       0.06273133      -2.41083863       0.95454043       0.33406659      -0.04398569       0.07015742
C        4.98610728       4.23632646       7.46241006      -1.37738573       0.22686437      -0.29233983      -1.36918480       0.24726633      -0.28972827      -0.00552554       0.25297902      -0.02129480
C        7.43238689       4.22164419       7.44669777      -0.11725645       0.79660335      -0.06848905      -0.15017987       0.82829632      -0.04030062       0.25949439      -0.05294291      -0.00296215
C        9.83448934       4.25774809       7.53477357      -1.10720624       1.49970879      -1.34827441      -1.07167357       1.51607371      -1.34622646      -0.38510584       0.03713370      -0.09894601
C       -3.67437225       6.29381418       7.69234714      -1.39787176       6.70927364      -0.82518656      -1.39908572       6.63012920      -0.82975559      -0.30718063       0.55827160      -0.06098599
C       -1.35593121       6.48165427       7.60947834       4.81316143      -2.75577856       0.73970638       4.77084983      -2.65965942       0.68370528       0.11159974      -0.41917705       0.05025149
C        1.16489165       6.42735145       7.69213809       0.16607424       0.23983122      -1.39223179       0.22971445       0.21916159      -1.39082170       0.15421797       0.03646424      -0.10222337
C        3.69185269       6.38675577       7.44996686      -4.49606264      -3.05006780       0.30829944      -4.30666562      -2.99711416       0.34605809      -0.39910777       0.05366580       0.02543477
C        6.11842789       6.32035573       7.39148162       0.49944553       0.34449826       2.63586359       0.57110099       0.26259174       2.63268316       0.43037905      -0.07231992       0.19349845
C        8.64647529       6.41533997       7.61351575      -1.84732065      -1.12531632       0.12151162      -1.86277212      -1.14563823       0.10765552      -0.24074084      -0.15973746       0.00791253
C       -4.89563101       8.43078816       7.67491498      -0.25568155       5.94685183      -0.48889244      -0.15524033       5.71546111      -0.54123181       0.11345235       0.14525289      -0.03977992
C       -2.40758103       8.58309275       7.54211039      -3.25148802      -1.00978277       1.04754610      -3.22396043      -1.12497645       0.99195273       0.13641627       0.00644572       0.07290717
C        0.00854274       8.51539210       7.63457706       0.31995888       0.09358147      -0.45923811       0.37352963       0.11689108      -0.43493466      -0.18176512       0.26838324      -0.03196704
C        2.44503121       8.51592779       7.39314308      -0.08377065      -0.46893014       0.25415638      -0.07617757      -0.40691375       0.23412987       0.12298099      -0.20624314       0.01720850
C        4.90108666       8.55030525       7.49373956       1.09281629      -3.43678177       0.55018188       1.13277599      -3.71009219       0.52762418      -0.29099165      -0.46776679       0.03877975
C        7.34734554       8.38645093       7.60026464       1.30113349       7.35823911       0.33701146       2.31746287       7.94388169       0.38003924       0.07041787       0.77025781       0.02793221
C       -6.11992862      10.65130011       7.46190023      -1.30641171       1.61262830       0.37055407      -1.34920932       1.70320124       0.40893589       0.00287969       0.32008791       0.03005620
C       -3.69329914      10.68649061       7.54373066      -3.21608033      -4.23779302       0.80080787      -3.08986945      -4.46959783       0.81059623      -0.28638146      -0.24699917       0.05957775
C       -1.21823429      10.63759655       7.52704492       1.61710896      -0.52563119      -1.54965221       1.63020963      -0.49167848      -1.56521577       0.19373328      -0.23766045      -0.11504149
C        1.23394531      10.65944928       7.33955510       1.00350028      -1.89557589      -0.07661168       1.03389522      -1.98516616      -0.03551489       0.02719453      -0.29446952      -0.00261039
C        3.70842512      10.62309387       7.29738876      -0.28221277      -0.30185471      -0.35767002      -0.29065337      -0.33227799      -0.34049397      -0.03958414       0.19041131      -0.02502612
C        6.11978693      10.67471516       7.49898380       1.48059727       0.18024847      -0.57357841       1.45495191       0.15850766      -0.48260370       0.24659372      -0.02963595      -0.03547056
C        1.28365060       0.80514235       7.50254753      -3.24436092       0.46436540       1.14706605      -3.26871159       0.25476411       1.09004427      -0.34394962       0.08737168       0.08011714
C        3.75258790       0.64489058       7.54775723       0.13725654       3.69855709      -0.56419671       0.09691054       3.83688437      -0.55040761      -0.04768036       0.05288925      -0.04045412
C        6.20896219       0.66956732       7.29804807      -1.24637517       0.68595978       0.60217139      -1.27946753       0.61063031       0.60635028      -0.00853709       0.15710367       0.04456603
C        8.61969678       0.65892369       7.40965487       1.08287743       3.56846030       0.05399779       1.10412754       3.56897435       0.07231348      -0.06852541       0.54557189       0.00531523
C       11.08845875       0.66826350       7.47675696      -5.00213159       4.96601145      -0.71791731      -4.49051503       4.68126535      -0.67051106      -0.22317855       0.30714433      -0.04928159
C       13.45068409       0.74948072       7.59295193       0.94838431      -1.67141812      -1.00575642       0.93902379      -1.66637767      -0.94659248       0.00255180      -0.39460259      -0.06957343
C       -0.06795801       2.84002938       7.51081129       0.39221253       2.60666383       0.66244859       0.34614002       2.67479695       0.63881874       0.07153025       0.00263232       0.04695250
C        2.51470070       2.86680178       7.65298023      -0.98778904       1.32571016      -1.20035988      -0.99063140       1.25972007      -1.18635091       0.34338932       0.22115728      -0.08719493
C        4.97418933       2.84326542       7.45344713       1.19903139      -1.14168653      -0.64305630       1.16558280      -1.16920313      -0.62130334      -0.03116773       0.17311072      -0.04566454
C        7.38257524       2.80492216       7.38159729       2.56337545       1.07845179       0.41793822       2.58935210       1.06393658       0.39791396       0.42448685      -0.11383875       0.02924636
C        9.87102728       2.91498488       7.27371269      -3.14497313      -4.51234313       2.61917765      -3.04875642      -4.49348425       2.60184405      -0.58929798      -0.44574764       0.19123202
C       12.23841777       2.83779878       7.47797957      -0.10372910       1.75537697       0.37716952      -0.11987401       1.71594597       0.35161469      -0.12916026       0.28965808       0.02584325
C       -1.20937439       5.02404175       7.60302831      -3.95548563       0.40047940      -0.39249021      -3.91373738       0.36343895      -0.43061750      -0.16970880       0.04793721      -0.03164994
C        1.23342093       5.05489067       7.58581227      -1.21481848      -3.01583356      -0.16583615      -1.13113168      -2.97545007      -0.18710513      -0.43810750      -0.09235866      -0.01375223
C        3.69998823       4.91887630       7.47381538       1.96776012       2.68362415      -0.27034610       1.96064202       2.71519214      -0.22341404       0.18912417      -0.05290301      -0.01642052
C        6.23896225       4.90886963       7.40170069      -3.05285899       1.25111191      -0.07373641      -3.04322491       1.20715035      -0.03444157      -0.32224413       0.03804991      -0.00253137
C        8.60455709       5.00092020       7.56111652       1.49984557      -1.34574805      -0.19831047       1.46624756      -1.37907433      -0.17778120       0.29039821       0.12626407      -0.01306642
C       11.02451093       4.94814348       7.51349995       3.18748658      -0.35462737       1.39149080       3.13093285      -0.37021287       1.31927610       0.44365657      -0.06989146       0.09696486
C       -2.50249823       7.19273037       7.67450798      -0.98280084      -3.10779395      -0.58835376      -0.96899095      -3.01629128      -0.65632138       0.26540452      -0.21025629      -0.04823870
C       -0.09027984       7.11734891       7.66962185       1.34465893       0.34827495      -0.01344147       1.32072880       0.34574617      -0.01997799      -0.15673119       0.19879237      -0.00146846
C        2.39258181       7.08024497       7.46003390       1.89308963       1.75887162       0.80045615       1.88227430       1.70600290       0.81355532      -0.00016796      -0.09808614       0.05979504
C        4.84528145       6.99798901       7.60411387       4.94884522       4.72325252      -2.07068910       4.71494594       4.93180866      -2.07002765      -0.00474733       0.23677475      -0.15214397
C        7.33433119       7.03773273       7.65259260       1.08420026      -0.92060791      -1.63929141       1.07298707      -0.76859351      -1.67081827      -0.01989393       0.12832740      -0.12280279
C        9.87926570       7.12258429       7.62297398      -0.95018691      -6.91580728       0.82155462      -0.95062358      -6.50194135       0.81017241       0.22094184      -0.58650749       0.05954664
C       -3.73283146       9.15078033       7.62437385       4.07083561       4.85239543      -0.72172588       3.99289504       5.06932209      -0.66547527       0.14770887       0.62156416      -0.04891152
C       -1.15934614       9.23239934       7.51298711      -2.25910879       1.09864241       0.72448313      -2.34883041       1.09122175       0.73147087      -0.00610696      -0.17556819       0.05376217
C        1.20854015       9.23961006       7.53686472       1.85419167      -0.32372220      -1.04577127       1.90137877      -0.27914638      -1.06652639       0.45522296       0.17635140      -0.07838823
C        3.72289739       9.20297546       7.27692769      -2.23177642       0.36764410       0.97218861      -2.31288008       0.38643288       0.97268039      -0.16933217       0.16314265       0.07149045
C        6.13680962       9.24136203       7.58619371       0.70564440      -1.54508696      -0.71449209       0.63010383      -1.63029551      -0.77670093       0.08100636      -0.22633540      -0.05708659
C        8.71636066       9.26723701       7.57360254      -4.59475033      -4.14790545       0.29220433      -5.72102997      -4.89912851       0.29409149      -0.70615057      -0.53090268       0.02161572
C       -4.92985860      11.40866879       7.56910574       0.78244120       0.46910754      -0.76841815       0.80818228       0.45116770      -0.74517039      -0.11644073      -0.19276481      -0.05476913
C       -2.47740590      11.24832616       7.49561198       2.77179859       4.80032699      -0.12210863       2.68053892       4.81737453      -0.09149776       0.27988539       0.41803151      -0.00672482
C        0.04031418      11.34564254       7.31022533      -2.23018362       0.56960168       1.45502842      -2.25260776       0.57225340       1.46257264      -0.28129807       0.09006210       0.10749739
C        2.49683085      11.28850955       7.21447695      -1.26875662       3.99959625       1.31357892      -1.32092348       4.06690749       1.26610977       0.21951865       0.26331852       0.09305757
C        4.88559814      11.36812286       7.43004831       0.43750714      -0.12370683       0.11872429       0.47828845      -0.17193567       0.12413360       0.04175551      -0.14142879       0.00912395
C        7.35460272      11.41388698       7.37912957       0.80721326      -0.37461436       1.50737531       0.97820007      -0.41630637       1.44658867       0.05797431       0.27212520       0.10632209
72
Lattice="14.76 0.0 0.0 -7.38 12.782534959858314 0.0 0.0 0.0 15.0" Properties=species:S:1:pos:R:3:REF_forces:R:3:MLIP_forces:R:3:historical_X0_saved_forces_Ry_A:R:3 REF_energy=-11160.947470796811 MLIP_energy=-88.32203611889831 config_type=s0_sscha_overlap_216 split=frozen_overlap_screen sscha_index=216 overlap_local_index=0 selection_group=high_committee_disagreement lattice_temperature_K=450.0 degauss_Ry=0.0019000869 kgrid=8 sscha_random_seed=453005 historical_X0_saved_energy_Ry=8.426223542758319 corrected_X0_support_level=corrected_X0_core pbc="T T F"
C       -0.15420381       0.05249079       7.64245588       9.47038596      -2.30469059       0.12646357       9.76163492      -2.03506564       0.06860942       0.68039623      -0.28844948       0.00504321
C        2.40265439      -0.04001762       7.33930705       2.07728989       3.44629331       0.59302314       2.05821475       3.34000257       0.71229908       0.05073195       0.27777818       0.05235287
C        4.91846771      -0.09952756       7.03547346       0.94276079       7.90713544       3.64453873       0.86022371       8.08927319       3.46043504      -0.10282817       0.56437687       0.25433712
C        7.40160984      -0.04928171       7.41058676      -1.97740947       0.11212889      -0.60917816      -1.92076871       0.10773353      -0.59248120      -0.11164665       0.05965260      -0.04354646
C        9.86096624       0.01874457       7.40684663      -2.00924642       0.51242292       0.08464457      -2.02767432       0.48134562       0.07340986      -0.07401351       0.02058659       0.00539533
C       12.22531986       0.02169100       7.62385251       3.50109200       2.08533101       0.54573799       3.59731467       2.19112358       0.53209285       0.40931683       0.25546030       0.03910842
C       -1.26051619       2.19801025       7.80884033       2.96732379      -0.42156810      -0.77857015       2.99689345      -0.52429576      -0.79118553       0.40250751       0.01615169      -0.05815094
C        1.25345261       2.19010719       7.67171959       0.25671359      -2.34812090      -0.59563436       0.26014077      -2.30484925      -0.60463727       0.02975410      -0.09920645      -0.04444009
C        3.69741301       2.04670620       7.51780663       0.73513239       0.42707386      -0.03046526       0.72148687       0.46618628      -0.02682547       0.03550665      -0.05203816      -0.00197191
C        6.18995922       2.08873816       7.59072870      -2.10357556      -2.31391931      -0.01779358      -2.05306604      -2.27753784      -0.01833265      -0.34231331      -0.30137296      -0.00134756
C        8.63066752       2.12799152       7.59527465      -1.93832305       1.86392998       0.10027302      -1.96080781       1.81983970       0.05159517      -0.31075225       0.26428765       0.00379199
C       11.06320794       2.16106022       7.69603114      -0.60703643       3.56460699      -0.20385943      -0.55536574       3.49218972      -0.21113098       0.01289447       0.11356969      -0.01551791
C       -2.59077025       4.33661134       7.59846215       7.25243976      -4.14939592       1.17198930       7.00839759      -3.98662142       1.15799996       0.37730452      -0.21917958       0.08511132
C        0.03107491       4.22958527       7.67055369      -0.70596374       3.45944759      -0.39201661      -0.69846069       3.51647948      -0.39919180       0.05649565       0.16006681      -0.02934001
C        2.46109839       4.31136467       7.54126384       1.85940227      -4.85825909      -0.53712762       1.88387166      -4.86809392      -0.55382313       0.36108555      -0.30324913      -0.04070502
C        4.90332361       4.22212681       7.53533502       0.26791383      -0.82589773       0.64629126       0.26956466      -0.79832108       0.64855301       0.12474196      -0.00047692       0.04766792
C        7.30819032       4.25328416       7.75455563       3.39516101      -1.22610948      -0.69989310       3.40783724      -1.26029537      -0.72144977       0.35796643      -0.15531174      -0.05302555
C        9.78221715       4.32237352       7.80218871       0.62006446       2.00798169      -1.02415266       0.59603506       1.92687042      -1.01497853      -0.14657906       0.16495833      -0.07459946
C       -3.70788548       6.42545185       7.53542619      -0.14464461      -0.06309076       0.94172695      -0.15874358      -0.08707549       0.92389923      -0.11050230       0.00129634       0.06790523
C       -1.19603147       6.35806887       7.67043157      -0.79360056      -1.49760049       0.25107337      -0.81914722      -1.51132990       0.24024653      -0.24282947      -0.21985741       0.01765779
C        1.21015923       6.32968933       7.49331265       4.70466936      -0.05804394      -0.44581206       4.74055023      -0.07173522      -0.46297076       0.33215615      -0.04864150      -0.03402767
C        3.70474751       6.37009176       7.35150668       0.45947490      -0.45600289       0.96719784       0.52011526      -0.47564754       1.01306057       0.00899965       0.08034328       0.07445852
C        6.12567771       6.36657296       7.56877780       1.53056614       0.97373719       0.22605062       1.57506399       0.94368111       0.22576444       0.36207094       0.05585346       0.01659354
C        8.56088863       6.43757253       7.71895698       2.61308182      -1.35561671      -1.29799572       2.58914954      -1.33037933      -1.31169826       0.21782905      -0.05440910      -0.09640826
C       -4.82453207       8.59832834       7.53999430      -4.60589966      -2.62397430      -0.68167324      -4.55341725      -2.66527810      -0.74388494      -0.26128416      -0.23397121      -0.05467480
C       -2.35560368       8.51502734       7.45688414      -4.44352369      -1.66620623      -0.42871448      -4.35319146      -1.59355136      -0.45752691      -0.16465864      -0.07686801      -0.03362755
C       -0.02457446       8.50723554       7.35091444       4.15818369      -2.84092295       0.57277365       4.10808960      -2.85867514       0.50754875       0.20592865      -0.09517148       0.03730415
C        2.47567128       8.52762521       7.41989229      -0.27250428      -2.76149361      -1.05332826      -0.26551553      -2.74331468      -1.06168681      -0.01209336      -0.33049122      -0.07803270
C        5.00358989       8.56929679       7.36578989      -7.04137764      -3.80644650       0.43062173      -6.72755811      -3.58082087       0.44635833      -0.73664664      -0.34009439       0.03280657
C        7.35227353       8.55577323       7.52515160       1.30534239      -2.14705703      -0.76632990       1.33701442      -2.08474171      -0.77473985       0.03289828      -0.09828617      -0.05694226
C       -6.18469221      10.65552312       7.44498237       1.33943059       0.17299488      -0.62259623       1.23756649       0.11810775      -0.57523364       0.11919277       0.13619242      -0.04227866
C       -3.63603671      10.64108411       7.13540892      -2.10180870       1.15085251      -0.16197873      -2.06960865       1.11822423      -0.03455319      -0.09902794       0.08624556      -0.00253953
C       -1.20711412      10.60587616       7.09057391       1.08927639       1.92011013      -0.72335262       1.09250347       1.88392121      -0.61119133       0.20045300       0.02548798      -0.04492199
C        1.23897993      10.63536136       7.33994339       1.66535802      -0.72269133      -0.94820382       1.66411938      -0.70599304      -0.94359763       0.14853205      -0.10732002      -0.06935323
C        3.68822439      10.67932588       7.34480189       0.57505782      -0.49224850       0.38234335       0.55242712      -0.48078887       0.38549119       0.03140598       0.04840061       0.02833289
C        6.18686132      10.67348354       7.51907291      -3.84785026      -0.03877326      -0.35951016      -3.96778636      -0.11823838      -0.36301288      -0.30269930       0.00511320      -0.02668073
C        1.26092186       0.74873934       7.62109567      -3.66492861      -0.76225238      -0.50318649      -3.91011598      -0.95657915      -0.50871429      -0.30835149      -0.09528099      -0.03738986
C        3.70585757       0.64608364       7.35636021      -1.23346000      -1.03045007      -1.40142734      -1.22904078      -0.95312691      -1.29873423      -0.17846890      -0.16719499      -0.09545461
C        6.16400171       0.61738077       7.48973023      -0.95141693       0.91238424      -2.31876558      -0.84589143       0.99106003      -2.10576874      -0.12091630       0.09870765      -0.15477090
C        8.53623738       0.70818892       7.40577234       5.72003142       0.66809859       1.08388865       5.66644241       0.70364904       1.09059263       0.31976236       0.13473592       0.08015703
C       11.07148803       0.80005584       7.59277774      -2.46500916      -3.32221778      -0.53362115      -2.47528625      -3.29155759      -0.48278861      -0.09361221      -0.23409844      -0.03548440
C       13.54727816       0.77606713       7.77568788      -6.86254919       0.77458905      -0.24167624      -6.97337951       0.65513870      -0.27275756      -0.50468559      -0.03378959      -0.02004783
C        0.01252692       2.90528648       7.70981845      -0.39971681      -4.18104054       0.64607760      -0.34100383      -4.19600113       0.65522599       0.05913683      -0.35631828       0.04815808
C        2.50660041       2.80733792       7.53604363      -1.08589411       2.27081760       0.83194496      -1.10992870       2.30155871       0.84110249       0.18307403       0.25010030       0.06181984
C        4.93160410       2.73920743       7.60021922       0.03442553       2.82629312      -0.65317256       0.04636107       2.79633338      -0.68681492      -0.01275540       0.32907492      -0.05047996
C        7.36132357       2.81919494       7.63338022       1.43503320       0.33908351       0.66224367       1.42740143       0.35253983       0.63778166       0.18399025      -0.12575099       0.04687632
C        9.79875011       2.99798412       7.72307978       1.50459620      -8.39923867      -0.48630257       1.51303380      -8.30693585      -0.45729961      -0.14457445      -0.64883414      -0.03361094
C       12.31301245       2.85479402       7.67001094      -3.50046002       2.23874823       0.57083761      -3.57698957       2.24229612       0.56506195      -0.39600376       0.26778713       0.04153127
C       -1.22581024       4.92403487       7.72143360      -1.58822827       1.94201078      -1.14507679      -1.52707650       1.96350842      -1.09910792      -0.12635112       0.13215390      -0.08078290
C        1.28139825       4.94768124       7.50720031      -3.85182570      -0.13871076       1.00619068      -3.91202731      -0.13929128       0.98300941      -0.50580346       0.02065761       0.07224958
C        3.66364340       4.95997439       7.48126085       3.01302746      -0.04104381      -0.36910191       2.98890863      -0.02254733      -0.38915242       0.28076872      -0.12865223      -0.02860233
C        6.16129980       4.95694974       7.62740196      -3.75234894      -0.02260128      -0.21320873      -3.76310552       0.01422813      -0.22355919      -0.25246474       0.01081908      -0.01643160
C        8.55609740       4.95744781       7.73664856      -0.94942355       2.94467262       0.80227597      -0.95922337       2.96185988       0.80189219       0.10878308       0.31392141       0.05893785
C       11.03030026       5.00692906       7.63333362      -2.84050901       2.13908815       0.25307857      -2.63504203       2.06539198       0.24157074      -0.11153807       0.17939359       0.01775510
C       -2.45300123       7.06887611       7.61113274       1.59427808       1.81320443      -0.70289487       1.58113015       1.77044867      -0.70369834       0.26812761       0.10168670      -0.05172095
C        0.06217544       6.98783344       7.61374273      -4.24219706       5.57165100      -1.16653856      -4.22739320       5.57234739      -1.13672599      -0.51498918       0.43375305      -0.08354784
C        2.49058417       7.00266365       7.35780798      -2.02519060       4.25432830       0.60027160      -2.05849979       4.24036872       0.58291480      -0.28162298       0.20773181       0.04284351
C        4.92870960       7.07815556       7.48293096       0.44181348       2.01379238      -1.21004317       0.36599030       1.99178639      -1.18746524      -0.12028538       0.06864513      -0.08727704
C        7.38629438       7.11601691       7.58410670      -2.88805950       0.67510510       0.46788010      -2.87097109       0.65755536       0.44527038      -0.17414049       0.18875657       0.03272693
C        9.83450867       7.16641547       7.53966568       0.26069392      -0.72481686       1.17711813       0.26388755      -0.72629134       1.16479410       0.17647392      -0.08286860       0.08561083
C       -3.62956270       9.24457747       7.42044020       2.39379629       1.15721959      -0.79416954       2.27777438       1.13806944      -0.74610534       0.15252411       0.23480423      -0.05483759
C       -1.19892686       9.18174367       7.16720116       0.13142939       1.64464650       1.12192246       0.14816998       1.54882890       1.15931794       0.18518072      -0.01404767       0.08520835
C        1.24334095       9.20660615       7.32532591      -1.10658069       0.02299929       0.47871858      -1.11616808       0.07741824       0.46458248       0.09872344       0.14305875       0.03414628
C        3.66358790       9.25440513       7.35355788       3.00988634      -0.27880400       0.11542711       2.97337682      -0.28211051       0.11047334       0.18778734       0.02397028       0.00811987
C        6.12681081       9.23847274       7.40201095       3.97365845       2.98935608       0.83375605       3.67456716       2.80966788       0.81087995       0.18029729       0.15128554       0.05959844
C        8.59309072       9.20450630       7.43042265       1.50910026       2.88850816       1.10634415       1.50172292       2.90350059       1.10083291      -0.07925475       0.13610673       0.08090978
C       -4.93547534      11.38696512       7.23075349      -0.10213862      -4.20831043       0.54392330      -0.07914040      -4.09037163       0.55042655      -0.13438011      -0.36084502       0.04045557
C       -2.43342419      11.39171819       6.91161752       0.43626196      -7.45723866       1.09971739       0.43449632      -7.75810212       0.92262007       0.00499179      -0.56125784       0.06781171
C        0.06514928      11.33046706       7.23099304      -3.24459798      -0.71257816       0.12277686      -3.15783077      -0.73555759       0.16804135      -0.23338189      -0.09967648       0.01235120
C        2.47455699      11.36009282       7.31941490      -0.36960354       1.51722237       0.62311096      -0.31410679       1.52391796       0.61547315       0.14777283       0.10251786       0.04523674
C        4.90621537      11.42872853       7.49804193       0.49638952      -2.26058332      -0.28043434       0.46845844      -2.30717460      -0.29127835       0.11840041      -0.17408294      -0.02140867
C        7.34409923      11.37609004       7.58647408       0.97636074       1.31015061      -0.43444907       1.04340109       1.35184312      -0.49512495       0.09749192       0.24160341      -0.03639141
72
Lattice="14.76 0.0 0.0 -7.38 12.782534959858314 0.0 0.0 0.0 15.0" Properties=species:S:1:pos:R:3:REF_forces:R:3:MLIP_forces:R:3:historical_X0_saved_forces_Ry_A:R:3 REF_energy=-11162.163776253445 MLIP_energy=-89.61845431600526 config_type=s0_sscha_overlap_099 split=frozen_overlap_screen sscha_index=99 overlap_local_index=3 selection_group=high_committee_disagreement lattice_temperature_K=450.0 degauss_Ry=0.0019000869 kgrid=8 sscha_random_seed=453005 historical_X0_saved_energy_Ry=9.825806470919183 corrected_X0_support_level=corrected_X0_core pbc="T T F"
C       -0.02539502       0.04890260       7.68278889      -2.20534420      -1.74496761      -2.06005964      -2.14725074      -1.81407682      -2.01611215      -0.12827794      -0.35149726      -0.14818173
C        2.38612219      -0.05157407       7.38784694       2.26688278       5.14441259       1.07870479       2.35397329       5.09480304       1.09146474       0.09476589       0.44183132       0.08022119
C        4.87380021       0.05394045       7.37321372      -0.04758572      -1.84039256       2.06803186      -0.18780719      -1.98159645       2.01727397      -0.25206622      -0.12901172       0.14826694
C        7.34481450      -0.10631842       7.46026438       1.27646659       3.88554854       1.05518331       1.39097686       3.80484182       1.01030628       0.12664328       0.28468547       0.07425609
C        9.84023553      -0.07705364       7.48380823       0.81612342       1.48416441      -0.44983121       0.76205834       1.45506450      -0.41019642       0.03488480       0.09451058      -0.03014914
C       12.27632724      -0.05509853       7.43112431      -0.07061946       3.56386111       0.24589902      -0.13169186       3.39992580       0.28874732       0.16200897       0.36139823       0.02122237
C       -1.19524075       2.14234155       7.35577444      -2.95430012      -0.63405589       0.46196939      -2.86551096      -0.62722399       0.55372888      -0.00862583       0.07799446       0.04069829
C        1.25932974       2.09472487       7.40915692      -1.36024624       3.65148045       0.06926089      -1.42693027       3.50426333       0.16253111      -0.04310858       0.31399479       0.01194584
C        3.73229514       2.21093721       7.41682430      -2.72843025      -3.49546926       0.95450919      -2.67550877      -3.58771640       1.00301927      -0.19428269      -0.28236218       0.07372051
C        6.16622349       2.17268751       7.38193870       1.74553453      -3.65499926       2.41439262       1.69777885      -3.67886744       2.31664840      -0.08469880      -0.41802463       0.17027080
C        8.64106454       2.08779324       7.37522995      -0.91800724      -0.66721515       1.13728815      -0.94676553      -0.68171727       1.15210162      -0.24225755       0.12166448       0.08467787
C       11.07375747       2.13233263       7.40864381       0.74803547      -1.60353919      -0.70932597       0.67948611      -1.55624269      -0.58846885       0.11227731      -0.31331936      -0.04325184
C       -2.37476087       4.29023802       7.52690016      -9.71060001      -3.42325777      -1.01229654      -8.58205243      -2.00239837      -0.97624917      -0.84833032      -0.10894150      -0.07175292
C       -0.01727699       4.28159500       7.52590757       0.78257618      -0.69449533      -1.25040049       0.83410224      -0.53160951      -1.13223160       0.03492272      -0.15085310      -0.08321735
C        2.43950366       4.27455155       7.42097215       1.24118745       0.74521651       0.78872292       1.22130486       0.74652127       0.80172479       0.33611463       0.12307654       0.05892595
C        4.94116710       4.26422611       7.41598549      -3.36546502      -0.42034477       0.42372269      -3.25717374      -0.29744495       0.43930428      -0.08992728       0.13253195       0.03228834
C        7.42844667       4.25168635       7.31610464      -4.09231460      -1.68484339       0.43959976      -4.07299629      -1.58159477       0.46204940      -0.05133994      -0.20601947       0.03395987
C        9.87013393       4.26683025       7.41275609      -2.31633718      -0.75887575      -0.34553827      -2.27825281      -0.80573860      -0.28071621      -0.39928137      -0.01917280      -0.02063238
C       -3.66709157       6.44426059       7.54114564      -1.81669958      -1.12362119      -0.85343244      -1.82524830      -1.08504067      -0.87221122      -0.25467594      -0.10305313      -0.06410615
C       -1.18842831       6.41399307       7.51946653      -1.94997375      -0.74687179       0.00433077      -1.82681161      -0.82208445      -0.08257971      -0.31203122      -0.17605730      -0.00606968
C        1.22669072       6.37545472       7.58475467       1.06013500       3.29161368       0.06241919       0.98525117       3.18883907      -0.05505710       0.08887470       0.25594306      -0.00404673
C        3.69194882       6.42922047       7.53509543       1.50497287      -0.48736263       1.68886356       1.53418641      -0.49589246       1.56873897       0.06212009       0.12922206       0.11529990
C        6.20657809       6.40713442       7.46474554      -5.46566241      -3.34190035       0.18809651      -5.27518890      -3.27374676       0.25073909      -0.12944133      -0.33156307       0.01842891
C        8.54058676       6.36286073       7.39762912       3.00245482       1.39781186       0.09329351       3.00232549       1.38967894       0.13736306       0.17904178       0.11300193       0.01009615
C       -4.92908256       8.50507566       7.57867774       0.40473535       1.64156375       0.80964039       0.40231543       1.59731716       0.69799425       0.19928382      -0.03491952       0.05130155
C       -2.45103501       8.53309095       7.55883900       1.53783439      -0.21174320       0.58452745       1.53156578      -0.20360586       0.48405717       0.40629683       0.06524403       0.03557712
C        0.06455254       8.54301034       7.50456020      -0.98028065       0.37425595      -0.12335150      -1.02082522       0.38341573      -0.11711964      -0.22900993       0.18552315      -0.00860826
C        2.52242390       8.45758682       7.63103043      -2.46775587       4.18522810      -0.33586989      -2.41109658       3.95062252      -0.39998569      -0.13597604       0.09655358      -0.02939847
C        4.90849794       8.49621774       7.64442609       1.46080260       2.05747285      -0.65428199       1.46256201       2.07087520      -0.68851790      -0.23499442       0.07497978      -0.05060558
C        7.34858109       8.56326632       7.55595953       3.83126998      -1.12073950       0.71653508       3.81310230      -1.11062982       0.69263236       0.24862591       0.01486266       0.05090773
C       -6.10530056      10.75879341       7.58854212      -3.13751436      -4.41138979       0.26672367      -3.00806006      -4.34524422       0.17491003      -0.26961741      -0.12744890       0.01285557
C       -3.70957118      10.65486944       7.55611306      -0.44944863      -1.29160884       0.07350115      -0.45373816      -1.23934120      -0.00379509      -0.17676453      -0.10042347      -0.00027871
C       -1.30434057      10.69211586       7.59466057       1.32361728      -2.25393290      -1.24086581       1.32925635      -2.29759038      -1.17391348       0.23640245      -0.37597408      -0.08628083
C        1.21569060      10.57667439       7.48769844       1.51267563       2.66583469       0.63475421       1.44408528       2.59523682       0.61399093       0.12797757       0.14574703       0.04512781
C        3.67513276      10.57295496       7.64437915       1.17418322       3.39358904      -0.49554234       1.16245867       3.38934441      -0.54338676       0.21505688       0.39677456      -0.03993829
C        6.13532178      10.61505490       7.65161048       0.29370740       4.18652548      -1.18385031       0.29650726       4.09772476      -1.22163084       0.06410194       0.28681998      -0.08978836
C        1.16413078       0.74956302       7.48054214       2.14046292      -3.58577565       0.20516221       2.22479492      -3.40021005       0.19991366       0.11621905      -0.25786145       0.01469347
C        3.64149331       0.73980997       7.48443447      -0.17571793       0.56607490      -1.91085801      -0.17086275       0.63522618      -1.70359984       0.02995018      -0.07465252      -0.12521217
C        6.14011896       0.66867842       7.61683458      -0.11252047       1.64145731      -3.30915426      -0.06346846       1.82647826      -3.12203569      -0.03496859       0.25259583      -0.22946537
C        8.61969699       0.65584176       7.44139157      -0.99969916      -0.93426433      -0.19932554      -1.07860923      -0.96347413      -0.20850008      -0.16879074       0.08337650      -0.01532439
C       11.07161750       0.69294000       7.33356883      -1.03657418      -0.80326919       1.23409506      -0.97659495      -0.76414717       1.30516225      -0.11018019      -0.09915060       0.09592812
C       13.47339496       0.70397644       7.51474083       2.24108279       0.72254529      -0.27086957       2.18426908       0.75670871      -0.27139714       0.13886314      -0.10782408      -0.01994699
C        0.01304086       2.85718570       7.38247417       0.68951253       0.05657018       0.73024678       0.65842703      -0.11377823       0.73664050       0.11795517      -0.10640308       0.05414189
C        2.45181499       2.85059519       7.43605244       1.51264555       0.58919734      -0.56132144       1.46401636       0.59762610      -0.43530234       0.38535224       0.18257318      -0.03199430
C        4.96643073       2.82957084       7.45585474      -1.20210668       2.37304157      -0.87468184      -1.21340084       2.32655281      -0.84749071      -0.13530449       0.28930196      -0.06228942
C        7.41739784       2.83200019       7.47028417       0.01391455       0.13707785      -1.86799258       0.06509550       0.04118662      -1.80516306       0.15367226      -0.17981175      -0.13267713
C        9.85673522       2.78030030       7.44205856      -0.31252607       3.03380866      -0.53521009      -0.25131799       3.10612033      -0.45762229      -0.22119991       0.17471929      -0.03363444
C       12.28550164       2.85458746       7.35345312       2.53039077       0.54755318       0.92690377       2.44919975       0.36286266       0.98248420       0.06032055       0.21619175       0.07221130
C       -1.28856908       4.94918799       7.53337853       8.05210632       4.34233664       0.23110078       6.51770982       3.49307728       0.28085018       0.49314942       0.26970287       0.02064220
C        1.24974997       5.01094842       7.47494767      -2.22950999      -1.77889666       0.47964675      -2.28099255      -1.76430195       0.48550875      -0.48748303      -0.09617390       0.03568407
C        3.66950072       5.03699626       7.51708115       0.82988011      -2.98391306      -1.14581135       0.91253535      -3.00926755      -1.10957095       0.12593401      -0.39307848      -0.08155185
C        6.10118822       4.90575222       7.34233160       5.29359288       3.94063108       0.36230597       5.11811663       3.82601064       0.38234356       0.30904751       0.33084624       0.02810165
C        8.57153492       4.96884434       7.28069148       3.35025412       0.17765809       0.96077240       3.28149677       0.11091399       1.01779813       0.47368944       0.13033997       0.07480708
C       11.01879086       5.02796481       7.48900802       3.78410155      -1.19124429       0.38884336       4.18098937      -1.50148299       0.32013052       0.44294174      -0.15581195       0.02352893
C       -2.41034289       7.10565332       7.53393588      -1.13110978       1.01249965       0.08080746      -1.13765876       1.03978865       0.04582138       0.15451473       0.09229909       0.00336803
C       -0.00651804       7.14802352       7.48999990       2.06160693      -2.15842722       0.72756949       2.05863749      -2.15110154       0.65483443      -0.01010956      -0.08734110       0.04812953
C        2.50235253       7.13067312       7.73244479      -2.15693649      -4.13483808      -1.75481107      -2.13874715      -3.84658034      -1.83634483      -0.24308928      -0.39552739      -0.13496867
C        4.96304905       7.12097891       7.62141117      -0.75083617      -1.27800925      -1.05487658      -0.70954701      -1.26373663      -1.05950704      -0.35258700      -0.14612676      -0.07787200
C        7.34048352       7.06938797       7.54136547       3.21309271       3.65286653      -0.81875623       3.05166412       3.63551041      -0.77500111       0.14566967       0.36809728      -0.05696167
C        9.81430432       7.11144975       7.45961770      -0.16533967      -1.04186808       0.54066314      -0.18638823      -0.99276556       0.51992530       0.16326753      -0.18884831       0.03821363
C       -3.68849729       9.21856794       7.67494276       0.15116235       0.32207515      -1.22597912       0.17093642       0.35438816      -1.30388430      -0.11373173       0.19348532      -0.09583347
C       -1.17439227       9.23763242       7.57015887      -2.49155297       1.00866485      -0.08202848      -2.42586620       1.00856582      -0.14991695       0.03603476      -0.10632926      -0.01101855
C        1.31947565       9.22642658       7.46895568      -2.02634425      -2.68160172       0.94291172      -2.00483325      -2.59020189       0.87216722       0.05335733      -0.01358667       0.06410289
C        3.66108950       9.21231137       7.61848720       3.46523874      -2.18136557       0.61917461       3.38491922      -2.16383877       0.54157177       0.36489779      -0.13475252       0.03980494
C        6.18092675       9.25825976       7.53175257      -3.14857242      -2.26915898       1.27150513      -3.11552101      -2.22258911       1.25508337      -0.22989760      -0.26216536       0.09224698
C        8.66830324       9.30221531       7.67509050      -3.08421051      -1.02859502      -1.45474354      -3.10146995      -1.10327124      -1.45592573      -0.47175365      -0.12846335      -0.10700873
C       -4.90093091      11.37879542       7.51121915      -0.48641878       0.12298795      -0.11736237      -0.59184852       0.16863545      -0.12948304      -0.16206302      -0.12613579      -0.00951701
C       -2.55682103      11.37522410       7.43488083       3.23089503       1.14322482       0.78305261       3.11209362       1.19344629       0.72468642       0.16412594       0.14816444       0.05326318
C       -0.03484800      11.30498694       7.50448286       0.11141953      -0.53253203       0.02886115       0.15830052      -0.52543466       0.03278263      -0.06001966      -0.10173027       0.00240926
C        2.49156946      11.27981549       7.61480106      -2.73838865       1.23065699      -1.05098521      -2.69529780       1.17373351      -1.04858560      -0.00935356       0.06176159      -0.07706974
C        4.89273499      11.39220428       7.58816954       0.57651820      -5.39625754       0.52146831       0.54785387      -5.19768270       0.45463114       0.10942932      -0.42918342       0.03341488
C        7.35278902      11.36939173       7.55458156       1.05387616       1.30213571       1.65435267       1.09097960       1.26795969       1.54984185       0.12744797       0.30978454       0.11391148
72
Lattice="14.76 0.0 0.0 -7.38 12.782534959858314 0.0 0.0 0.0 15.0" Properties=species:S:1:pos:R:3:REF_forces:R:3:MLIP_forces:R:3:historical_X0_saved_forces_Ry_A:R:3 REF_energy=-11164.453607947115 MLIP_energy=-91.85080531011586 config_type=s0_sscha_overlap_152 split=frozen_overlap_screen sscha_index=152 overlap_local_index=5 selection_group=low_Aprime_amplitude lattice_temperature_K=450.0 degauss_Ry=0.0019000869 kgrid=8 sscha_random_seed=453005 historical_X0_saved_energy_Ry=5.39722745988645 corrected_X0_support_level=outside_corrected_X0_support pbc="T T F"
C       -0.04058356      -0.09688515       7.41017293       3.31470785       6.99305607       0.15428804       3.37510681       6.43111050       0.31360094       0.23909958       0.29500499       0.02304932
C        2.46116582      -0.03660207       7.48973026       0.29570823       1.25477779       0.39920799       0.26564935       1.28710781       0.37558078      -0.03581346       0.16911412       0.02760477
C        4.93802645       0.03179782       7.49963745       0.14484181      -2.47237820       0.21092045       0.16903226      -2.45265371       0.21956484      -0.20847847      -0.18993476       0.01613767
C        7.37497694       0.00872566       7.40803819       2.42289989      -2.74638632      -0.42701576       2.13000392      -2.60930909      -0.28329405       0.21305069      -0.19787557      -0.02082172
C        9.86544633       0.01966306       7.41428261      -1.17712353      -0.51215655       1.25657833      -1.21903142      -0.48028574       1.18260554      -0.08892759      -0.05259527       0.08692013
C       12.34892091       0.03280524       7.56832159      -1.80680598       0.22615218      -0.48957635      -1.87184455       0.18287285      -0.51309446       0.02419382       0.14621098      -0.03771159
C       -1.22388922       2.10464319       7.50026494       0.85706670       1.36125103       0.03365728       0.81424308       1.35253240       0.03921626       0.27254822       0.20972704       0.00288241
C        1.19543381       2.09794138       7.56533088       3.19814663       0.35662409      -0.43429018       3.16821165       0.42536656      -0.45544988       0.18909824       0.10407992      -0.03347474
C        3.66771003       2.12617464       7.52706006       1.75120845      -0.95742174       0.95755261       1.73387959      -0.92544219       0.91095086       0.14855491      -0.19023733       0.06695362
C        6.14364417       2.13136816       7.55316057       2.16057666      -1.54731251       0.04703653       2.11060444      -1.69373246       0.02840836      -0.08799304      -0.26587289       0.00208805
C        8.60332144       2.16616786       7.46612469       0.89232115      -4.26995135       0.41841233       0.72911168      -3.99073722       0.50054223      -0.08197255      -0.10300502       0.03678916
C       11.03209454       2.15564068       7.56781870       1.87409998      -2.49475271      -0.43320929       1.80278917      -2.40792316      -0.42054531       0.21102199      -0.38944866      -0.03090955
C       -2.47679905       4.20733027       7.69626456       1.99844650       2.98848139      -0.88431088       2.00524430       2.99071625      -0.91860739      -0.05577765       0.27953545      -0.06751626
C       -0.02464219       4.26654577       7.66902141       1.68502002      -1.42377460      -0.52021130       1.68136469      -1.38311483      -0.54920529       0.15421571      -0.26988425      -0.04036560
C        2.44855637       4.27899660       7.56503963       1.40833975      -1.62149038       0.68163416       1.42747274      -1.64771747       0.64150831       0.29512940       0.01677722       0.04715022
C        4.90290804       4.24326479       7.67526926       1.59210447       1.77101031      -1.44724723       1.60232863       1.75935669      -1.44133878       0.26412672       0.25106083      -0.10593644
C        7.40168466       4.28172563       7.46586988      -0.89248030      -1.34097865       1.83482535      -0.86363279      -1.33327612       1.69038394       0.13842024      -0.18595052       0.12424115
C        9.89110059       4.21718228       7.50525810      -2.64559368       1.95656863       0.50177675      -2.81902201       2.06839946       0.46899511      -0.43008324       0.16537525       0.03447041
C       -3.69875142       6.37232712       7.44372850      -0.28342196      -0.26198050      -0.58648072      -0.27351426      -0.24929864      -0.56764571      -0.18192174      -0.01819035      -0.04172140
C       -1.21689563       6.40174534       7.57292876      -1.79987531      -0.04462612      -0.50249332      -1.75493695      -0.07650822      -0.51731274      -0.28208940      -0.16407278      -0.03802169
C        1.25299856       6.37105453       7.53357179      -2.39149001       0.52039025       1.09562650      -2.39586757       0.50586928       1.07427428      -0.17005374       0.06114113       0.07895765
C        3.64952922       6.41769786       7.50259294       2.01568086      -0.00140434       0.82524210       2.00150008       0.02753793       0.78942317       0.15194753       0.17282872       0.05802161
C        6.16339836       6.38873141       7.54441908      -0.94242707       1.76314402      -0.36965547      -0.95646772       1.76208803      -0.33871458       0.20682128       0.05571750      -0.02489472
C        8.63234753       6.40761951       7.48956623      -0.99722602       0.50854287      -0.30397844      -1.01252116       0.48082133      -0.28464297      -0.09953610       0.06549443      -0.02092054
C       -4.90060452       8.56872632       7.31813109      -1.80095852      -2.54390757      -0.10374684      -1.77650898      -2.54912483      -0.07898101      -0.03076654      -0.27425750      -0.00580522
C       -2.51689255       8.50134285       7.35760419       2.40972119      -0.78388847      -0.18981221       2.41658131      -0.83516193      -0.17897756       0.35440172       0.03464366      -0.01315460
C       -0.02254177       8.52921425       7.55159051      -0.04007090       0.43031757      -0.46859178       0.00252303       0.43898285      -0.44763394      -0.14991678       0.15516967      -0.03290051
C        2.49928347       8.50635378       7.51841229      -3.27845966       2.27813855       1.15833031      -3.33951726       2.27866401       1.08087063      -0.19832576      -0.00912241       0.07944218
C        4.91035198       8.59920897       7.47378437       0.78411550      -3.81027590       0.33229143       0.74605216      -3.89779622       0.34835773      -0.22603623      -0.36879382       0.02560384
C        7.35997287       8.50194726       7.42167497       1.61959959       3.21268570      -0.39451393       1.65159955       3.10516065      -0.35315354       0.08846290       0.32555998      -0.02595591
C       -6.13143708      10.63628271       7.39325833       0.53813343       2.39121541       0.65685669       0.52998896       2.33538797       0.65516266       0.08873439       0.32444778       0.04815352
C       -3.65195643      10.64131519       7.31961476       0.98817959       0.51633974       1.27580530       0.95626833       0.51407702       1.23831421       0.05305862       0.03918305       0.09101451
C       -1.26294395      10.67323222       7.31469553       1.40327879      -2.42334932       0.77257511       1.40112707      -2.40568800       0.80710703       0.23496797      -0.28179700       0.05932125
C        1.23765993      10.61764781       7.48919537      -3.01812673       3.06586517      -0.51553010      -3.00450075       2.98353337      -0.39293933      -0.23917125       0.17069982      -0.02888065
C        3.68573819      10.67047513       7.51123962      -2.50812939       0.09271578       1.04538946      -2.38047833       0.13519526       0.93235544      -0.14624197       0.13792358       0.06852664
C        6.12085272      10.68861957       7.51149260       0.97884906      -1.08535649      -0.36541187       0.95836428      -1.07501557      -0.34205304       0.10165305      -0.12567089      -0.02514018
C        1.19924544       0.70447169       7.43398525       0.76529271      -2.47557897       0.47156475       0.69702758      -2.52001836       0.51144862      -0.02499594      -0.20546962       0.03759069
C        3.69595887       0.67890885       7.59568633      -0.74680211       1.55137691      -1.17920870      -0.76059835       1.55577827      -1.18760207      -0.09994577      -0.03990616      -0.08728719
C        6.20247856       0.62867463       7.49191990      -3.71396597       6.08105390       0.25438392      -3.42113377       6.09562078       0.20051158      -0.26856495       0.53252134       0.01473738
C        8.60282348       0.72522318       7.42423925       1.23899096       0.01787302      -0.16053454       1.23911826      -0.02644327      -0.08062486       0.02078761       0.12632081      -0.00592583
C       11.11420797       0.72661503       7.55083571      -1.39093621       0.21517331      -0.48769276      -1.37411848       0.17458586      -0.48236458       0.00901820      -0.03115418      -0.03545330
C       13.58689066       0.70639491       7.44965836      -2.42464721      -0.65846081       0.54997696      -2.25824854      -0.64587923       0.51154229      -0.23123352      -0.14043017       0.03759760
C        0.04443942       2.82644114       7.52464002      -4.12797220       0.97706600       0.85422717      -4.04457443       0.93458550       0.87691864      -0.19409979      -0.02764513       0.06445217
C        2.48872034       2.82539162       7.62432355      -2.43589245       0.84360646      -0.79394586      -2.44285668       0.83201319      -0.81912807       0.09709924       0.17965744      -0.06020502
C        4.92479533       2.84152746       7.54849246      -0.55109899      -0.67166445       0.59933237      -0.55098630      -0.67925588       0.55571499      -0.12935758       0.09238021       0.04084427
C        7.43835006       2.80131118       7.59571802      -4.89998552       3.68150708      -1.29235421      -4.57075006       3.52447800      -1.29578484      -0.21936234       0.07533533      -0.09523861
C        9.81749660       2.79269361       7.50970636       1.37790432       3.40715032       0.02467359       1.30062193       3.30196558       0.03388641      -0.15530512       0.19541999       0.00249075
C       12.27338812       2.82953850       7.57642352       1.11601407      -0.80484862       0.42689568       1.14158734      -0.81237702       0.38439641       0.03861152       0.00414413       0.02825263
C       -1.20301172       4.98624558       7.70044792      -2.38951257      -0.98918052      -0.35838607      -2.38758656      -0.98969463      -0.39175743      -0.17516906      -0.03853773      -0.02879380
C        1.21199233       4.93337543       7.60723137       0.76740307       2.12574310      -0.37135677       0.72956370       2.11096064      -0.34736481      -0.23077561       0.18571544      -0.02553114
C        3.71247046       5.00201445       7.58406513      -2.06639612      -0.97507365       0.01002833      -2.08870264      -0.97342619       0.00209715      -0.07323777      -0.23724836       0.00015394
C        6.16500517       4.98973190       7.56828234      -0.63978894      -1.52549953       0.14034675      -0.66022204      -1.53034204       0.09416652      -0.07445035      -0.10053287       0.00692082
C        8.58645521       5.00281507       7.55149185       2.97892640      -1.45957850      -1.13785790       3.13492171      -1.59466349      -1.09607172       0.42701362       0.03399428      -0.08055993
C       11.09833669       4.96350360       7.55335220      -1.10195090      -1.63936340       0.30287287      -1.09853889      -1.62968738       0.28579163       0.03720303      -0.15519003       0.02100521
C       -2.52305835       7.08301175       7.35071752       3.36108309       0.16816172       1.64296834       3.32905555       0.17755827       1.63500917       0.42371458       0.04181630       0.12017100
C       -0.00047324       7.10656926       7.56987853       0.61586842      -0.37820825      -0.17581820       0.60362097      -0.38542878      -0.18114275      -0.21819093       0.01028619      -0.01331373
C        2.42630667       7.13200921       7.58582722       1.45345413      -1.91017564      -1.16387104       1.46563035      -1.85663678      -1.13361981       0.00955896      -0.26923635      -0.08331934
C        4.89944616       7.12031625       7.49744306       0.49798437       0.71468312       0.08179630       0.51638755       0.76362273       0.08023701      -0.16673597      -0.02813275       0.00589730
C        7.39004558       7.15203621       7.48475001      -0.06538752      -3.53405997       0.11019028      -0.07587014      -3.40000708       0.11128128       0.06020808      -0.07080726       0.00817859
C        9.85600834       7.08105207       7.34323433      -0.63124182       1.99157882       0.78496628      -0.60562515       2.00097097       0.76437119       0.13431779       0.05457956       0.05618042
C       -3.68732230       9.21299416       7.31608721      -0.44051739       1.97029780      -0.34659782      -0.47600779       1.97065831      -0.32468226      -0.12187972       0.30405729      -0.02386361
C       -1.27527594       9.20628766       7.42820382       0.53136089       0.76676981      -0.39670605       0.53188435       0.80666030      -0.37415768       0.23149811      -0.12012466      -0.02750014
C        1.21409819       9.26883634       7.56816760       1.08681868      -3.61920437      -0.46135695       1.15485857      -3.54038407      -0.49206314       0.28671663      -0.06504667      -0.03616569
C        3.68176747       9.23786203       7.57413089       0.69208029       1.43340107      -1.06493525       0.65162381       1.40563884      -1.05477772       0.06473449       0.22115172      -0.07752454
C        6.16618003       9.22725923       7.42769529      -1.56417252       2.47666706       0.60823610      -1.50775409       2.51565481       0.58484090      -0.16428038       0.07932770       0.04298479
C        8.60552223       9.28329354       7.35476323       0.10517535      -3.38712811       0.07837982       0.05954427      -3.34239187       0.09275648      -0.23169347      -0.32230058       0.00681734
C       -4.84194303      11.33266360       7.46134281      -3.01400371       0.19308033      -1.02044642      -2.99295081       0.16087641      -0.97886467      -0.32992240      -0.10863004      -0.07194516
C       -2.41269213      11.39056633       7.42730228      -3.55097114      -0.06452158      -0.97163583      -3.46902690      -0.06229781      -0.90992701      -0.26589169       0.05238230      -0.06687842
C       -0.06512959      11.35000538       7.32248213       3.83690096       0.15099806       1.02697959       3.80046682       0.10275345       1.00796455       0.20769504      -0.02801281       0.07408408
C        2.41068364      11.35966370       7.54798778       2.73131657       0.89261246      -1.21006913       2.65065491       0.84499336      -1.13146846       0.39656155       0.01297173      -0.08316131
C        4.85601614      11.41826808       7.54647696       3.38922253      -1.60223719      -0.18938900       3.37458274      -1.67457897      -0.18422888       0.27522993      -0.14217211      -0.01354076
C        7.40059155      11.38351844       7.48884316      -1.54141106      -5.30990216      -0.40758824      -1.60680238      -4.66785606      -0.48093592      -0.06127748      -0.16447038      -0.03534824
72
Lattice="14.76 0.0 0.0 -7.38 12.782534959858314 0.0 0.0 0.0 15.0" Properties=species:S:1:pos:R:3:REF_forces:R:3:MLIP_forces:R:3:historical_X0_saved_forces_Ry_A:R:3 REF_energy=-11162.781070169973 MLIP_energy=-90.16769034058633 config_type=s0_sscha_overlap_020 split=frozen_overlap_screen sscha_index=20 overlap_local_index=2 selection_group=low_Aprime_amplitude lattice_temperature_K=450.0 degauss_Ry=0.0019000869 kgrid=8 sscha_random_seed=453005 historical_X0_saved_energy_Ry=2.267182523405867 corrected_X0_support_level=corrected_X0_core pbc="T T F"
C        0.00557350      -0.01929925       7.37432102       1.07161189       1.19821403       1.51025391       1.07344579       1.16857607       1.52459114       0.13248814      -0.20148441       0.11205525
C        2.39869631      -0.00462237       7.32138239       1.06687489       2.36296953       1.79830283       0.98647459       2.31126310       1.85491842       0.06083793       0.34270071       0.13633420
C        4.92197365       0.04506368       7.64635557      -2.37549492      -3.62024695      -0.69091661      -2.36240651      -3.60461670      -0.72328201      -0.50755738      -0.26144647      -0.05316010
C        7.42513206       0.10099682       7.66253767      -1.55138694      -3.93707114       0.58441766      -1.50907908      -3.91623359       0.57604252      -0.00919372      -0.39144926       0.04233839
C        9.91465902       0.01054282       7.58662137      -3.16253865       0.29724858      -1.19173125      -3.15957675       0.23111085      -1.15469566      -0.34620681      -0.00836611      -0.08486852
C       12.34868064      -0.03434082       7.56120303      -1.79004007       4.86483854      -0.96108248      -1.84737413       4.77778393      -0.97749716       0.08379535       0.56355935      -0.07184482
C       -1.18045260       2.07568424       7.57773886      -0.32663552       2.94507269      -1.35445149      -0.30143682       2.81441871      -1.33981940       0.23537682       0.42105804      -0.09847526
C        1.17275732       2.16763184       7.38601224       3.30231050      -1.01058572      -0.09549437       3.14962224      -0.94827703       0.01008795       0.10266461       0.01028679       0.00074125
C        3.64973177       2.13074172       7.31971692       1.25303535      -1.55689578       2.48437522       1.21572882      -1.54117557       2.48301721       0.13914822      -0.23764537       0.18249850
C        6.10431308       2.06812464       7.57637631       1.62101138       3.15109390       1.26828688       1.59567394       3.09454345       1.19244188      -0.21747122       0.08054075       0.08764307
C        8.64314032       2.13174055       7.59665848      -0.53998026       1.21964161      -0.15990539      -0.54253050       1.20838950      -0.19301718      -0.13614592       0.35679781      -0.01418620
C       11.07502445       2.15723037       7.49587438       1.59679390       0.88657936       0.17708216       1.65760263       0.83572226       0.16383617       0.25129559      -0.25886424       0.01204180
C       -2.40534991       4.29793825       7.47918038       0.54865207      -3.00991308       0.21350029       0.47356298      -3.06006092       0.19171125      -0.28521260      -0.18078556       0.01409038
C       -0.00226227       4.23640051       7.48593857       0.53782542       2.48665579       0.13707065       0.53986046       2.43587514       0.10511321       0.10603262      -0.02120014       0.00772551
C        2.44137612       4.28293121       7.51384898       1.09543136      -1.57182026      -0.93146260       1.06709126      -1.59626159      -0.88589737       0.33723616       0.10506791      -0.06511260
C        4.91131065       4.25166477       7.42271236       1.60397011      -1.98825233       1.16981466       1.55239410      -1.94668646       1.17237188       0.32164840       0.08760406       0.08616768
C        7.42601546       4.25202457       7.50486535      -2.62750905      -1.78907925       0.54390453      -2.59195042      -1.77086883       0.52485552       0.07650911      -0.32669217       0.03857605
C        9.90168298       4.35600375       7.47099258      -2.71690502      -5.08472108       0.87265272      -2.54785617      -5.08902387       0.79493823      -0.52482210      -0.35365130       0.05842701
C       -3.70113207       6.32616804       7.47676718       0.55184796       2.06537797      -0.52138141       0.55024908       2.07175285      -0.49256666      -0.21321634       0.14984919      -0.03620302
C       -1.17529533       6.46263811       7.51325654      -3.27432456      -3.85065070      -0.45518168      -3.19227525      -3.87691371      -0.44323566      -0.35710270      -0.51405330      -0.03257734
C        1.23519082       6.39839756       7.49991709       1.31971434      -0.97439231       0.37071862       1.22751211      -0.95775344       0.32762082       0.15220232       0.04801108       0.02407948
C        3.72520640       6.40963131       7.31971181      -0.38047262      -1.97071432       0.61036241      -0.36535830      -1.93939057       0.70345016       0.00746666       0.12064446       0.05170230
C        6.18937598       6.42517125       7.33210945      -5.90096201      -4.35287714       0.39877810      -5.31713510      -3.91660160       0.44306964      -0.05716648      -0.46477836       0.03256490
C        8.57500112       6.41369680       7.37362912       0.67934536      -1.18941983      -0.09713139       0.66521945      -1.15675490      -0.01071949      -0.08408421      -0.06750891      -0.00078786
C       -4.93107722       8.54460927       7.44711260      -2.30042179      -2.97546493      -0.87408611      -2.21633069      -2.97242358      -0.83018888       0.00622678      -0.39325127      -0.06101760
C       -2.49459466       8.50633110       7.49355547      -1.23368523      -0.82440572      -0.78597467      -1.26392590      -0.83556922      -0.73242161       0.20454201       0.11051639      -0.05383183
C        0.04408603       8.47801814       7.66741282      -2.60476533       1.16791744      -0.27527105      -2.72740839       1.14093828      -0.33715911      -0.45909395       0.22693029      -0.02478088
C        2.50213172       8.46089111       7.45168522      -4.04799675       0.18473993       0.90778376      -3.81294268       0.30644026       0.87149343      -0.17909233      -0.27033059       0.06405370
C        4.92419872       8.58548798       7.46735959      -2.99452734      -4.40063589      -1.42999230      -2.88918462      -4.32438419      -1.36350167      -0.61805244      -0.41518601      -0.10021567
C        7.34758456       8.52269336       7.56076795      -1.25681513      -0.44859297      -1.09391723      -1.20701167      -0.41865893      -1.06241863      -0.06768294       0.15647932      -0.07808609
C       -6.15087279      10.63898108       7.41976899      -1.55375981       0.53411069       1.72630397      -1.57803050       0.57593188       1.66137782      -0.07683844       0.33489207       0.12210903
C       -3.69371944      10.65868746       7.45751935      -1.74678820      -0.09018607      -0.40066426      -1.74946698      -0.11536192      -0.35872724      -0.27122289      -0.01319770      -0.02636577
C       -1.18178745      10.65334841       7.58408629      -3.13907939      -0.10777370       0.58434361      -3.20543142      -0.09024607       0.61795336      -0.04291831      -0.21951435       0.04541889
C        1.15241568      10.61925851       7.78222611       4.34216001       0.45911006      -1.47149659       4.28598452       0.50121692      -1.51842595       0.20712296      -0.02147949      -0.11160220
C        3.69932880      10.65353384       7.50987330      -4.01043859      -0.83574222      -1.02828031      -3.98686122      -0.85055277      -1.01265742      -0.17991513       0.15496181      -0.07442911
C        6.15191166      10.68763032       7.60395523      -1.28718089      -1.30973281      -0.32947144      -1.30391886      -1.29965661      -0.42973387      -0.00727264      -0.23764648      -0.03158475
C        1.18701423       0.78145310       7.36626138       0.53143957      -3.39215462      -0.88592167       0.53442039      -3.35441376      -0.74554002      -0.14098633      -0.25326184      -0.05479601
C        3.65071819       0.68929884       7.50888260       0.41097567       0.98542131      -1.52634259       0.45135626       0.95748408      -1.49582783       0.05260468      -0.17291664      -0.10994158
C        6.12537902       0.70901766       7.74183438       1.91367723      -0.24735401      -1.20412397       1.86370802      -0.20339064      -1.25964557       0.16528819       0.18463802      -0.09258250
C        8.65259198       0.72316380       7.53332527       0.75318564       0.83299397       1.24767023       0.76444283       0.82292174       1.22922730       0.04260895       0.27463145       0.09034656
C       11.08062988       0.76235898       7.47797934       2.32462179      -2.39101204       1.05496785       2.36412212      -2.32346797       0.97315877       0.31315335      -0.30224041       0.07152568
C       13.60017084       0.70223374       7.52897391      -2.57972973      -2.02339237      -0.05077929      -2.59731630      -1.93510019      -0.06476422      -0.32609773      -0.29149012      -0.00476006
C        0.02133706       2.86317512       7.44858532      -2.65811752      -0.99414815       0.76912854      -2.46887432      -0.98149577       0.71561638      -0.02984574      -0.25805285       0.05259713
C        2.43772039       2.80327859       7.39525610      -0.58156811       3.39035253      -0.03450703      -0.61194260       3.37670663      -0.00013700       0.29155685       0.47429959      -0.00000992
C        4.90617873       2.79135266       7.56260399      -1.30665520       1.66407659      -2.05274511      -1.25156043       1.62410829      -2.07793760      -0.27810135       0.27737180      -0.15272569
C        7.36638721       2.80068103       7.62391094       0.80451078       0.75008438      -0.77997371       0.81444276       0.73803973      -0.83315960       0.23675346      -0.23459999      -0.06123620
C        9.86896601       2.88626619       7.58344709      -0.44476331       0.53892945      -0.94609783      -0.43212799       0.63888196      -0.90587306      -0.38248434      -0.00723183      -0.06658067
C       12.37817052       2.81646331       7.47559768      -1.85499925       1.31228077       0.69986739      -1.86308314       1.33324945       0.62654598      -0.14060066       0.27077761       0.04605049
C       -1.18742693       4.99056917       7.48596850      -0.47428343       1.24229997       0.10964984      -0.43810545       1.29894406       0.10000888       0.02836339       0.22378034       0.00735064
C        1.20886394       4.99174331       7.53438986       0.99459758      -0.99271039      -0.48057698       0.99432864      -0.98586983      -0.48903945      -0.33229054      -0.03167521      -0.03594351
C        3.72123748       4.94681545       7.41189460      -2.14563598       1.74146448      -0.19799397      -2.05942743       1.71623430      -0.15273267      -0.01598596      -0.13089968      -0.01122528
C        6.15093436       4.93010205       7.50222492       1.27529031       2.23903979      -1.56401954       1.24575630       2.14099743      -1.45139814      -0.05855622       0.17553606      -0.10667567
C        8.62015403       4.96115921       7.43492052       0.88057764       2.52094171      -0.09617906       0.86445746       2.50801123      -0.04873781       0.33388838       0.41359060      -0.00358233
C       11.11981950       4.93910780       7.52281776       0.32278169       1.70406675      -0.71763577       0.18217448       1.64510992      -0.72675045       0.18562572      -0.01696987      -0.05341523
C       -2.50829584       7.05778493       7.44033568       2.86967329       1.94917439       0.96935886       2.82581470       1.93678735       0.97347333       0.46834270       0.27023333       0.07154905
C        0.03468965       7.09081364       7.53784796       0.03060384       1.42421503       0.29539430       0.05449384       1.43900093       0.26027137      -0.30671753       0.18115298       0.01912972
C        2.49543359       7.07621067       7.46090018      -0.80096137      -0.84094742      -0.63863683      -0.78138277      -0.81206507      -0.63391906      -0.09829315      -0.27868662      -0.04659202
C        4.92204934       7.12295851       7.28934131       1.43045176       0.94966009       0.95712375       1.37732197       0.87680466       1.00292787      -0.23706291      -0.02625388       0.07371408
C        7.30110925       7.09799502       7.33722903       6.20169314       2.78421856       1.21413302       5.69139257       2.31443638       1.24622691       0.43186032       0.37996185       0.09159606
C        9.85236979       7.06972622       7.38683864      -1.76837287       1.21878877       0.73250678      -1.78025845       1.23799823       0.76507053       0.10171076      -0.10679944       0.05623154
C       -3.75533117       9.20264131       7.36342880       3.04199942       2.65815223       1.28662013       2.95959799       2.61066353       1.33096957      -0.00515937       0.37002203       0.09782417
C       -1.28998560       9.20451911       7.61586756       3.75439580       0.72802766      -0.10399110       3.87540656       0.70016004      -0.17252563       0.54157638      -0.21284617      -0.01268042
C        1.25222223       9.15276066       7.69554578      -0.39358113       2.48307733      -0.43031345      -0.40453009       2.49271796      -0.49563208       0.21903552       0.47284018      -0.03642846
C        3.62424952       9.15705368       7.37864614       5.21094528       5.49087774       1.18277945       4.93739703       5.38953473       1.22231832       0.50211711       0.51560440       0.08983884
C        6.09899874       9.22130487       7.61106222       3.09252365       3.31230721      -0.13229123       2.95333732       3.33419138      -0.19858375       0.21598883       0.04726777      -0.01459594
C        8.55052278       9.22762455       7.48062100       2.02813760      -0.08056166       0.03369045       2.01682553      -0.08010738      -0.01525452      -0.19562206      -0.06625829      -0.00112132
C       -4.97701407      11.40894622       7.49088613       1.92742466      -2.81646456      -1.45063594       1.95363670      -2.74397174      -1.42941699       0.08638561      -0.42405633      -0.10506029
C       -2.48110403      11.34291655       7.48747433       1.95210442       1.52602814       1.19431496       2.02368030       1.51550679       1.15955442       0.15820870       0.27315868       0.08522558
C        0.01851872      11.40312226       7.76151297      -1.51737253      -0.10333572      -0.76589024      -1.47067062      -0.14509545      -0.77671752      -0.29580844      -0.05200145      -0.05708787
C        2.40792852      11.39464928       7.53554084       2.20282349      -2.71234826       1.61281290       2.21587657      -2.67629241       1.56031775       0.41369255      -0.33614410       0.11468155
C        4.87402702      11.40410235       7.46531800       2.68739364      -3.19644610       1.22732921       2.68637037      -3.09172104       1.19873663       0.14791910      -0.26093613       0.08810571
C        7.38081002      11.36611795       7.57967867       0.11533429      -0.57999922      -1.73875171       0.14599323      -0.56199107      -1.74375707       0.12260664       0.24708560      -0.12816362
72
Lattice="14.76 0.0 0.0 -7.38 12.782534959858314 0.0 0.0 0.0 15.0" Properties=species:S:1:pos:R:3:REF_forces:R:3:MLIP_forces:R:3:historical_X0_saved_forces_Ry_A:R:3 REF_energy=-11161.871035913706 MLIP_energy=-89.22565149384165 config_type=s0_sscha_overlap_006 split=frozen_overlap_screen sscha_index=6 overlap_local_index=1 selection_group=high_Aprime_amplitude lattice_temperature_K=450.0 degauss_Ry=0.0019000869 kgrid=8 sscha_random_seed=453005 historical_X0_saved_energy_Ry=9.814413777463235 corrected_X0_support_level=corrected_X0_edge pbc="T T F"
C        0.09457727       0.02605382       7.25668951       0.28878348       0.27405260       0.58628608       0.38794000       0.32904245       0.56366384       0.03440703      -0.19260978       0.04142856
C        2.40976012       0.01777533       7.50289099       5.63688297      -1.34828187      -1.23828082       5.57794026      -1.24920833      -1.22008635       0.31857137      -0.01287615      -0.08967453
C        4.89160431      -0.01307988       7.61444767       0.75248425      -1.16520621      -1.26967270       0.70861776      -1.17148859      -1.28421256      -0.16676456      -0.09724530      -0.09438792
C        7.34922439       0.03044340       7.50431086       3.53526505      -4.48219000       0.29472401       3.38468289      -4.39540087       0.30220625       0.29178813      -0.30744567       0.02221204
C        9.81796325      -0.01778426       7.24445145       1.34476794      -0.13630986       1.18899637       1.36939985      -0.15869796       1.23133517       0.11886232      -0.03049396       0.09050171
C       12.38676922      -0.02817384       7.22120308      -1.37241142       4.34829775       0.35208867      -1.36729149       4.29450317       0.33995995       0.06747218       0.44656791       0.02498645
C       -1.15049791       2.12614323       7.43455832      -1.70361141       2.81987462       0.37686227      -1.68977142       2.71423733       0.37973909       0.08785205       0.30097717       0.02791032
C        1.17329877       2.16057550       7.64050814       4.90010688       3.78875705       0.49594009       4.94384857       3.69296058       0.48148450       0.34404324       0.33761816       0.03538859
C        3.71271349       2.14470923       7.72553069      -2.74805677       0.29846060       0.33471521      -2.73558436       0.32024659       0.33712770      -0.22898117       0.00011754       0.02477839
C        6.09467093       2.06020691       7.75422968       2.06153417       1.48541140      -1.13374131       2.03415330       1.43644988      -1.12442416      -0.08455664      -0.02596273      -0.08264388
C        8.54303371       2.14669941       7.62769834       3.25096326      -1.98166851      -1.65389450       3.21779215      -1.96778664      -1.62178061       0.07241118       0.02844652      -0.11919857
C       11.08577529       2.14564470       7.40729480       1.46110008      -2.28678183       0.04248902       1.47185300      -2.24318532       0.06808281       0.19052495      -0.36900600       0.00500396
C       -2.55689295       4.31894699       7.46279849       7.20493348      -3.97482264       1.40431572       6.95036295      -3.87306184       1.35527429       0.30643550      -0.22417126       0.09961090
C        0.02859303       4.31096507       7.90097482      -1.91854972       0.17834277      -1.10306008      -1.95820860       0.18432708      -1.08973617      -0.01676300      -0.08715977      -0.08009419
C        2.40691228       4.31378378       7.91947985       5.24809386      -1.89203419       1.24223955       5.78920684      -2.17222007       1.21602636       0.69331442      -0.06943566       0.08937628
C        4.90477032       4.22215395       7.82540190       0.22434752       4.03478283       0.64420738       0.18070163       3.94047505       0.66354906       0.15183506       0.41747399       0.04876980
C        7.38737347       4.26652545       7.56975415      -3.26243578      -2.09152352       0.34379917      -3.25595487      -2.07841619       0.35061443      -0.09762279      -0.26690373       0.02576960
C        9.81549922       4.25470076       7.42282724       0.65991476      -2.07266036       0.85371012       0.69716067      -2.03198429       0.87524298      -0.21033836      -0.11745758       0.06432921
C       -3.66332516       6.39393209       7.48647910      -1.38726725       0.30447209      -0.69597500      -1.40391536       0.29353555      -0.68745016      -0.24767926       0.01505082      -0.05052648
C       -1.21742198       6.42447612       7.65996041      -1.40656929      -1.67704266      -0.56595251      -1.36021293      -1.68480451      -0.59043449      -0.28608938      -0.25203622      -0.04339618
C        1.12728715       6.40996506       7.80531083       2.83921548       0.37856897       0.52772072       2.83387608       0.43498494       0.49596771       0.23903952       0.03538196       0.03645308
C        3.62586829       6.39755996       7.74807001       0.88706941       1.53709829      -0.15533088       0.87901100       1.58578253      -0.16272846       0.04576934       0.28706495      -0.01196020
C        6.17354895       6.37079932       7.51070222      -3.22633569      -0.95380934       0.43236982      -3.20878542      -0.91857598       0.42283887       0.04231551      -0.14391126       0.03107790
C        8.65244267       6.37730083       7.43257769      -3.28972110      -1.70697621       0.34754013      -3.24594072      -1.70263455       0.36965925      -0.28035713      -0.09351177       0.02716945
C       -4.86626264       8.49434834       7.40531955      -2.06210778       2.14767538      -0.74451177      -2.09147472       2.08992335      -0.68645696       0.01711039      -0.02752835      -0.05045345
C       -2.39934866       8.47269214       7.60735598      -5.21874138       1.92538037      -0.63093149      -5.12069725       2.01130395      -0.68899772      -0.13267911       0.22753377      -0.05064027
C       -0.05307245       8.62645617       7.58278371      -0.21049699      -5.62830526       0.05831699      -0.22020913      -5.67417518       0.06056411      -0.17284632      -0.27339640       0.00445139
C        2.41029040       8.53585107       7.42383210       1.30590289      -1.67472533       0.70040424       1.31777572      -1.59668134       0.74051951       0.11464926      -0.29059397       0.05442678
C        4.89984142       8.48140748       7.12139724       1.07574339      -0.06619871       2.22817636       1.11200277      -0.06078740       2.22147236      -0.23548475      -0.10089682       0.16327494
C        7.41016786       8.47909541       7.21403091      -1.64602770      -0.32707363       0.29137952      -1.64301289      -0.29133335       0.30893869      -0.15268085       0.07710527       0.02270651
C       -6.17095929      10.58329157       7.22123543       1.85706051       2.72660528      -0.13328599       1.84610499       2.68305358      -0.11468014       0.12217414       0.40798106      -0.00842902
C       -3.66889564      10.63891996       7.41350804      -0.23250126      -0.07054541       0.26048283      -0.23903495      -0.07604690       0.29358703      -0.02241291      -0.01017659       0.02157814
C       -1.17947867      10.68429686       7.54100577      -5.36090693      -1.97050709       0.19721852      -5.26638060      -1.89698912       0.16669969      -0.24180608      -0.30544723       0.01225225
C        1.16906675      10.61550700       7.34400295       2.95110321       0.98043877       0.98111188       2.92165463       1.02973834       0.96292897       0.21780681       0.01370027       0.07077364
C        3.75384329      10.64066422       7.27060002      -1.41982821       0.93710951      -0.95712683      -1.43921745       0.96433255      -0.93103517      -0.06752702       0.19097655      -0.06843001
C        6.19621529      10.66743372       7.04893293      -0.80076391      -1.35439595       1.28641316      -0.79662755      -1.34931566       1.25315434      -0.03949555      -0.13417242       0.09210529
C        1.35820555       0.83988906       7.42845223      -6.60104383      -4.43719569      -0.51581369      -6.73932669      -4.50070418      -0.44570125      -0.55911667      -0.36026025      -0.03275860
C        3.69623336       0.72405141       7.51921041      -0.82132682      -0.12248324       1.64760430      -0.84202849      -0.14918724       1.60316348      -0.12119045      -0.15708013       0.11783027
C        6.16765752       0.58412507       7.63169399      -4.31656211       6.59796416       0.94012079      -4.12249830       6.58265430       0.86392546      -0.34148804       0.58012769       0.06349732
C        8.59041369       0.67534596       7.48734397       0.05512419       2.54198568      -0.22053200       0.00428999       2.49346531      -0.25839219      -0.08264904       0.37391224      -0.01899185
C       11.09118553       0.68997265       7.28785859       0.28028624       0.32150771       0.00523939       0.30779970       0.32055418       0.00900950       0.12269336      -0.01074878       0.00066216
C       13.64443661       0.72316563       7.32049846      -1.41810146      -0.70188751      -0.65720276      -1.37105280      -0.64768830      -0.62935941      -0.10028221      -0.20083032      -0.04625712
C        0.02397452       2.94072700       7.62420700      -1.22954807      -2.68435434       0.32885386      -1.12003077      -2.72275691       0.32666150       0.01731277      -0.29706493       0.02400926
C        2.45473090       2.89142070       7.82100531      -0.62564247      -1.35324127      -0.59857261      -0.60517789      -1.38708294      -0.62863958       0.27041710       0.02875253      -0.04620411
C        4.90675787       2.86199838       7.84391339       0.66431186      -3.48613255      -0.60274577       0.59423906      -3.39244708      -0.60165859      -0.01401821      -0.10614985      -0.04422082
C        7.33028962       2.84534885       7.56767016      -0.48737909      -1.63142023       1.62472997      -0.46755784      -1.63882732       1.56373158       0.08829273      -0.32157266       0.11493243
C        9.87162507       2.80795455       7.51606851      -2.96947888       1.66545213      -0.27936167      -2.92218316       1.70757728      -0.27399530      -0.53128443       0.09073904      -0.02013833
C       12.34726677       2.84588006       7.45787147      -1.39987285       0.36938165      -0.56103811      -1.42803188       0.37456398      -0.51552603      -0.22462657       0.18456912      -0.03789057
C       -1.26235331       4.99265074       7.71631523       0.62341204       0.44592725      -0.28889172       0.65505738       0.43504897      -0.29607836       0.06778693       0.06238764      -0.02176114
C        1.28652974       5.00693400       8.01198793      -6.38159220       1.56411467      -0.99284280      -6.97503956       1.86059826      -1.01252986      -0.79560384       0.17268247      -0.07441984
C        3.67793503       5.02339673       7.99958153       0.00179669      -1.89119833      -1.85242018       0.01441776      -1.93645895      -1.81832129       0.10227936      -0.30665816      -0.13364446
C        6.14285695       4.93514900       7.66469525      -0.16718830       1.12486123      -0.10405820      -0.16039012       1.14517613      -0.12410999      -0.06148369       0.11456132      -0.00912173
C        8.57690843       4.89023386       7.51435229       3.08624811       4.39313367      -0.84803930       3.05352299       4.38616170      -0.84374729       0.45156592       0.44436107      -0.06201415
C       11.05036895       4.96043035       7.43932691      -2.98583496       2.88108899      -0.19989890      -2.84333664       2.72181646      -0.20813359      -0.10690687       0.17176697      -0.01529774
C       -2.43311765       7.11084735       7.48847626      -0.73333699      -1.93851357       1.16666171      -0.71015547      -1.90859545       1.15495722       0.16577804      -0.13282785       0.08488772
C       -0.03710024       7.13294072       7.63425076      -0.45720771       1.65692532       0.87189862      -0.38730387       1.63113765       0.80992952      -0.22921913       0.18517944       0.05952870
C        2.33028431       7.11536262       7.70889008       3.61170986       0.78568747      -0.90139714       3.68389612       0.78636329      -0.89730645       0.17815830      -0.08309012      -0.06595093
C        4.89873619       7.09342528       7.45508219      -0.39528577      -0.72432064      -0.04416795      -0.44079842      -0.77840801      -0.01629922      -0.31214901      -0.09462875      -0.00119768
C        7.36129496       7.04654939       7.42726299       3.10072084       1.55913058      -0.97034667       3.05688790       1.51171469      -0.95035641       0.19079556       0.22208995      -0.06984988
C        9.82265441       7.10998522       7.40598760       2.90666555      -1.58980950       0.59995484       2.90011497      -1.55843940       0.61183032       0.39505167      -0.20515639       0.04496870
C       -3.66195409       9.21682094       7.54365725       0.21777681      -0.68470303      -0.88338091       0.25604637      -0.68265741      -0.90834203      -0.07329467       0.10273039      -0.06676197
C       -1.30966625       9.22853007       7.59468194       5.32374420       3.28985119      -0.14376580       5.22242825       3.21881444      -0.17219552       0.60209632       0.07316150      -0.01265623
C        1.18595782       9.18850561       7.47121747       0.35283274       3.89289084      -0.68083686       0.36018338       3.87050613      -0.68661536       0.22244659       0.46750494      -0.05046479
C        3.70822096       9.22497226       7.28238434      -1.40844491      -0.30132249      -0.44646975      -1.45127283      -0.34241710      -0.43564501      -0.04316762      -0.00726753      -0.03201902
C        6.16698234       9.18921193       7.17168398       0.01225953       1.20066764      -1.49703973       0.04324001       1.21486034      -1.51719766      -0.07358428      -0.00915319      -0.11151203
C        8.61423491       9.21179423       7.16806476       1.45699454      -2.05179560       1.31984778       1.39297932      -1.99274549       1.34547124      -0.13341695      -0.21568367       0.09889014
C       -4.91656477      11.32275368       7.32230369      -1.11143159       1.12951056       0.70635274      -1.12731412       1.11136258       0.73030678      -0.20058200      -0.03798512       0.05367674
C       -2.44336195      11.36968379       7.45898923      -0.40168550      -0.33708911       0.96380116      -0.40663239      -0.33220422       0.94096247      -0.05674657       0.03354881       0.06915961
C       -0.02083807      11.35723303       7.54613559       2.70008795       1.02977515      -1.49533072       2.63990262       0.95186940      -1.44163370       0.13862199       0.01563408      -0.10595829
C        2.47720893      11.32276501       7.26270620      -1.16461023       0.05470742       0.10487118      -1.11435538       0.04015052       0.12546474       0.12003312      -0.04209721       0.00922169
C        4.98575754      11.41671494       7.14453229      -0.65686595      -4.31643895      -0.09276437      -0.67582292      -4.26755243      -0.08176129       0.01431470      -0.34022165      -0.00600934
C        7.40129208      11.36406179       7.18948587       1.11952799       0.44307307      -0.59276243       1.14353686       0.46167095      -0.58048212       0.12086825       0.25121005      -0.04266460
72
Lattice="14.76 0.0 0.0 -7.38 12.782534959858314 0.0 0.0 0.0 15.0" Properties=species:S:1:pos:R:3:REF_forces:R:3:MLIP_forces:R:3:historical_X0_saved_forces_Ry_A:R:3 REF_energy=-11162.985558685616 MLIP_energy=-90.34466830376431 config_type=s0_sscha_overlap_203 split=frozen_overlap_screen sscha_index=203 overlap_local_index=4 selection_group=high_Aprime_amplitude lattice_temperature_K=450.0 degauss_Ry=0.0019000869 kgrid=8 sscha_random_seed=453005 historical_X0_saved_energy_Ry=3.593171020585997 corrected_X0_support_level=corrected_X0_core pbc="T T F"
C        0.01448446       0.00983969       7.45687167      -0.49267787      -1.05518562       0.59932055      -0.47979058      -1.04980328       0.59493248      -0.10432973      -0.36443478       0.04372642
C        2.45604579      -0.00906369       7.45509789      -1.02443034      -1.12460592      -0.02457795      -0.99499160      -1.08088249       0.01672067      -0.04956335       0.00754328       0.00122858
C        4.87381588      -0.00378096       7.48479850       2.27859287       0.77535164      -0.65519988       2.30092842       0.71547379      -0.62561319      -0.09855629       0.13513736      -0.04598147
C        7.27716799       0.01714338       7.64793797       3.38540161       0.43995920      -0.34576787       3.34220921       0.39666062      -0.37690941       0.42015576       0.03123223      -0.02770259
C        9.80560629      -0.00622033       7.63035269       1.32426957      -0.44367933      -1.07307947       1.30877976      -0.37719542      -1.09038550       0.07731087      -0.15098130      -0.08014198
C       12.31083829       0.03522536       7.58920707      -0.01256138      -3.08636740      -0.65738686      -0.02327140      -3.08418137      -0.68883836       0.10452751       0.00859382      -0.05062872
C       -1.20439024       2.10066185       7.37442168      -2.61456457       0.21038129       1.68049565      -2.61827704       0.22289188       1.69800332       0.13044942       0.10984686       0.12480070
C        1.13157385       2.14664375       7.36504460       1.39219297       0.21585697       0.04505164       1.39588847       0.24453626       0.08847623       0.00890802       0.18482676       0.00650271
C        3.62701405       2.17072952       7.42585840       1.24380509      -2.56475742       0.13719612       1.23027982      -2.48652654       0.15125460      -0.01506643      -0.30822494       0.01111736
C        6.08134694       2.14196120       7.59674958       0.89394274       0.69156736       0.31174960       0.87746967       0.69954113       0.29676083      -0.22437330      -0.18690704       0.02181195
C        8.54776220       2.10818700       7.54107705       0.01982295       0.92816644       0.31311126       0.04861496       0.94071294       0.29761597      -0.19977921       0.34361131       0.02187473
C       11.04944755       2.18574431       7.47440660      -0.85568010      -3.94701925       0.90753874      -0.88395081      -4.00048448       0.87560260       0.14944681      -0.52356232       0.06435592
C       -2.40143522       4.25568191       7.53689499       1.54914982      -2.53750424       0.31223734       1.55709274      -2.59457037       0.30025490      -0.14084082      -0.02339979       0.02206809
C        0.03191188       4.25484876       7.45732691       1.78456902       1.17634757      -0.64267320       1.66214420       1.11921378      -0.63247636       0.19960867      -0.11869081      -0.04648629
C        2.45335199       4.19566394       7.27589529      -0.13108487       3.40683922       1.16887492      -0.12328477       3.45315064       1.20676178       0.31677729       0.39700999       0.08869504
C        4.92307887       4.31139973       7.58222448      -2.14665748      -1.78547688      -0.17887370      -2.17231509      -1.78929080      -0.19296423      -0.07238150       0.07453911      -0.01418280
C        7.31895699       4.28875665       7.56320880       2.56788594      -1.95766726      -0.45946848       2.56007845      -1.93375510      -0.44856772       0.43902567      -0.26549447      -0.03296943
C        9.92548801       4.25484387       7.40373418      -3.21638732       1.12681167       1.77199993      -3.24104461       1.15434866       1.79652241      -0.54101920      -0.00319385       0.13204188
C       -3.60442397       6.48061569       7.58797484      -2.72507187      -4.22927212       0.48034378      -2.65989868      -4.25664924       0.50406059      -0.41155384      -0.20818118       0.03704783
C       -1.21808509       6.38892744       7.56514748       4.21006521      -2.92431103      -1.76257683       4.11574216      -2.82241213      -1.76618600       0.07247008      -0.44310483      -0.12981229
C        1.19877169       6.36850667       7.25711458       2.21930117       1.20938548       0.95171775       2.17618714       1.22257411       0.98109150       0.29120820       0.10347048       0.07210867
C        3.72873847       6.36274487       7.52272946      -1.86677285       2.78090055      -1.14691976      -1.87843810       2.78106440      -1.16596741      -0.19268346       0.46670641      -0.08569708
C        6.15632726       6.39757674       7.60861030       0.98681305       2.03114013      -0.84990797       0.96297014       2.02170939      -0.84653454       0.47135202       0.06827395      -0.06221948
C        8.60918054       6.36903166       7.64855072       0.07182274       0.47520414      -0.40007188       0.06600227       0.47643319      -0.37767247      -0.07802950      -0.03396813      -0.02775890
C       -4.86684364       8.53302816       7.65085586      -1.60740022      -0.24540717      -0.65847752      -1.58513290      -0.18295940      -0.63397175      -0.06156922      -0.20939094      -0.04659589
C       -2.41530452       8.47609396       7.39846361      -0.61277230       2.51267716       0.07228811      -0.60025159       2.47204553       0.04447737       0.23446975       0.27975580       0.00326893
C       -0.04045724       8.52079555       7.34301792       3.58495059       0.50230331      -0.52154776       3.53209820       0.50958994      -0.50487135       0.04831842       0.26912752      -0.03710710
C        2.46542978       8.52543704       7.37568299      -0.44709581      -1.67089027      -0.08326569      -0.42343396      -1.65573067      -0.06395556       0.11559209      -0.30905890      -0.00470061
C        4.91872563       8.51303243       7.53473766       1.84124848       1.89973105       1.27960950       1.84559447       1.89006955       1.30110604      -0.20231255      -0.05593492       0.09562944
C        7.43014063       8.53150998       7.70989302      -2.50279769      -0.17073848      -0.41289706      -2.51163348      -0.16242021      -0.42681304      -0.27033758       0.17535442      -0.03136993
C       -6.15759085      10.58738154       7.67476938       0.51103246       2.91327585      -1.03732983       0.59318518       2.86987994      -1.07687557       0.16764811       0.41691598      -0.07914889
C       -3.58609993      10.69700195       7.46441832      -6.46750819      -4.53061261      -0.73485239      -6.39473045      -4.43412327      -0.78186955      -0.51642682      -0.23275295      -0.05746641
C       -1.24485921      10.68392032       7.28961123       1.97685849      -0.91986126       1.19943402       1.95774465      -0.86840864       1.19343776       0.21623407      -0.25411635       0.08771614
C        1.24457359      10.64042052       7.41315973      -1.36151225       1.52417438      -0.47648584      -1.36789111       1.53274655      -0.46514816      -0.16480663      -0.05420415      -0.03418747
C        3.65158711      10.63230498       7.50858918       3.91504501      -0.65285040       0.98551335       3.86752314      -0.65155888       0.96299699       0.24422319       0.17045967       0.07077908
C        6.20584089      10.66004623       7.59516697      -4.35339393      -0.18056549       0.65815716      -4.39219352      -0.20585506       0.63567713      -0.18481332      -0.07185581       0.04672143
C        1.21881846       0.75056208       7.46846903      -0.09326882      -1.58287858      -0.65521710      -0.08616156      -1.58832699      -0.63054197      -0.13921653      -0.03816883      -0.04634366
C        3.67506436       0.66536556       7.40114183      -0.91230505       3.18074977       0.66347728      -0.97763280       3.15453834       0.66149657      -0.20618339      -0.01227314       0.04861908
C        6.12028164       0.75439237       7.60366890      -3.01071012      -1.70734620      -0.34854414      -2.97701916      -1.69156258      -0.37293831      -0.14487386      -0.03288550      -0.02741072
C        8.54800451       0.68388409       7.66916483       0.77826341       1.12069707      -0.46800274       0.78354673       1.10526767      -0.48442753      -0.07416814       0.31875229      -0.03560495
C       11.08773357       0.69201120       7.54412319      -2.78155130       2.28815789       0.37073482      -2.71279458       2.30546437       0.36015639       0.03921588       0.13514268       0.02647097
C       13.54746979       0.66953216       7.45176965       0.47631537       2.40195645      -0.21845429       0.43614627       2.37315625      -0.16574513      -0.02097139      -0.06273314      -0.01218177
C       -0.08029218       2.91822863       7.43193270       2.86094979      -5.39529312      -0.77050974       2.86914657      -5.25245482      -0.69907448       0.25629826      -0.57240823      -0.05138076
C        2.38247499       2.80915634       7.28587532       1.10324545       0.23668419       0.69325554       1.14819109       0.22542714       0.73258764       0.48848274       0.14660521       0.05384423
C        4.88044406       2.86507325       7.60246293      -1.38105058       0.77744349      -1.00228569      -1.42511806       0.80699919      -1.05833256      -0.24607146       0.32325256      -0.07778631
C        7.30919277       2.84149143       7.55115097       0.64359083       0.48266574       0.23342557       0.63648864       0.48725392       0.25954235       0.27315367      -0.16415423       0.01907577
C        9.77492496       2.85913163       7.46587622       2.28973320      -0.92746119      -0.25294359       2.33648328      -0.94565604      -0.22725061      -0.19757323      -0.19662704      -0.01670286
C       12.30203561       2.76070513       7.57026779       0.58873609       3.65464265      -1.73319735       0.57529794       3.69594959      -1.72241393      -0.07435124       0.42397342      -0.12659513
C       -1.12028950       4.90210795       7.46643250      -5.47973406       4.68372669       1.39525695      -5.29028077       4.51722290       1.31669679      -0.27774537       0.37556541       0.09677566
C        1.25828227       4.96199162       7.34440785      -0.56446642      -0.38406779      -0.49775580      -0.60055246      -0.40830512      -0.47683501      -0.38241039       0.10929106      -0.03504636
C        3.64689876       4.98503651       7.48957100       2.00559673      -2.36929419      -0.46242807       2.01355233      -2.41858670      -0.47556259       0.19416785      -0.43472028      -0.03495296
C        6.13052492       4.99837961       7.57483843      -0.04308346       0.47215327       0.50951577      -0.03368638       0.47203036       0.51229094      -0.08264919      -0.05148276       0.03765309
C        8.59772471       4.94086897       7.51847530       1.38641930       1.16805268       0.09556302       1.40830580       1.13204697       0.11935376       0.26727574       0.30792554       0.00877282
C       11.17859328       4.95807900       7.59817921      -2.38649924       2.49360677      -1.21260398      -2.33480598       2.56338480      -1.23442987       0.03879402       0.15720847      -0.09072886
C       -2.35023563       7.08511235       7.49593718      -4.46118717       1.64647250       0.56087304      -4.47811777       1.60436252       0.56932661      -0.03342808       0.13708588       0.04184476
C       -0.02272008       7.12295236       7.35153312       0.64339877      -1.65279253       0.53602564       0.65735102      -1.67034776       0.50572413      -0.27832030       0.02718826       0.03716989
C        2.48545442       7.08389293       7.35067596      -1.09903450      -0.07018983       0.00603232      -1.03983037      -0.08850063       0.00869677      -0.23788416      -0.24893164       0.00063948
C        4.96444716       7.14295428       7.50811403      -1.18164045      -3.09601855       0.85468200      -1.15247093      -3.12155590       0.86699492      -0.35431908      -0.39844292       0.06372294
C        7.40018491       7.13881543       7.60170010      -0.43067958      -2.44773932       0.97156666      -0.44372910      -2.45459375       0.96144122      -0.00716586       0.03142731       0.07066487
C        9.82181327       7.11595723       7.69546513       3.56158903      -0.69896725      -0.86406447       3.55665208      -0.70728488      -0.92281842       0.55901777      -0.12712450      -0.06782600
C       -3.67568034       9.22452187       7.38676627       2.38592537       0.05369389       1.46987911       2.34895194       0.01589942       1.48666883       0.03328124       0.26992058       0.10926825
C       -1.20862291       9.21909245       7.40402410      -1.97318746       2.15199818      -1.17748889      -1.95055106       2.10832540      -1.14880362       0.00684051      -0.10451867      -0.08443569
C        1.24079373       9.24961167       7.24483075      -1.21085923      -0.97137254       1.31448138      -1.19678881      -0.92497398       1.32112480       0.21035566       0.13059540       0.09710067
C        3.68033444       9.16630477       7.59836405      -0.07698963       3.02893359      -1.76567476      -0.09470758       3.01350278      -1.76289430      -0.02231105       0.34216429      -0.12957055
C        6.18396199       9.26774279       7.68767104      -0.30453766      -2.24987596      -0.89379388      -0.30891839      -2.19708992      -0.92450120       0.01230657      -0.27314299      -0.06794960
C        8.63206447       9.20209280       7.68556378       1.13240871       0.98036189       0.44368242       1.16262362       0.99429831       0.40640080      -0.19511126      -0.10897298       0.02986947
C       -4.89512138      11.29732559       7.53152549      -0.60869376       2.30443657       0.30581781      -0.61547011       2.25868850       0.30645480      -0.21589331      -0.03609520       0.02252427
C       -2.46794099      11.37191414       7.30902785       3.24858087       2.06609068       0.83835241       3.17384525       2.00046029       0.92302163       0.33880563       0.20958104       0.06784073
C       -0.01443737      11.43093674       7.47118598      -0.76847162      -3.71003990      -0.67099956      -0.78027514      -3.70809778      -0.64598077      -0.17315750      -0.20794334      -0.04747832
C        2.47671042      11.33602340       7.44778882      -1.73876996       1.57050746       1.21774285      -1.70641460       1.48650634       1.13764125       0.19328133       0.04871591       0.08361496
C        4.94499367      11.36104608       7.60768873      -1.73045399      -0.00657354      -0.52895331      -1.73442409       0.03165263      -0.53420088      -0.14151944      -0.11795092      -0.03926302
C        7.32839659      11.38218267       7.57472841       5.81402041      -0.28642295       0.28927405       5.78316265      -0.26093392       0.25099796       0.41476414       0.26923355       0.01844806
