72
Lattice="14.76 0.0 0.0 -7.38 12.782534959858314 0.0 0.0 0.0 15.0" Properties=species:S:1:pos:R:3:MLIP_forces:R:3 config_type=s0_sscha_overlap_094 split=frozen_overlap_screen sscha_index=94 overlap_local_index=0 selection_group=typical lattice_temperature_K=450.0 degauss_Ry=0.0019000869380739254 sscha_random_seed=453005 MLIP_energy=8.197445232290695 pbc="T T F"
C        0.02732167       0.08399910       7.25731887      -0.12221335      -0.33844522       0.00179012
C        2.43521821       0.07568281       7.40026617       0.06969370      -0.28133650       0.09107345
C       -2.41841795      12.74648111       7.67723634      -0.37366164       0.11349028      -0.04499427
C        0.04743340      12.76413692       7.58001055      -0.06296805      -0.06646313      -0.07441243
C        2.53143271      12.71282960       7.42920426      -0.06450551       0.04534918      -0.11253469
C       12.32207043       0.03316884       7.29008882       0.47232344      -0.02807566      -0.10956132
C       -1.20325504       2.23349331       7.33641776       0.01667836       0.00525222      -0.04349795
C        1.22213197       2.12081137       7.41380138       0.16350138       0.30153509      -0.04646150
C        3.68861194       2.09863285       7.49693561       0.03902620       0.04744243       0.04106594
C        6.17238638       2.08843090       7.55980879      -0.35818381       0.20851337       0.08643426
C        8.55757705       2.13084218       7.33775072       0.06933578      -0.01672999       0.17648818
C       11.04313948       2.08760772       7.33405835       0.00322206      -0.13701582       0.11333102
C       12.23617663       4.29903474       7.45546517      -0.37144989      -0.05191556       0.04010293
C       -0.00669091       4.28947359       7.48502067       0.14880811      -0.09705721      -0.10530376
C        2.51693258       4.28063944       7.60715897      -0.06257237      -0.06911651      -0.09528120
C        4.94840740       4.26134146       7.52036239      -0.04612955       0.00531008       0.07763045
C        7.35617653       4.24274950       7.53532704       0.16665381       0.13381514       0.07980161
C        9.78372654       4.21817221       7.63621903      -0.20522951       0.20230769       0.01112104
C       -3.67471867       6.41587357       7.62583526      -0.39009573      -0.02078384       0.05777502
C       -1.22225846       6.38368199       7.53853608      -0.35126238      -0.13774740      -0.03526721
C        1.17741493       6.32804612       7.55638439       0.24497445       0.11071535      -0.04399735
C        3.67324636       6.38083933       7.60775016      -0.02311605       0.40326588      -0.04797567
C        6.09363381       6.34206122       7.70762054       0.30389488       0.38275185      -0.03435745
C        8.54319863       6.39519646       7.82774840       0.13135739       0.12370452      -0.08944372
C        9.82037841       8.55535375       7.63009324       0.22880458      -0.10698569       0.03568778
C       -2.45895460       8.55064755       7.59011245       0.36625336      -0.00807943       0.02923408
C       -0.00221445       8.48706060       7.38834312       0.04477114      -0.03759315       0.09971605
C        2.44172771       8.51451376       7.41049013       0.27629457      -0.29159329       0.03426304
C        4.91365348       8.54131663       7.57874663      -0.18727889       0.02678237      -0.01240595
C        7.35601989       8.54310122       7.62886858      -0.02444477      -0.05907742       0.05985318
C        8.58829500      10.63021169       7.43742293       0.02575726       0.29886769       0.02973498
C       -3.65434612      10.69382882       7.55917094      -0.06723695      -0.33158925       0.01210047
C       -1.17719691      10.65732851       7.53576725      -0.00625819      -0.22204941      -0.03348446
C        1.21664077      10.56505943       7.33232346       0.20504814       0.19082835       0.01427118
C        3.76314417      10.60857987       7.22147720       0.02845629       0.26178072       0.05860402
C        6.16093902      10.67847413       7.39984600       0.03355366      -0.21132215       0.03228653
C        1.24154932       0.75390731       7.36679503      -0.08979413      -0.13262645      -0.03634273
C        3.67400767       0.74832345       7.57589711       0.04992310      -0.40873290      -0.03765501
C        6.14820125       0.76114486       7.71055291       0.09408803      -0.33410261      -0.07582615
C        8.66274051       0.62314478       7.40384567      -0.13865852       0.27130591       0.03515313
C       11.12543112       0.64083653       7.30166863      -0.15062302       0.16259644       0.03814166
C       13.56484833       0.80725818       7.17747319      -0.08326211      -0.08495150       0.10804740
C        0.04626720       2.89761763       7.33541982       0.02621711      -0.07331227       0.08098151
C        2.50972123       2.84589552       7.43136118       0.06173387       0.14363842       0.06873429
C        4.87470938       2.76882578       7.60275237       0.26425297       0.34734199      -0.07923620
C        7.39179630       2.87301086       7.57346905      -0.07979652      -0.40736345      -0.12529216
C        9.79455404       2.79376950       7.54765360      -0.23993808       0.01570308      -0.15005863
C       12.22487133       2.86715118       7.45099838       0.09049554       0.10568437      -0.08964399
C       -1.33282389       4.98148534       7.38034832       0.24971679       0.03438016       0.11518764
C        1.26475756       4.95593270       7.50477646      -0.38185755      -0.09885325       0.07675867
C        3.63853415       5.01508507       7.62122314       0.51376767      -0.26692024      -0.02505375
C        6.14517646       5.01617053       7.57656211      -0.06037933      -0.31430994      -0.00945401
C        8.59702880       4.99605636       7.66648152       0.09320155      -0.06202832       0.01166690
C       10.94442362       5.01044757       7.61503032       0.37161583      -0.14235731      -0.04422762
C       -2.47311421       7.13692837       7.63209309       0.25246715      -0.03199397      -0.05744834
C        0.00971018       6.98974688       7.49455936      -0.30712135       0.34825269      -0.01635651
C        2.41267802       7.09832027       7.52183240       0.01071846      -0.15323174       0.02043989
C        4.92815909       7.17705595       7.58168351      -0.31614804      -0.41158930       0.07132406
C        7.32886513       7.09778152       7.76150611      -0.03747192       0.16446496      -0.00408205
C        9.78973320       7.10878392       7.72577354       0.21687982       0.00160217      -0.00739356
C       -3.62264874       9.24305349       7.64046361      -0.33330710       0.16938594      -0.04638967
C       -1.16600643       9.23375435       7.51727049       0.09471216      -0.14923189      -0.02182502
C        1.29683665       9.18761526       7.42482803      -0.21997483       0.20201510      -0.08203045
C        3.73034372       9.24281761       7.39538793      -0.10461447      -0.05811264      -0.01501486
C        6.14847670       9.23804902       7.63902872      -0.12080870      -0.00199200      -0.10314234
C        8.58472866       9.24804524       7.55811474      -0.20540616      -0.07924981       0.01233739
C       -4.87796622      11.27601174       7.49125008      -0.32679403       0.35604213      -0.05896557
C       -2.47824746      11.35047808       7.55299647       0.25286724       0.17594309       0.06138104
C        0.02090296      11.30239395       7.40023681      -0.00389494       0.09262844       0.09856496
C        2.49635646      11.31701627       7.29780246       0.12275361      -0.14252512       0.01501740
C        5.02505331      11.37128461       7.23201383      -0.28588825       0.11790515       0.03302968
C        7.33136261      11.37482155       7.36186233       0.39852626       0.29585907      -0.01471334
72
Lattice="14.76 0.0 0.0 -7.38 12.782534959858314 0.0 0.0 0.0 15.0" Properties=species:S:1:pos:R:3:MLIP_forces:R:3 config_type=s0_sscha_overlap_065 split=frozen_overlap_screen sscha_index=65 overlap_local_index=1 selection_group=typical lattice_temperature_K=450.0 degauss_Ry=0.0019000869380739254 sscha_random_seed=453005 MLIP_energy=0.7478449074156421 pbc="T T F"
C       -7.36641562      12.76172851       7.58997408       0.03163754      -0.25996362      -0.05359888
C       -4.98867169      12.77993338       7.48098387       0.38726068       0.21728129       0.05689826
C        4.91774170       0.07612333       7.23886382      -0.26448107       0.11497755       0.20296054
C        7.37462041       0.05535273       7.42747147       0.46905088      -0.32328354      -0.07259963
C        2.41066468      12.76465379       7.44007730      -0.09641822       0.04482899      -0.01391243
C       12.27971636       0.03770182       7.51976333       0.19180582       0.05259954      -0.02162544
C       13.47598467       2.06861573       7.41527313       0.37202882       0.40291016      -0.02242469
C        1.11291734       2.14945790       7.38913334       0.40430365       0.03280705       0.08564580
C        3.61173618       2.14806486       7.55618839       0.19673881      -0.20587550       0.01151379
C        6.22838636       2.09607499       7.58360250      -0.64428185      -0.00801784      -0.00772616
C        8.62448815       2.20033563       7.57869076      -0.22563299       0.14831782      -0.00591322
C       11.00326739       2.13697599       7.51569515       0.35490293      -0.31839622      -0.03923689
C       -2.44151930       4.27153900       7.32971272      -0.45003811       0.05401078       0.04202304
C       -0.05020662       4.28649968       7.40494451       0.28457890      -0.49488546       0.06700417
C        2.41926688       4.32914209       7.54510458       0.69816725      -0.13445644       0.06677185
C        4.88210880       4.22244186       7.72306757       0.22531962       0.25142424      -0.04316573
C        7.40289995       4.28964321       7.66751626       0.27485908      -0.30653687      -0.00975886
C        9.86678528       4.29488433       7.62707764      -0.22678965      -0.10088630      -0.06397378
C       -3.70405646       6.43153744       7.39995621      -0.01170124       0.11814016      -0.03810401
C       -1.16033580       6.37324781       7.39547269      -0.59361012      -0.22767905      -0.09084451
C        1.21496964       6.34296513       7.52223034       0.19583390       0.21951148       0.02728973
C        3.70501025       6.35640871       7.80743135      -0.12407802       0.45461878      -0.04827065
C        6.10720804       6.34121615       7.71906746       0.52432313      -0.26872690       0.06367108
C        8.63359443       6.37998915       7.55320289      -0.17617059       0.01297521       0.06733020
C       -4.93621150       8.59672212       7.49786007       0.52929085      -0.48952271       0.01470276
C       -2.43501602       8.58219342       7.30506552       0.34032130       0.01756483      -0.00641453
C        0.01897268       8.50699604       7.23331980      -0.43047533       0.17568933       0.05523167
C        2.45358857       8.50836887       7.41454833       0.11120263      -0.43678273       0.01632185
C        5.00345165       8.41880627       7.79112238      -0.78627995      -0.01409579      -0.08402602
C        7.35361020       8.45846785       7.65132135       0.18011705       0.24488694       0.05957912
C        8.60839846      10.60418502       7.51857193       0.01236998       0.43129352       0.05073002
C       -3.67537008      10.78388600       7.40758641      -0.13230679      -0.22851748      -0.01218386
C       -1.22610427      10.64642503       7.21181157       0.38239640      -0.08803314       0.00775127
C        1.25847679      10.64274337       7.29561217      -0.30557740      -0.17012878      -0.05432386
C        3.71243417      10.65058269       7.37583314       0.03152391       0.05174084       0.04856389
C        6.15453468      10.63196853       7.78088958       0.14902191      -0.18453178      -0.11921687
C        1.27960129       0.70769133       7.52179402      -0.64780087       0.18336791      -0.03737157
C        3.66988321       0.75710879       7.59644923       0.02321893      -0.49156918      -0.20206586
C        6.24840483       0.72731330       7.46049737      -0.35429416       0.26023918      -0.06930021
C        8.59701671       0.79515709       7.45397546       0.01132482       0.07696485       0.03439755
C       11.03730061       0.73416862       7.50598886       0.05065996      -0.26089784      -0.01830570
C       13.51810478       0.68062075       7.47801861      -0.14300911      -0.21513514       0.05596512
C       -0.04623924       2.81964039       7.41122119      -0.07715830      -0.11143198      -0.02604754
C        2.46562753       2.87163073       7.47960620       0.01747559       0.30408545      -0.01607842
C        4.84865363       2.80439480       7.56347360       0.06958287       0.25398433       0.06673116
C        7.39558369       2.85287742       7.62837145       0.24097298      -0.16208183       0.01400778
C        9.82386963       2.83621144       7.59551032      -0.27024399       0.14821019       0.00457845
C       12.27314749       2.82322625       7.36283600      -0.09328297       0.26106530       0.05806152
C       -1.22333033       4.94979655       7.37163244       0.08202074       0.24284638      -0.00389155
C        1.27096305       4.92858598       7.59490366      -0.92823545       0.31066165      -0.10414656
C        3.68522816       4.98846438       7.75872233       0.04699582      -0.43229068      -0.04812441
C        6.12799319       4.92788403       7.69827298      -0.13968912      -0.00946276       0.01504163
C        8.65947360       4.95532436       7.62052659       0.13957193       0.41117716       0.00216631
C       11.11730377       5.05270927       7.45398046       0.12659829      -0.40025906       0.01056911
C       -2.44889402       7.16263087       7.23302970       0.39948776      -0.01773731       0.12083625
C       -0.02860590       7.06251781       7.39751703      -0.02453784       0.25500749      -0.01581902
C        2.45320283       7.07105917       7.57349524      -0.08323945      -0.26640358       0.02505076
C        4.93797718       7.04222813       7.84741010      -0.44055235      -0.13780146      -0.02528429
C        7.33452205       7.03928156       7.70268898       0.13350855       0.29534256      -0.08551392
C        9.89573791       7.12739268       7.51521849      -0.02227271      -0.12154784      -0.01937577
C       -3.64179259       9.25929879       7.46458031      -0.40876733       0.50207858      -0.05325291
C       -1.21796906       9.24507137       7.24978014       0.31301132      -0.28961807      -0.03150264
C        1.18836197       9.22531365       7.27749335       0.53422300       0.25731734       0.00290078
C        3.70496646       9.09320593       7.47095118       0.24427575       0.50675726       0.06265812
C        6.16666216       9.14811315       7.78208861       0.09685509       0.03058893      -0.00996533
C        8.65994722       9.20823009       7.58383801      -0.75513215      -0.05573128      -0.01102257
C       -4.98235784      11.38035170       7.45848764       0.08860447      -0.32341676      -0.00848579
C       -2.38473500      11.45986853       7.24831006      -0.18877210       0.05053071       0.01462165
C        0.09014744      11.39571086       7.23937642      -0.50563925      -0.02606959       0.04798159
C        2.41551151      11.33315576       7.31837763       0.64397816      -0.01809268       0.04478066
C        4.94673873      11.32382716       7.53410479      -0.17599346       0.04235547       0.03988996
C        7.37106704      11.37278246       7.63342794       0.11704087       0.16170799       0.02864667
72
Lattice="14.76 0.0 0.0 -7.38 12.782534959858314 0.0 0.0 0.0 15.0" Properties=species:S:1:pos:R:3:MLIP_forces:R:3 config_type=s0_sscha_overlap_087 split=frozen_overlap_screen sscha_index=87 overlap_local_index=2 selection_group=typical lattice_temperature_K=450.0 degauss_Ry=0.0019000869380739254 sscha_random_seed=453005 MLIP_energy=4.08033223214369 pbc="T T F"
C        0.00810522       0.00535374       7.27357441      -0.06876392      -0.13666666       0.00239995
C       -4.99478066      12.76277466       7.50171864       0.20173955       0.23024360      -0.12354828
C       -2.44522734      12.74841406       7.43283157      -0.42602071       0.18413802       0.01469620
C        7.40056582       0.07875577       7.46061594       0.09088942      -0.25007532       0.05275813
C        2.49776222      12.72890235       7.51613747      -0.31116727      -0.01584499       0.00775385
C        4.92700051      12.77570373       7.30385231       0.08729407       0.08551884       0.05839163
C       13.48276938       2.13295810       7.41908593       0.32126029       0.17172363       0.07720276
C        1.20189618       2.08705593       7.41361408       0.17052853       0.19934312       0.00127287
C        3.74341341       2.13368251       7.47377980      -0.10622640      -0.21703046      -0.03277121
C        6.14485151       2.13700244       7.55558949      -0.24030868      -0.10603731      -0.07192811
C        8.61189497       2.21908968       7.55094672       0.07912847      -0.18614827      -0.03997630
C       11.07571567       2.04731887       7.78719984      -0.02010658      -0.11204688      -0.12165139
C       12.30558331       4.24883849       7.65103025      -0.60312809       0.12918153       0.19048418
C       -0.01102029       4.22287744       7.80260229       0.06790141      -0.18668190      -0.14714922
C        2.46621434       4.27982842       7.61854121       0.14727110      -0.03090700      -0.03434014
C        4.95503224       4.25434666       7.42542864       0.05970252       0.33790556       0.13134057
C        7.44898142       4.26959187       7.55176898       0.00660687      -0.19843940       0.00114736
C        9.83711353       4.26873088       7.86414763      -0.33495554       0.02812900      -0.09266075
C       11.04472091       6.41152272       7.99236164      -0.24654972       0.25124852      -0.09390820
C       -1.24929703       6.34190833       7.75761375      -0.17375765       0.01151751      -0.08398722
C        1.20055980       6.41519918       7.55758695      -0.00299350       0.01387985      -0.00096630
C        3.66218908       6.38710767       7.44226066       0.09279498       0.14798124      -0.01305976
C        6.14811359       6.33579327       7.39183567       0.13884035       0.13328257      -0.00317997
C        8.61637726       6.40423994       7.56864005      -0.26409967       0.21024386       0.01074936
C        9.80954880       8.53330542       7.49579713       0.19366653       0.09768493       0.04711792
C       -2.40547757       8.52997144       7.60580812       0.11090484       0.37160320       0.04463683
C       -0.01855274       8.56607611       7.47466151      -0.19617768       0.06058125      -0.02268876
C        2.49721917       8.46253149       7.34775729       0.12067123      -0.19242118      -0.01925572
C        5.01067296       8.52289310       7.30518622      -0.70165692      -0.24359392       0.07627601
C        7.37165206       8.48626750       7.31332104       0.10401807       0.16357472       0.00479033
C       -6.15813366      10.70341275       7.25289246       0.05985827       0.11662737      -0.03616552
C       -3.67609244      10.64119290       7.41876627      -0.25342156       0.13397125       0.05126710
C       -1.22975832      10.70472882       7.42414260       0.19314944      -0.29337322       0.14357615
C        1.17984751      10.67898595       7.39410580       0.11687837      -0.27172006       0.06481565
C        3.74924069      10.61103700       7.38846276      -0.01603473       0.18823641      -0.01733228
C        6.23168087      10.64429565       7.18811832      -0.06578613      -0.13109753       0.05903883
C        1.17679002       0.70274943       7.40833459      -0.02691730       0.01005259      -0.00469391
C        3.68444906       0.68170253       7.44600809       0.08274492      -0.18561086       0.04422973
C        6.15681566       0.74444145       7.40075346      -0.00690844       0.15553937       0.08056512
C        8.64653291       0.73524731       7.51607326      -0.02792050       0.19017370      -0.00507783
C       11.03979842       0.67566866       7.58786371       0.26096086      -0.19525142      -0.05096794
C       13.50372064       0.66249014       7.32115845      -0.08922444       0.07609336      -0.01823784
C        0.02283030       2.79593917       7.48449589      -0.07693926      -0.06932535       0.07015880
C        2.50960342       2.83577485       7.40516393       0.15520183       0.21656600       0.11213275
C        4.92275649       2.86643757       7.52523822       0.00054758       0.06138815      -0.02713466
C        7.44295456       2.81542759       7.53075512      -0.14873208      -0.02734105       0.02646150
C        9.84329989       2.79923269       7.60322213      -0.21231361       0.18511548       0.18763777
C       12.23601727       2.85126924       7.68199149       0.11134145       0.14527319      -0.07204442
C       -1.27134173       4.92738744       7.72220617       0.26560408       0.16374872       0.02946952
C        1.20124022       4.98140375       7.75335139      -0.41687574       0.03942466      -0.05793755
C        3.64984923       4.91189794       7.56107585       0.39743292      -0.01271973      -0.08384246
C        6.14881648       5.04057287       7.54391738      -0.06049760      -0.48840056      -0.07187251
C        8.59815593       5.00936773       7.63722994       0.48237446       0.15519519       0.06021026
C       11.03612884       5.03747662       8.01451472       0.27503122      -0.38469878      -0.14198077
C       -2.50850884       7.15957859       7.73182396       0.48308800      -0.12580937       0.09160710
C       -0.03952093       7.13695284       7.55165247      -0.32865804      -0.04640923       0.06338698
C        2.42621756       7.04962156       7.33452012       0.05613844      -0.13800274       0.09008506
C        4.92981051       7.08862853       7.35612434      -0.46227451      -0.13034039       0.00371787
C        7.26155269       7.10054286       7.35050374       0.53935411       0.11440684       0.07097796
C        9.85438107       7.21352041       7.78197080       0.06926312      -0.60406471      -0.03839652
C       -3.72799189       9.29001685       7.64155129      -0.07552504      -0.00138835      -0.12439775
C       -1.21672631       9.32491349       7.52404529       0.27228459      -0.49673248      -0.03911467
C        1.26767831       9.16414990       7.34248677       0.14252176       0.51658984       0.04598931
C        3.76590484       9.21584995       7.40079009       0.08095991      -0.02105127      -0.06500866
C        6.20804788       9.14450115       7.38328104      -0.04455018       0.29156554      -0.13879656
C        8.55499505       9.24030493       7.29020329      -0.20649896      -0.03613012       0.02734513
C       -4.94084283      11.36106328       7.28810100       0.05363491      -0.21268133       0.10611002
C       -2.45850560      11.37566547       7.52866816      -0.01307435       0.09419356      -0.11056346
C       -0.02006597      11.39618430       7.58803307      -0.09075953       0.03420366      -0.17847380
C        2.49466934      11.27518392       7.44012783       0.12628523       0.05474890      -0.01213952
C        4.92126780      11.31992268       7.22460292       0.19516063       0.05928973       0.02979657
C        7.43883733      11.45847597       7.17637658      -0.09421001      -0.08214261       0.01565285
72
Lattice="14.76 0.0 0.0 -7.38 12.782534959858314 0.0 0.0 0.0 15.0" Properties=species:S:1:pos:R:3:MLIP_forces:R:3 config_type=s0_sscha_overlap_272 split=frozen_overlap_screen sscha_index=272 overlap_local_index=3 selection_group=typical lattice_temperature_K=450.0 degauss_Ry=0.0019000869380739254 sscha_random_seed=453005 MLIP_energy=9.994524076183122 pbc="T T F"
C        0.05090590       0.00947181       7.52791675       0.09191081      -0.10411819       0.01920396
C       -4.90317677      12.71429397       7.34292351      -0.11219850       0.19007401       0.00001940
C       -2.49631148      12.69274340       7.25471623      -0.03601142       0.26390219      -0.02698069
C        0.01722553      12.69821454       7.32017483      -0.05840278       0.05370771       0.02997481
C        9.87912008       0.05504521       7.46332039      -0.01789005       0.02243958       0.02214848
C       12.39990851       0.03471764       7.56144706      -0.11367699       0.12143529       0.00376785
C       -1.14911880       2.11473994       7.56513496      -0.05183726       0.34744340      -0.01263828
C        1.32741641       2.13100987       7.32642844      -0.10722199       0.04115513       0.08888120
C        3.62686355       2.14306279       7.32616295       0.26362406      -0.16771072      -0.00889525
C        6.14027865       2.14632436       7.41782855      -0.25204506      -0.35647351      -0.12739941
C        8.60244932       2.01429860       7.45746960      -0.15861556       0.40247316      -0.04212826
C       11.12593581       2.15258174       7.43324958      -0.16561651      -0.17867044       0.08430351
C       -2.42267815       4.22367670       7.61535528      -0.46389195       0.43532151      -0.04522788
C       -0.00505675       4.28373025       7.61848085       0.28995757      -0.15402468      -0.05448558
C        2.51948005       4.30290107       7.43308868       0.16835036       0.02488755       0.06328835
C        4.93174318       4.23019019       7.48061659       0.13270452       0.09959351      -0.07673369
C        7.39499098       4.21149546       7.36941573      -0.21694227      -0.14315404       0.05019647
C        9.74136882       4.24051978       7.60927931      -0.00148331       0.03507380      -0.08489751
C       10.97336979       6.41124685       7.49277906       0.02415657      -0.13055148       0.00068977
C       -1.33150278       6.43927916       7.52463855      -0.11352853      -0.09034770       0.00927118
C        1.15095484       6.39910291       7.59855358       0.07718639       0.10385835       0.02255928
C        3.59053203       6.42854589       7.39351631       0.18839073       0.23163605       0.09009733
C        6.16418157       6.34896717       7.49546299      -0.06013773       0.14582170      -0.00819945
C        8.58614201       6.33589009       7.46976479      -0.06906193       0.27986458       0.05581054
C        9.83851072       8.48304485       7.60964015       0.24945316      -0.02148938      -0.02141555
C       -2.46564018       8.50430680       7.43405559       0.06455306       0.11961216      -0.02574188
C       -0.00286576       8.49049096       7.65726789      -0.19737221       0.45131791      -0.14399908
C        2.40822009       8.56501300       7.61776046       0.08739618       0.05904581      -0.05241620
C        4.90367236       8.60565897       7.62240676      -0.15998416      -0.31157567       0.00659264
C        7.38434030       8.54464310       7.63791455       0.09249991      -0.16289151       0.03318937
C       -6.12710410      10.70753772       7.69067714       0.20617483      -0.14788514      -0.03054563
C       -3.64016723      10.59135301       7.34759117      -0.15057695       0.03843525       0.05037520
C       -1.25222323      10.60744418       7.44945502       0.37806812      -0.12655876      -0.07971545
C        1.24291965      10.68675823       7.47453437       0.07282654      -0.04802458       0.06486454
C        3.70948884      10.66447192       7.64761230       0.05216935       0.25597428      -0.03061833
C        6.25314852      10.68618248       7.72845050      -0.33570163      -0.18379189       0.06615854
C        1.34902293       0.69855133       7.38416271      -0.40887278      -0.05668015       0.01784554
C        3.60774362       0.68711315       7.27133441       0.31752352      -0.12451688      -0.00774929
C        6.22613373       0.68273847       7.22443533      -0.41586328       0.04234344       0.10021400
C        8.57592201       0.66878391       7.42902248       0.10486280       0.02831249      -0.02444895
C       11.10606424       0.76730511       7.46052567       0.17203595      -0.18742234       0.01257080
C       13.56049283       0.76809677       7.54540865       0.24863991      -0.32746034      -0.00374640
C        0.05257763       2.80696465       7.47250281       0.16717485       0.09614309       0.03336234
C        2.52449591       2.89770024       7.40968790       0.01487419       0.09582079      -0.05791584
C        4.87405121       2.78446374       7.37176643       0.08327060       0.24688750       0.05406419
C        7.37246343       2.75633143       7.37221517       0.14478589       0.01851129       0.05260858
C        9.82944106       2.77011546       7.48847992      -0.32815401       0.18123934       0.01877252
C       12.27486202       2.90092219       7.63542248       0.24444837      -0.20938865      -0.07215205
C       -1.27103220       5.04316584       7.55230027       0.12896941      -0.17488162       0.05275773
C        1.31628311       4.96096590       7.64259261      -0.57980909       0.09971736      -0.08833121
C        3.72987747       4.96574211       7.41995127       0.06550236       0.06425914       0.00188825
C        6.13275669       4.97754041       7.43911820       0.07328871      -0.15140897      -0.01390087
C        8.50416977       4.94775000       7.51168245       0.56885652       0.05082794      -0.02116845
C       11.02889757       5.02137843       7.53419689      -0.01866788      -0.33564403       0.04957880
C       -2.58291002       7.11400247       7.44563870       0.37536611      -0.00869457       0.03462358
C       -0.08194062       7.14782600       7.62591419      -0.12321306      -0.26036798      -0.01004716
C        2.35057946       7.23559463       7.52700545       0.00666400      -0.57539971      -0.00832059
C        4.83208837       7.17592302       7.51203326      -0.09811991      -0.16582918      -0.01941855
C        7.35813433       7.04698023       7.49693595       0.09229060       0.23141579       0.02710374
C        9.81523674       7.11906512       7.55258742      -0.09072860      -0.28870572      -0.02762145
C       -3.70475692       9.19868078       7.47529458       0.03318855       0.10141547      -0.01115670
C       -1.25032550       9.22027750       7.38878882       0.30747712      -0.24817960       0.14723003
C        1.21024996       9.29546844       7.58088116       0.15637869       0.03789350       0.04801587
C        3.71679288       9.24665616       7.57062179      -0.19926736       0.24735141       0.06449280
C        6.17994593       9.20960207       7.78794593      -0.13758937       0.12398955      -0.09103002
C        8.67843454       9.20404867       7.70538430      -0.47135420       0.15213666      -0.02006785
C       -4.89454472      11.35851100       7.45384375      -0.03310358      -0.29273111       0.00745291
C       -2.40993896      11.31054527       7.28690821      -0.29126131       0.07574801       0.02312105
C        0.01550357      11.26094747       7.44149287      -0.18818820       0.15604370      -0.04685621
C        2.44765281      11.45782968       7.56312543       0.33595368      -0.27887199      -0.02913047
C        4.98104912      11.43604069       7.68519093       0.08678650      -0.19046982      -0.02194813
C        7.43720366      11.34614067       7.72051115       0.05862891       0.43079091      -0.06004689
72
Lattice="14.76 0.0 0.0 -7.38 12.782534959858314 0.0 0.0 0.0 15.0" Properties=species:S:1:pos:R:3:MLIP_forces:R:3 config_type=s0_sscha_overlap_168 split=frozen_overlap_screen sscha_index=168 overlap_local_index=4 selection_group=high_committee_disagreement lattice_temperature_K=450.0 degauss_Ry=0.0019000869380739254 sscha_random_seed=453005 MLIP_energy=6.599038780556445 pbc="T T F"
C       -0.02031540       0.04215193       7.67189338      -0.06221895      -0.35918687       0.01261113
C        2.52611978       0.09857162       7.55404102      -0.16800862       0.04688168      -0.00418317
C        4.92710575       0.02144970       7.45692792       0.01937707      -0.05192812      -0.07444131
C       -0.01252779      12.76954516       7.33496465       0.21691285      -0.06637399       0.01715143
C        2.48892588      12.75794419       7.40739611      -0.61203275      -0.20650737      -0.03468618
C        4.87836221      12.68800835       7.56639119       0.04804603       0.39733462       0.09113462
C       13.43437232       2.12270711       7.79338529       0.37933412       0.11693255      -0.05094901
C        1.27648230       2.12044762       7.62380048      -0.22354223       0.13589617      -0.04507386
C        3.70972887       2.10883306       7.49571191       0.10649670       0.03039966      -0.04161924
C        6.23234775       2.07521370       7.34629292      -0.40572531       0.03675339       0.04338037
C        8.59381823       2.13524099       7.35484327      -0.01726548       0.07715372       0.05757419
C       11.01561176       2.10554334       7.56436042       0.10206669      -0.24396852       0.07958393
C       12.23954599       4.25669238       7.61140241      -0.13745960       0.13087130      -0.04821821
C        0.00724932       4.20023272       7.52560112      -0.03113676      -0.02397669       0.01389327
C        2.41714867       4.31867952       7.53986012       0.50717798      -0.25467797      -0.02241942
C        4.93635931       4.18162930       7.55527338       0.11523928       0.45641360      -0.01492645
C        7.39091703       4.25605625       7.40537385       0.27516618      -0.07304920       0.04608526
C        9.79586793       4.26786861       7.40404991      -0.09111762      -0.07461857       0.05731405
C       -3.68370736       6.38587663       7.50437658      -0.19248096       0.19212772      -0.05752045
C       -1.19697640       6.37430392       7.54778907      -0.28603267      -0.17824712      -0.03076378
C        1.23617921       6.39809704       7.40374077       0.04364730      -0.03648291       0.05561088
C        3.69966029       6.37291393       7.49554298      -0.16753741       0.14506537       0.00065720
C        6.12998806       6.41769871       7.47868720       0.43210338      -0.10973248       0.09961983
C        8.53727669       6.43768843       7.49335150       0.36058911      -0.20782190      -0.01813381
C       -4.94581462       8.58611159       7.57986979       0.41993960      -0.31999720      -0.06680120
C       -2.39034890       8.58410886       7.61231164       0.10924550      -0.07608778      -0.02377771
C        0.07260124       8.42416302       7.50964524      -0.47368163       0.64101318      -0.01931871
C        2.48174325       8.49580560       7.41811839       0.00986480      -0.11133674      -0.04922084
C        4.95069603       8.55415643       7.45491691      -0.38060448      -0.34026874       0.00336571
C        7.41166221       8.57604989       7.53284194      -0.07064986       0.10926994      -0.03000162
C       -6.07245078      10.74011903       7.55641663      -0.22305319       0.16757870      -0.04747137
C       -3.69317302      10.67781782       7.50842063      -0.01236611       0.11080498       0.03952128
C       -1.26481331      10.61722511       7.53108588       0.34531232      -0.08906444      -0.03093361
C        1.15159164      10.65223187       7.43194939       0.20805464      -0.20482782      -0.04770566
C        3.67358403      10.57653925       7.41167977      -0.02958777       0.36516046      -0.03158654
C        6.14399131      10.70722345       7.33241724       0.20946740      -0.23062407       0.09738655
C        1.19948679       0.71789637       7.67838486       0.13567016       0.12138651      -0.03750808
C        3.79443471       0.75025078       7.43304189      -0.29047773      -0.22827435       0.06934828
C        6.22984731       0.72440484       7.30123803      -0.29215834      -0.05615441       0.06612535
C        8.55648421       0.67455851       7.37218603       0.12982713       0.25911238      -0.02499720
C       10.89837978       0.62419523       7.56612804       0.74911553       0.23407231       0.01186304
C       13.46372834       0.65906704       7.78784494      -0.12897409      -0.00371564      -0.09022761
C       -0.03180185       2.82454046       7.59476845       0.09320734      -0.29482882       0.08703677
C        2.47504383       2.80957351       7.44773907       0.31248409       0.29530511       0.10598370
C        4.95602378       2.81992159       7.51528111      -0.03076648      -0.00178492      -0.05563158
C        7.42432349       2.82201626       7.36628488       0.04069002      -0.09919690      -0.01827606
C        9.84793810       2.84754543       7.50340362      -0.40692186      -0.15444056      -0.09567328
C       12.20836021       2.85998700       7.74437051      -0.06634249       0.09656121      -0.05959028
C       -1.19456646       4.88695789       7.51020829      -0.13913580       0.26911974       0.05118077
C        1.22688273       4.97529953       7.55338172      -0.43711339       0.14699434      -0.07389129
C        3.68614743       4.92587342       7.56934807       0.06590395      -0.13250487      -0.03029754
C        6.16350944       5.01063517       7.49121820      -0.11030589      -0.20979106      -0.02182259
C        8.62622780       4.94566934       7.45691265      -0.04157938       0.38517663      -0.03562104
C       11.01335106       4.96859252       7.44537290       0.33521922       0.03205373       0.05422257
C       -2.44238828       7.16080269       7.56499216       0.31935649      -0.19663404       0.00737714
C        0.02280982       7.13200633       7.47872163      -0.29662461      -0.35288292       0.00337596
C        2.44621450       7.11568116       7.36527820      -0.03262861      -0.34288002       0.06661227
C        4.89087474       7.06290183       7.55180623      -0.13736320       0.08393027      -0.06484372
C        7.41087616       7.13835802       7.60990112      -0.27224035       0.32246872      -0.09249200
C        9.85102627       7.12743269       7.40892812       0.12784012      -0.08197689       0.12450003
C       -3.63723014       9.25849734       7.60474601      -0.30023335       0.31654876      -0.03053222
C       -1.19115621       9.23515098       7.55875483       0.29859429      -0.30925561       0.00552387
C        1.19284547       9.19147895       7.41050863       0.51363257       0.26817576       0.03840428
C        3.72301210       9.19165618       7.39746623      -0.04003164       0.07453712       0.02340552
C        6.16056876       9.24107130       7.38311644       0.07397494       0.02955047       0.02908665
C        8.66207206       9.26590917       7.51106988      -0.45347059       0.12297914       0.04318751
C       -4.90573116      11.50642530       7.53930398      -0.01023629      -0.43135196      -0.00000598
C       -2.45251599      11.36717441       7.48801619      -0.05318946       0.07678866       0.01366028
C        0.00466128      11.37282729       7.45686608      -0.32829516      -0.09877933      -0.00840874
C        2.41360924      11.35629067       7.32984093       0.34461629      -0.25407723       0.07974952
C        4.92364689      11.30292906       7.47970530      -0.13986432      -0.00839476      -0.06511228
C        7.36419428      11.41019919       7.50913393       0.14428132       0.22128488      -0.00084957
72
Lattice="14.76 0.0 0.0 -7.38 12.782534959858314 0.0 0.0 0.0 15.0" Properties=species:S:1:pos:R:3:MLIP_forces:R:3 config_type=s0_sscha_overlap_277 split=frozen_overlap_screen sscha_index=277 overlap_local_index=5 selection_group=high_committee_disagreement lattice_temperature_K=450.0 degauss_Ry=0.0019000869380739254 sscha_random_seed=453005 MLIP_energy=5.44690880838758 pbc="T T F"
C       -0.01709413       0.09306457       7.50115108      -0.00307321      -0.41777942      -0.02876271
C        2.47014006       0.07941174       7.55766840       0.04669076      -0.11568141      -0.00964813
C       -2.41955149      12.73389532       7.42554417      -0.25996953       0.01317913       0.00674858
C        0.04626985      12.75713101       7.35254161       0.06805041      -0.05415384      -0.04834317
C        9.86495674       0.04900139       7.38206341      -0.08991779      -0.50363558      -0.05677062
C       12.20356216       0.00438707       7.49435557       0.53461680       0.08030419       0.03241579
C       13.42142814       2.13129532       7.52521571       0.54786071       0.16379001       0.01637426
C        1.20925774       2.25206939       7.64690225       0.08626241      -0.09800459      -0.07796795
C        3.78298555       2.14162434       7.52295515      -0.26505410      -0.20592841       0.05078986
C        6.22295801       2.11115822       7.29661618      -0.54030412      -0.32879243       0.06078507
C        8.59430156       2.12677719       7.47175585      -0.07052025       0.22348040      -0.12761818
C       11.02413307       2.12938964       7.42035478       0.28585873      -0.21531020      -0.01945020
C       -2.46801667       4.28246404       7.57260735      -0.25964701       0.07424243      -0.06721096
C       -0.02366792       4.32059849       7.51590735       0.14997349      -0.31031402       0.04892483
C        2.46426904       4.32236428       7.50358915       0.33406659      -0.04398569       0.07015742
C        4.98610728       4.23632646       7.46241006      -0.00552554       0.25297902      -0.02129480
C        7.43238689       4.22164419       7.44669777       0.25949439      -0.05294291      -0.00296215
C        9.83448934       4.25774809       7.53477357      -0.38510584       0.03713370      -0.09894601
C       11.08562775       6.29381418       7.69234714      -0.30718063       0.55827160      -0.06098599
C       -1.35593121       6.48165427       7.60947834       0.11159974      -0.41917705       0.05025149
C        1.16489165       6.42735145       7.69213809       0.15421797       0.03646424      -0.10222337
C        3.69185269       6.38675577       7.44996686      -0.39910777       0.05366580       0.02543477
C        6.11842789       6.32035573       7.39148162       0.43037905      -0.07231992       0.19349845
C        8.64647529       6.41533997       7.61351575      -0.24074084      -0.15973746       0.00791253
C        9.86436899       8.43078816       7.67491498       0.11345235       0.14525289      -0.03977992
C       -2.40758103       8.58309275       7.54211039       0.13641627       0.00644572       0.07290717
C        0.00854274       8.51539210       7.63457706      -0.18176512       0.26838324      -0.03196704
C        2.44503121       8.51592779       7.39314308       0.12298099      -0.20624314       0.01720850
C        4.90108666       8.55030525       7.49373956      -0.29099165      -0.46776679       0.03877975
C        7.34734554       8.38645093       7.60026464       0.07041787       0.77025781       0.02793221
C       -6.11992862      10.65130011       7.46190023       0.00287969       0.32008791       0.03005620
C       -3.69329914      10.68649061       7.54373066      -0.28638146      -0.24699917       0.05957775
C       -1.21823429      10.63759655       7.52704492       0.19373328      -0.23766045      -0.11504149
C        1.23394531      10.65944928       7.33955510       0.02719453      -0.29446952      -0.00261039
C        3.70842512      10.62309387       7.29738876      -0.03958414       0.19041131      -0.02502612
C        6.11978693      10.67471516       7.49898380       0.24659372      -0.02963595      -0.03547056
C        1.28365060       0.80514235       7.50254753      -0.34394962       0.08737168       0.08011714
C        3.75258790       0.64489058       7.54775723      -0.04768036       0.05288925      -0.04045412
C        6.20896219       0.66956732       7.29804807      -0.00853709       0.15710367       0.04456603
C        8.61969678       0.65892369       7.40965487      -0.06852541       0.54557189       0.00531523
C       11.08845875       0.66826350       7.47675696      -0.22317855       0.30714433      -0.04928159
C       13.45068409       0.74948072       7.59295193       0.00255180      -0.39460259      -0.06957343
C       -0.06795801       2.84002938       7.51081129       0.07153025       0.00263232       0.04695250
C        2.51470070       2.86680178       7.65298023       0.34338932       0.22115728      -0.08719493
C        4.97418933       2.84326542       7.45344713      -0.03116773       0.17311072      -0.04566454
C        7.38257524       2.80492216       7.38159729       0.42448685      -0.11383875       0.02924636
C        9.87102728       2.91498488       7.27371269      -0.58929798      -0.44574764       0.19123202
C       12.23841777       2.83779878       7.47797957      -0.12916026       0.28965808       0.02584325
C       -1.20937439       5.02404175       7.60302831      -0.16970880       0.04793721      -0.03164994
C        1.23342093       5.05489067       7.58581227      -0.43810750      -0.09235866      -0.01375223
C        3.69998823       4.91887630       7.47381538       0.18912417      -0.05290301      -0.01642052
C        6.23896225       4.90886963       7.40170069      -0.32224413       0.03804991      -0.00253137
C        8.60455709       5.00092020       7.56111652       0.29039821       0.12626407      -0.01306642
C       11.02451093       4.94814348       7.51349995       0.44365657      -0.06989146       0.09696486
C       -2.50249823       7.19273037       7.67450798       0.26540452      -0.21025629      -0.04823870
C       -0.09027984       7.11734891       7.66962185      -0.15673119       0.19879237      -0.00146846
C        2.39258181       7.08024497       7.46003390      -0.00016796      -0.09808614       0.05979504
C        4.84528145       6.99798901       7.60411387      -0.00474733       0.23677475      -0.15214397
C        7.33433119       7.03773273       7.65259260      -0.01989393       0.12832740      -0.12280279
C        9.87926570       7.12258429       7.62297398       0.22094184      -0.58650749       0.05954664
C       -3.73283146       9.15078033       7.62437385       0.14770887       0.62156416      -0.04891152
C       -1.15934614       9.23239934       7.51298711      -0.00610696      -0.17556819       0.05376217
C        1.20854015       9.23961006       7.53686472       0.45522296       0.17635140      -0.07838823
C        3.72289739       9.20297546       7.27692769      -0.16933217       0.16314265       0.07149045
C        6.13680962       9.24136203       7.58619371       0.08100636      -0.22633540      -0.05708659
C        8.71636066       9.26723701       7.57360254      -0.70615057      -0.53090268       0.02161572
C       -4.92985860      11.40866879       7.56910574      -0.11644073      -0.19276481      -0.05476913
C       -2.47740590      11.24832616       7.49561198       0.27988539       0.41803151      -0.00672482
C        0.04031418      11.34564254       7.31022533      -0.28129807       0.09006210       0.10749739
C        2.49683085      11.28850955       7.21447695       0.21951865       0.26331852       0.09305757
C        4.88559814      11.36812286       7.43004831       0.04175551      -0.14142879       0.00912395
C        7.35460272      11.41388698       7.37912957       0.05797431       0.27212520       0.10632209
72
Lattice="14.76 0.0 0.0 -7.38 12.782534959858314 0.0 0.0 0.0 15.0" Properties=species:S:1:pos:R:3:MLIP_forces:R:3 config_type=s0_sscha_overlap_216 split=frozen_overlap_screen sscha_index=216 overlap_local_index=6 selection_group=high_committee_disagreement lattice_temperature_K=450.0 degauss_Ry=0.0019000869380739254 sscha_random_seed=453005 MLIP_energy=8.426223542758319 pbc="T T F"
C       14.60579619       0.05249079       7.64245588       0.68039623      -0.28844948       0.00504321
C       -4.97734561      12.74251734       7.33930705       0.05073195       0.27777818       0.05235287
C       -2.46153229      12.68300740       7.03547346      -0.10282817       0.56437687       0.25433712
C        0.02160984      12.73325325       7.41058676      -0.11164665       0.05965260      -0.04354646
C        9.86096624       0.01874457       7.40684663      -0.07401351       0.02058659       0.00539533
C       12.22531986       0.02169100       7.62385251       0.40931683       0.25546030       0.03910842
C       -1.26051619       2.19801025       7.80884033       0.40250751       0.01615169      -0.05815094
C        1.25345261       2.19010719       7.67171959       0.02975410      -0.09920645      -0.04444009
C        3.69741301       2.04670620       7.51780663       0.03550665      -0.05203816      -0.00197191
C        6.18995922       2.08873816       7.59072870      -0.34231331      -0.30137296      -0.00134756
C        8.63066752       2.12799152       7.59527465      -0.31075225       0.26428765       0.00379199
C       11.06320794       2.16106022       7.69603114       0.01289447       0.11356969      -0.01551791
C       12.16922975       4.33661134       7.59846215       0.37730452      -0.21917958       0.08511132
C        0.03107491       4.22958527       7.67055369       0.05649565       0.16006681      -0.02934001
C        2.46109839       4.31136467       7.54126384       0.36108555      -0.30324913      -0.04070502
C        4.90332361       4.22212681       7.53533502       0.12474196      -0.00047692       0.04766792
C        7.30819032       4.25328416       7.75455563       0.35796643      -0.15531174      -0.05302555
C        9.78221715       4.32237352       7.80218871      -0.14657906       0.16495833      -0.07459946
C       -3.70788548       6.42545185       7.53542619      -0.11050230       0.00129634       0.06790523
C       -1.19603147       6.35806887       7.67043157      -0.24282947      -0.21985741       0.01765779
C        1.21015923       6.32968933       7.49331265       0.33215615      -0.04864150      -0.03402767
C        3.70474751       6.37009176       7.35150668       0.00899965       0.08034328       0.07445852
C        6.12567771       6.36657296       7.56877780       0.36207094       0.05585346       0.01659354
C        8.56088863       6.43757253       7.71895698       0.21782905      -0.05440910      -0.09640826
C       -4.82453207       8.59832834       7.53999430      -0.26128416      -0.23397121      -0.05467480
C       -2.35560368       8.51502734       7.45688414      -0.16465864      -0.07686801      -0.03362755
C       -0.02457446       8.50723554       7.35091444       0.20592865      -0.09517148       0.03730415
C        2.47567128       8.52762521       7.41989229      -0.01209336      -0.33049122      -0.07803270
C        5.00358989       8.56929679       7.36578989      -0.73664664      -0.34009439       0.03280657
C        7.35227353       8.55577323       7.52515160       0.03289828      -0.09828617      -0.05694226
C        8.57530779      10.65552312       7.44498237       0.11919277       0.13619242      -0.04227866
C       -3.63603671      10.64108411       7.13540892      -0.09902794       0.08624556      -0.00253953
C       -1.20711412      10.60587616       7.09057391       0.20045300       0.02548798      -0.04492199
C        1.23897993      10.63536136       7.33994339       0.14853205      -0.10732002      -0.06935323
C        3.68822439      10.67932588       7.34480189       0.03140598       0.04840061       0.02833289
C        6.18686132      10.67348354       7.51907291      -0.30269930       0.00511320      -0.02668073
C        1.26092186       0.74873934       7.62109567      -0.30835149      -0.09528099      -0.03738986
C        3.70585757       0.64608364       7.35636021      -0.17846890      -0.16719499      -0.09545461
C        6.16400171       0.61738077       7.48973023      -0.12091630       0.09870765      -0.15477090
C        8.53623738       0.70818892       7.40577234       0.31976236       0.13473592       0.08015703
C       11.07148803       0.80005584       7.59277774      -0.09361221      -0.23409844      -0.03548440
C       13.54727816       0.77606713       7.77568788      -0.50468559      -0.03378959      -0.02004783
C        0.01252692       2.90528648       7.70981845       0.05913683      -0.35631828       0.04815808
C        2.50660041       2.80733792       7.53604363       0.18307403       0.25010030       0.06181984
C        4.93160410       2.73920743       7.60021922      -0.01275540       0.32907492      -0.05047996
C        7.36132357       2.81919494       7.63338022       0.18399025      -0.12575099       0.04687632
C        9.79875011       2.99798412       7.72307978      -0.14457445      -0.64883414      -0.03361094
C       12.31301245       2.85479402       7.67001094      -0.39600376       0.26778713       0.04153127
C       -1.22581024       4.92403487       7.72143360      -0.12635112       0.13215390      -0.08078290
C        1.28139825       4.94768124       7.50720031      -0.50580346       0.02065761       0.07224958
C        3.66364340       4.95997439       7.48126085       0.28076872      -0.12865223      -0.02860233
C        6.16129980       4.95694974       7.62740196      -0.25246474       0.01081908      -0.01643160
C        8.55609740       4.95744781       7.73664856       0.10878308       0.31392141       0.05893785
C       11.03030026       5.00692906       7.63333362      -0.11153807       0.17939359       0.01775510
C       -2.45300123       7.06887611       7.61113274       0.26812761       0.10168670      -0.05172095
C        0.06217544       6.98783344       7.61374273      -0.51498918       0.43375305      -0.08354784
C        2.49058417       7.00266365       7.35780798      -0.28162298       0.20773181       0.04284351
C        4.92870960       7.07815556       7.48293096      -0.12028538       0.06864513      -0.08727704
C        7.38629438       7.11601691       7.58410670      -0.17414049       0.18875657       0.03272693
C        9.83450867       7.16641547       7.53966568       0.17647392      -0.08286860       0.08561083
C       -3.62956270       9.24457747       7.42044020       0.15252411       0.23480423      -0.05483759
C       -1.19892686       9.18174367       7.16720116       0.18518072      -0.01404767       0.08520835
C        1.24334095       9.20660615       7.32532591       0.09872344       0.14305875       0.03414628
C        3.66358790       9.25440513       7.35355788       0.18778734       0.02397028       0.00811987
C        6.12681081       9.23847274       7.40201095       0.18029729       0.15128554       0.05959844
C        8.59309072       9.20450630       7.43042265      -0.07925475       0.13610673       0.08090978
C       -4.93547534      11.38696512       7.23075349      -0.13438011      -0.36084502       0.04045557
C       -2.43342419      11.39171819       6.91161752       0.00499179      -0.56125784       0.06781171
C        0.06514928      11.33046706       7.23099304      -0.23338189      -0.09967648       0.01235120
C        2.47455699      11.36009282       7.31941490       0.14777283       0.10251786       0.04523674
C        4.90621537      11.42872853       7.49804193       0.11840041      -0.17408294      -0.02140867
C        7.34409923      11.37609004       7.58647408       0.09749192       0.24160341      -0.03639141
72
Lattice="14.76 0.0 0.0 -7.38 12.782534959858314 0.0 0.0 0.0 15.0" Properties=species:S:1:pos:R:3:MLIP_forces:R:3 config_type=s0_sscha_overlap_099 split=frozen_overlap_screen sscha_index=99 overlap_local_index=7 selection_group=high_committee_disagreement lattice_temperature_K=450.0 degauss_Ry=0.0019000869380739254 sscha_random_seed=453005 MLIP_energy=9.825806470919183 pbc="T T F"
C       -0.02539502       0.04890260       7.68278889      -0.12827794      -0.35149726      -0.14818173
C       -4.99387781      12.73096089       7.38784694       0.09476589       0.44183132       0.08022119
C        4.87380021       0.05394045       7.37321372      -0.25206622      -0.12901172       0.14826694
C       -0.03518550      12.67621654       7.46026438       0.12664328       0.28468547       0.07425609
C        2.46023553      12.70548132       7.48380823       0.03488480       0.09451058      -0.03014914
C        4.89632724      12.72743643       7.43112431       0.16200897       0.36139823       0.02122237
C       -1.19524075       2.14234155       7.35577444      -0.00862583       0.07799446       0.04069829
C        1.25932974       2.09472487       7.40915692      -0.04310858       0.31399479       0.01194584
C        3.73229514       2.21093721       7.41682430      -0.19428269      -0.28236218       0.07372051
C        6.16622349       2.17268751       7.38193870      -0.08469880      -0.41802463       0.17027080
C        8.64106454       2.08779324       7.37522995      -0.24225755       0.12166448       0.08467787
C       11.07375747       2.13233263       7.40864381       0.11227731      -0.31331936      -0.04325184
C       -2.37476087       4.29023802       7.52690016      -0.84833032      -0.10894150      -0.07175292
C       -0.01727699       4.28159500       7.52590757       0.03492272      -0.15085310      -0.08321735
C        2.43950366       4.27455155       7.42097215       0.33611463       0.12307654       0.05892595
C        4.94116710       4.26422611       7.41598549      -0.08992728       0.13253195       0.03228834
C        7.42844667       4.25168635       7.31610464      -0.05133994      -0.20601947       0.03395987
C        9.87013393       4.26683025       7.41275609      -0.39928137      -0.01917280      -0.02063238
C       -3.66709157       6.44426059       7.54114564      -0.25467594      -0.10305313      -0.06410615
C       -1.18842831       6.41399307       7.51946653      -0.31203122      -0.17605730      -0.00606968
C        1.22669072       6.37545472       7.58475467       0.08887470       0.25594306      -0.00404673
C        3.69194882       6.42922047       7.53509543       0.06212009       0.12922206       0.11529990
C        6.20657809       6.40713442       7.46474554      -0.12944133      -0.33156307       0.01842891
C        8.54058676       6.36286073       7.39762912       0.17904178       0.11300193       0.01009615
C        9.83091744       8.50507566       7.57867774       0.19928382      -0.03491952       0.05130155
C       -2.45103501       8.53309095       7.55883900       0.40629683       0.06524403       0.03557712
C        0.06455254       8.54301034       7.50456020      -0.22900993       0.18552315      -0.00860826
C        2.52242390       8.45758682       7.63103043      -0.13597604       0.09655358      -0.02939847
C        4.90849794       8.49621774       7.64442609      -0.23499442       0.07497978      -0.05060558
C        7.34858109       8.56326632       7.55595953       0.24862591       0.01486266       0.05090773
C       -6.10530056      10.75879341       7.58854212      -0.26961741      -0.12744890       0.01285557
C       -3.70957118      10.65486944       7.55611306      -0.17676453      -0.10042347      -0.00027871
C       -1.30434057      10.69211586       7.59466057       0.23640245      -0.37597408      -0.08628083
C        1.21569060      10.57667439       7.48769844       0.12797757       0.14574703       0.04512781
C        3.67513276      10.57295496       7.64437915       0.21505688       0.39677456      -0.03993829
C        6.13532178      10.61505490       7.65161048       0.06410194       0.28681998      -0.08978836
C        1.16413078       0.74956302       7.48054214       0.11621905      -0.25786145       0.01469347
C        3.64149331       0.73980997       7.48443447       0.02995018      -0.07465252      -0.12521217
C        6.14011896       0.66867842       7.61683458      -0.03496859       0.25259583      -0.22946537
C        8.61969699       0.65584176       7.44139157      -0.16879074       0.08337650      -0.01532439
C       11.07161750       0.69294000       7.33356883      -0.11018019      -0.09915060       0.09592812
C       13.47339496       0.70397644       7.51474083       0.13886314      -0.10782408      -0.01994699
C        0.01304086       2.85718570       7.38247417       0.11795517      -0.10640308       0.05414189
C        2.45181499       2.85059519       7.43605244       0.38535224       0.18257318      -0.03199430
C        4.96643073       2.82957084       7.45585474      -0.13530449       0.28930196      -0.06228942
C        7.41739784       2.83200019       7.47028417       0.15367226      -0.17981175      -0.13267713
C        9.85673522       2.78030030       7.44205856      -0.22119991       0.17471929      -0.03363444
C       12.28550164       2.85458746       7.35345312       0.06032055       0.21619175       0.07221130
C       -1.28856908       4.94918799       7.53337853       0.49314942       0.26970287       0.02064220
C        1.24974997       5.01094842       7.47494767      -0.48748303      -0.09617390       0.03568407
C        3.66950072       5.03699626       7.51708115       0.12593401      -0.39307848      -0.08155185
C        6.10118822       4.90575222       7.34233160       0.30904751       0.33084624       0.02810165
C        8.57153492       4.96884434       7.28069148       0.47368944       0.13033997       0.07480708
C       11.01879086       5.02796481       7.48900802       0.44294174      -0.15581195       0.02352893
C       -2.41034289       7.10565332       7.53393588       0.15451473       0.09229909       0.00336803
C       -0.00651804       7.14802352       7.48999990      -0.01010956      -0.08734110       0.04812953
C        2.50235253       7.13067312       7.73244479      -0.24308928      -0.39552739      -0.13496867
C        4.96304905       7.12097891       7.62141117      -0.35258700      -0.14612676      -0.07787200
C        7.34048352       7.06938797       7.54136547       0.14566967       0.36809728      -0.05696167
C        9.81430432       7.11144975       7.45961770       0.16326753      -0.18884831       0.03821363
C       -3.68849729       9.21856794       7.67494276      -0.11373173       0.19348532      -0.09583347
C       -1.17439227       9.23763242       7.57015887       0.03603476      -0.10632926      -0.01101855
C        1.31947565       9.22642658       7.46895568       0.05335733      -0.01358667       0.06410289
C        3.66108950       9.21231137       7.61848720       0.36489779      -0.13475252       0.03980494
C        6.18092675       9.25825976       7.53175257      -0.22989760      -0.26216536       0.09224698
C        8.66830324       9.30221531       7.67509050      -0.47175365      -0.12846335      -0.10700873
C       -4.90093091      11.37879542       7.51121915      -0.16206302      -0.12613579      -0.00951701
C       -2.55682103      11.37522410       7.43488083       0.16412594       0.14816444       0.05326318
C       -0.03484800      11.30498694       7.50448286      -0.06001966      -0.10173027       0.00240926
C        2.49156946      11.27981549       7.61480106      -0.00935356       0.06176159      -0.07706974
C        4.89273499      11.39220428       7.58816954       0.10942932      -0.42918342       0.03341488
C        7.35278902      11.36939173       7.55458156       0.12744797       0.30978454       0.11391148
72
Lattice="14.76 0.0 0.0 -7.38 12.782534959858314 0.0 0.0 0.0 15.0" Properties=species:S:1:pos:R:3:MLIP_forces:R:3 config_type=s0_sscha_overlap_152 split=frozen_overlap_screen sscha_index=152 overlap_local_index=8 selection_group=low_Aprime_amplitude lattice_temperature_K=450.0 degauss_Ry=0.0019000869380739254 sscha_random_seed=453005 MLIP_energy=5.39722745988645 pbc="T T F"
C        7.33941644      12.68564981       7.41017293       0.23909958       0.29500499       0.02304932
C       -4.91883418      12.74593289       7.48973026      -0.03581346       0.16911412       0.02760477
C        4.93802645       0.03179782       7.49963745      -0.20847847      -0.18993476       0.01613767
C        7.37497694       0.00872566       7.40803819       0.21305069      -0.19787557      -0.02082172
C        9.86544633       0.01966306       7.41428261      -0.08892759      -0.05259527       0.08692013
C       12.34892091       0.03280524       7.56832159       0.02419382       0.14621098      -0.03771159
C       13.53611078       2.10464319       7.50026494       0.27254822       0.20972704       0.00288241
C        1.19543381       2.09794138       7.56533088       0.18909824       0.10407992      -0.03347474
C        3.66771003       2.12617464       7.52706006       0.14855491      -0.19023733       0.06695362
C        6.14364417       2.13136816       7.55316057      -0.08799304      -0.26587289       0.00208805
C        8.60332144       2.16616786       7.46612469      -0.08197255      -0.10300502       0.03678916
C       11.03209454       2.15564068       7.56781870       0.21102199      -0.38944866      -0.03090955
C       12.28320095       4.20733027       7.69626456      -0.05577765       0.27953545      -0.06751626
C       -0.02464219       4.26654577       7.66902141       0.15421571      -0.26988425      -0.04036560
C        2.44855637       4.27899660       7.56503963       0.29512940       0.01677722       0.04715022
C        4.90290804       4.24326479       7.67526926       0.26412672       0.25106083      -0.10593644
C        7.40168466       4.28172563       7.46586988       0.13842024      -0.18595052       0.12424115
C        9.89110059       4.21718228       7.50525810      -0.43008324       0.16537525       0.03447041
C       11.06124858       6.37232712       7.44372850      -0.18192174      -0.01819035      -0.04172140
C       -1.21689563       6.40174534       7.57292876      -0.28208940      -0.16407278      -0.03802169
C        1.25299856       6.37105453       7.53357179      -0.17005374       0.06114113       0.07895765
C        3.64952922       6.41769786       7.50259294       0.15194753       0.17282872       0.05802161
C        6.16339836       6.38873141       7.54441908       0.20682128       0.05571750      -0.02489472
C        8.63234753       6.40761951       7.48956623      -0.09953610       0.06549443      -0.02092054
C       -4.90060452       8.56872632       7.31813109      -0.03076654      -0.27425750      -0.00580522
C       -2.51689255       8.50134285       7.35760419       0.35440172       0.03464366      -0.01315460
C       -0.02254177       8.52921425       7.55159051      -0.14991678       0.15516967      -0.03290051
C        2.49928347       8.50635378       7.51841229      -0.19832576      -0.00912241       0.07944218
C        4.91035198       8.59920897       7.47378437      -0.22603623      -0.36879382       0.02560384
C        7.35997287       8.50194726       7.42167497       0.08846290       0.32555998      -0.02595591
C       -6.13143708      10.63628271       7.39325833       0.08873439       0.32444778       0.04815352
C       -3.65195643      10.64131519       7.31961476       0.05305862       0.03918305       0.09101451
C       -1.26294395      10.67323222       7.31469553       0.23496797      -0.28179700       0.05932125
C        1.23765993      10.61764781       7.48919537      -0.23917125       0.17069982      -0.02888065
C        3.68573819      10.67047513       7.51123962      -0.14624197       0.13792358       0.06852664
C        6.12085272      10.68861957       7.51149260       0.10165305      -0.12567089      -0.02514018
C        1.19924544       0.70447169       7.43398525      -0.02499594      -0.20546962       0.03759069
C        3.69595887       0.67890885       7.59568633      -0.09994577      -0.03990616      -0.08728719
C        6.20247856       0.62867463       7.49191990      -0.26856495       0.53252134       0.01473738
C        8.60282348       0.72522318       7.42423925       0.02078761       0.12632081      -0.00592583
C       11.11420797       0.72661503       7.55083571       0.00901820      -0.03115418      -0.03545330
C       13.58689066       0.70639491       7.44965836      -0.23123352      -0.14043017       0.03759760
C        0.04443942       2.82644114       7.52464002      -0.19409979      -0.02764513       0.06445217
C        2.48872034       2.82539162       7.62432355       0.09709924       0.17965744      -0.06020502
C        4.92479533       2.84152746       7.54849246      -0.12935758       0.09238021       0.04084427
C        7.43835006       2.80131118       7.59571802      -0.21936234       0.07533533      -0.09523861
C        9.81749660       2.79269361       7.50970636      -0.15530512       0.19541999       0.00249075
C       12.27338812       2.82953850       7.57642352       0.03861152       0.00414413       0.02825263
C       -1.20301172       4.98624558       7.70044792      -0.17516906      -0.03853773      -0.02879380
C        1.21199233       4.93337543       7.60723137      -0.23077561       0.18571544      -0.02553114
C        3.71247046       5.00201445       7.58406513      -0.07323777      -0.23724836       0.00015394
C        6.16500517       4.98973190       7.56828234      -0.07445035      -0.10053287       0.00692082
C        8.58645521       5.00281507       7.55149185       0.42701362       0.03399428      -0.08055993
C       11.09833669       4.96350360       7.55335220       0.03720303      -0.15519003       0.02100521
C       -2.52305835       7.08301175       7.35071752       0.42371458       0.04181630       0.12017100
C       -0.00047324       7.10656926       7.56987853      -0.21819093       0.01028619      -0.01331373
C        2.42630667       7.13200921       7.58582722       0.00955896      -0.26923635      -0.08331934
C        4.89944616       7.12031625       7.49744306      -0.16673597      -0.02813275       0.00589730
C        7.39004558       7.15203621       7.48475001       0.06020808      -0.07080726       0.00817859
C        9.85600834       7.08105207       7.34323433       0.13431779       0.05457956       0.05618042
C       -3.68732230       9.21299416       7.31608721      -0.12187972       0.30405729      -0.02386361
C       -1.27527594       9.20628766       7.42820382       0.23149811      -0.12012466      -0.02750014
C        1.21409819       9.26883634       7.56816760       0.28671663      -0.06504667      -0.03616569
C        3.68176747       9.23786203       7.57413089       0.06473449       0.22115172      -0.07752454
C        6.16618003       9.22725923       7.42769529      -0.16428038       0.07932770       0.04298479
C        8.60552223       9.28329354       7.35476323      -0.23169347      -0.32230058       0.00681734
C       -4.84194303      11.33266360       7.46134281      -0.32992240      -0.10863004      -0.07194516
C       -2.41269213      11.39056633       7.42730228      -0.26589169       0.05238230      -0.06687842
C       -0.06512959      11.35000538       7.32248213       0.20769504      -0.02801281       0.07408408
C        2.41068364      11.35966370       7.54798778       0.39656155       0.01297173      -0.08316131
C        4.85601614      11.41826808       7.54647696       0.27522993      -0.14217211      -0.01354076
C        7.40059155      11.38351844       7.48884316      -0.06127748      -0.16447038      -0.03534824
72
Lattice="14.76 0.0 0.0 -7.38 12.782534959858314 0.0 0.0 0.0 15.0" Properties=species:S:1:pos:R:3:MLIP_forces:R:3 config_type=s0_sscha_overlap_020 split=frozen_overlap_screen sscha_index=20 overlap_local_index=9 selection_group=low_Aprime_amplitude lattice_temperature_K=450.0 degauss_Ry=0.0019000869380739254 sscha_random_seed=453005 MLIP_energy=2.267182523405867 pbc="T T F"
C        7.38557350      12.76323571       7.37432102       0.13248814      -0.20148441       0.11205525
C       -4.98130369      12.77791259       7.32138239       0.06083793       0.34270071       0.13633420
C        4.92197365       0.04506368       7.64635557      -0.50755738      -0.26144647      -0.05316010
C        7.42513206       0.10099682       7.66253767      -0.00919372      -0.39144926       0.04233839
C        9.91465902       0.01054282       7.58662137      -0.34620681      -0.00836611      -0.08486852
C        4.96868064      12.74819414       7.56120303       0.08379535       0.56355935      -0.07184482
C       -1.18045260       2.07568424       7.57773886       0.23537682       0.42105804      -0.09847526
C        1.17275732       2.16763184       7.38601224       0.10266461       0.01028679       0.00074125
C        3.64973177       2.13074172       7.31971692       0.13914822      -0.23764537       0.18249850
C        6.10431308       2.06812464       7.57637631      -0.21747122       0.08054075       0.08764307
C        8.64314032       2.13174055       7.59665848      -0.13614592       0.35679781      -0.01418620
C       11.07502445       2.15723037       7.49587438       0.25129559      -0.25886424       0.01204180
C       -2.40534991       4.29793825       7.47918038      -0.28521260      -0.18078556       0.01409038
C       -0.00226227       4.23640051       7.48593857       0.10603262      -0.02120014       0.00772551
C        2.44137612       4.28293121       7.51384898       0.33723616       0.10506791      -0.06511260
C        4.91131065       4.25166477       7.42271236       0.32164840       0.08760406       0.08616768
C        7.42601546       4.25202457       7.50486535       0.07650911      -0.32669217       0.03857605
C        9.90168298       4.35600375       7.47099258      -0.52482210      -0.35365130       0.05842701
C       11.05886793       6.32616804       7.47676718      -0.21321634       0.14984919      -0.03620302
C       -1.17529533       6.46263811       7.51325654      -0.35710270      -0.51405330      -0.03257734
C        1.23519082       6.39839756       7.49991709       0.15220232       0.04801108       0.02407948
C        3.72520640       6.40963131       7.31971181       0.00746666       0.12064446       0.05170230
C        6.18937598       6.42517125       7.33210945      -0.05716648      -0.46477836       0.03256490
C        8.57500112       6.41369680       7.37362912      -0.08408421      -0.06750891      -0.00078786
C       -4.93107722       8.54460927       7.44711260       0.00622678      -0.39325127      -0.06101760
C       -2.49459466       8.50633110       7.49355547       0.20454201       0.11051639      -0.05383183
C        0.04408603       8.47801814       7.66741282      -0.45909395       0.22693029      -0.02478088
C        2.50213172       8.46089111       7.45168522      -0.17909233      -0.27033059       0.06405370
C        4.92419872       8.58548798       7.46735959      -0.61805244      -0.41518601      -0.10021567
C        7.34758456       8.52269336       7.56076795      -0.06768294       0.15647932      -0.07808609
C        8.60912721      10.63898108       7.41976899      -0.07683844       0.33489207       0.12210903
C       -3.69371944      10.65868746       7.45751935      -0.27122289      -0.01319770      -0.02636577
C       -1.18178745      10.65334841       7.58408629      -0.04291831      -0.21951435       0.04541889
C        1.15241568      10.61925851       7.78222611       0.20712296      -0.02147949      -0.11160220
C        3.69932880      10.65353384       7.50987330      -0.17991513       0.15496181      -0.07442911
C        6.15191166      10.68763032       7.60395523      -0.00727264      -0.23764648      -0.03158475
C        1.18701423       0.78145310       7.36626138      -0.14098633      -0.25326184      -0.05479601
C        3.65071819       0.68929884       7.50888260       0.05260468      -0.17291664      -0.10994158
C        6.12537902       0.70901766       7.74183438       0.16528819       0.18463802      -0.09258250
C        8.65259198       0.72316380       7.53332527       0.04260895       0.27463145       0.09034656
C       11.08062988       0.76235898       7.47797934       0.31315335      -0.30224041       0.07152568
C       13.60017084       0.70223374       7.52897391      -0.32609773      -0.29149012      -0.00476006
C        0.02133706       2.86317512       7.44858532      -0.02984574      -0.25805285       0.05259713
C        2.43772039       2.80327859       7.39525610       0.29155685       0.47429959      -0.00000992
C        4.90617873       2.79135266       7.56260399      -0.27810135       0.27737180      -0.15272569
C        7.36638721       2.80068103       7.62391094       0.23675346      -0.23459999      -0.06123620
C        9.86896601       2.88626619       7.58344709      -0.38248434      -0.00723183      -0.06658067
C       12.37817052       2.81646331       7.47559768      -0.14060066       0.27077761       0.04605049
C       -1.18742693       4.99056917       7.48596850       0.02836339       0.22378034       0.00735064
C        1.20886394       4.99174331       7.53438986      -0.33229054      -0.03167521      -0.03594351
C        3.72123748       4.94681545       7.41189460      -0.01598596      -0.13089968      -0.01122528
C        6.15093436       4.93010205       7.50222492      -0.05855622       0.17553606      -0.10667567
C        8.62015403       4.96115921       7.43492052       0.33388838       0.41359060      -0.00358233
C       11.11981950       4.93910780       7.52281776       0.18562572      -0.01696987      -0.05341523
C       -2.50829584       7.05778493       7.44033568       0.46834270       0.27023333       0.07154905
C        0.03468965       7.09081364       7.53784796      -0.30671753       0.18115298       0.01912972
C        2.49543359       7.07621067       7.46090018      -0.09829315      -0.27868662      -0.04659202
C        4.92204934       7.12295851       7.28934131      -0.23706291      -0.02625388       0.07371408
C        7.30110925       7.09799502       7.33722903       0.43186032       0.37996185       0.09159606
C        9.85236979       7.06972622       7.38683864       0.10171076      -0.10679944       0.05623154
C       -3.75533117       9.20264131       7.36342880      -0.00515937       0.37002203       0.09782417
C       -1.28998560       9.20451911       7.61586756       0.54157638      -0.21284617      -0.01268042
C        1.25222223       9.15276066       7.69554578       0.21903552       0.47284018      -0.03642846
C        3.62424952       9.15705368       7.37864614       0.50211711       0.51560440       0.08983884
C        6.09899874       9.22130487       7.61106222       0.21598883       0.04726777      -0.01459594
C        8.55052278       9.22762455       7.48062100      -0.19562206      -0.06625829      -0.00112132
C       -4.97701407      11.40894622       7.49088613       0.08638561      -0.42405633      -0.10506029
C       -2.48110403      11.34291655       7.48747433       0.15820870       0.27315868       0.08522558
C        0.01851872      11.40312226       7.76151297      -0.29580844      -0.05200145      -0.05708787
C        2.40792852      11.39464928       7.53554084       0.41369255      -0.33614410       0.11468155
C        4.87402702      11.40410235       7.46531800       0.14791910      -0.26093613       0.08810571
C        7.38081002      11.36611795       7.57967867       0.12260664       0.24708560      -0.12816362
72
Lattice="14.76 0.0 0.0 -7.38 12.782534959858314 0.0 0.0 0.0 15.0" Properties=species:S:1:pos:R:3:MLIP_forces:R:3 config_type=s0_sscha_overlap_006 split=frozen_overlap_screen sscha_index=6 overlap_local_index=10 selection_group=high_Aprime_amplitude lattice_temperature_K=450.0 degauss_Ry=0.0019000869380739254 sscha_random_seed=453005 MLIP_energy=9.814413777463235 pbc="T T F"
C        0.09457727       0.02605382       7.25668951       0.03440703      -0.19260978       0.04142856
C        2.40976012       0.01777533       7.50289099       0.31857137      -0.01287615      -0.08967453
C       -2.48839569      12.76945508       7.61444767      -0.16676456      -0.09724530      -0.09438792
C        7.34922439       0.03044340       7.50431086       0.29178813      -0.30744567       0.02221204
C        2.43796325      12.76475070       7.24445145       0.11886232      -0.03049396       0.09050171
C        5.00676922      12.75436112       7.22120308       0.06747218       0.44656791       0.02498645
C       -1.15049791       2.12614323       7.43455832       0.08785205       0.30097717       0.02791032
C        1.17329877       2.16057550       7.64050814       0.34404324       0.33761816       0.03538859
C        3.71271349       2.14470923       7.72553069      -0.22898117       0.00011754       0.02477839
C        6.09467093       2.06020691       7.75422968      -0.08455664      -0.02596273      -0.08264388
C        8.54303371       2.14669941       7.62769834       0.07241118       0.02844652      -0.11919857
C       11.08577529       2.14564470       7.40729480       0.19052495      -0.36900600       0.00500396
C       12.20310705       4.31894699       7.46279849       0.30643550      -0.22417126       0.09961090
C        0.02859303       4.31096507       7.90097482      -0.01676300      -0.08715977      -0.08009419
C        2.40691228       4.31378378       7.91947985       0.69331442      -0.06943566       0.08937628
C        4.90477032       4.22215395       7.82540190       0.15183506       0.41747399       0.04876980
C        7.38737347       4.26652545       7.56975415      -0.09762279      -0.26690373       0.02576960
C        9.81549922       4.25470076       7.42282724      -0.21033836      -0.11745758       0.06432921
C       -3.66332516       6.39393209       7.48647910      -0.24767926       0.01505082      -0.05052648
C       -1.21742198       6.42447612       7.65996041      -0.28608938      -0.25203622      -0.04339618
C        1.12728715       6.40996506       7.80531083       0.23903952       0.03538196       0.03645308
C        3.62586829       6.39755996       7.74807001       0.04576934       0.28706495      -0.01196020
C        6.17354895       6.37079932       7.51070222       0.04231551      -0.14391126       0.03107790
C        8.65244267       6.37730083       7.43257769      -0.28035713      -0.09351177       0.02716945
C       -4.86626264       8.49434834       7.40531955       0.01711039      -0.02752835      -0.05045345
C       -2.39934866       8.47269214       7.60735598      -0.13267911       0.22753377      -0.05064027
C       -0.05307245       8.62645617       7.58278371      -0.17284632      -0.27339640       0.00445139
C        2.41029040       8.53585107       7.42383210       0.11464926      -0.29059397       0.05442678
C        4.89984142       8.48140748       7.12139724      -0.23548475      -0.10089682       0.16327494
C        7.41016786       8.47909541       7.21403091      -0.15268085       0.07710527       0.02270651
C        8.58904071      10.58329157       7.22123543       0.12217414       0.40798106      -0.00842902
C       -3.66889564      10.63891996       7.41350804      -0.02241291      -0.01017659       0.02157814
C       -1.17947867      10.68429686       7.54100577      -0.24180608      -0.30544723       0.01225225
C        1.16906675      10.61550700       7.34400295       0.21780681       0.01370027       0.07077364
C        3.75384329      10.64066422       7.27060002      -0.06752702       0.19097655      -0.06843001
C        6.19621529      10.66743372       7.04893293      -0.03949555      -0.13417242       0.09210529
C        1.35820555       0.83988906       7.42845223      -0.55911667      -0.36026025      -0.03275860
C        3.69623336       0.72405141       7.51921041      -0.12119045      -0.15708013       0.11783027
C        6.16765752       0.58412507       7.63169399      -0.34148804       0.58012769       0.06349732
C        8.59041369       0.67534596       7.48734397      -0.08264904       0.37391224      -0.01899185
C       11.09118553       0.68997265       7.28785859       0.12269336      -0.01074878       0.00066216
C       13.64443661       0.72316563       7.32049846      -0.10028221      -0.20083032      -0.04625712
C        0.02397452       2.94072700       7.62420700       0.01731277      -0.29706493       0.02400926
C        2.45473090       2.89142070       7.82100531       0.27041710       0.02875253      -0.04620411
C        4.90675787       2.86199838       7.84391339      -0.01401821      -0.10614985      -0.04422082
C        7.33028962       2.84534885       7.56767016       0.08829273      -0.32157266       0.11493243
C        9.87162507       2.80795455       7.51606851      -0.53128443       0.09073904      -0.02013833
C       12.34726677       2.84588006       7.45787147      -0.22462657       0.18456912      -0.03789057
C       -1.26235331       4.99265074       7.71631523       0.06778693       0.06238764      -0.02176114
C        1.28652974       5.00693400       8.01198793      -0.79560384       0.17268247      -0.07441984
C        3.67793503       5.02339673       7.99958153       0.10227936      -0.30665816      -0.13364446
C        6.14285695       4.93514900       7.66469525      -0.06148369       0.11456132      -0.00912173
C        8.57690843       4.89023386       7.51435229       0.45156592       0.44436107      -0.06201415
C       11.05036895       4.96043035       7.43932691      -0.10690687       0.17176697      -0.01529774
C       -2.43311765       7.11084735       7.48847626       0.16577804      -0.13282785       0.08488772
C       -0.03710024       7.13294072       7.63425076      -0.22921913       0.18517944       0.05952870
C        2.33028431       7.11536262       7.70889008       0.17815830      -0.08309012      -0.06595093
C        4.89873619       7.09342528       7.45508219      -0.31214901      -0.09462875      -0.00119768
C        7.36129496       7.04654939       7.42726299       0.19079556       0.22208995      -0.06984988
C        9.82265441       7.10998522       7.40598760       0.39505167      -0.20515639       0.04496870
C       -3.66195409       9.21682094       7.54365725      -0.07329467       0.10273039      -0.06676197
C       -1.30966625       9.22853007       7.59468194       0.60209632       0.07316150      -0.01265623
C        1.18595782       9.18850561       7.47121747       0.22244659       0.46750494      -0.05046479
C        3.70822096       9.22497226       7.28238434      -0.04316762      -0.00726753      -0.03201902
C        6.16698234       9.18921193       7.17168398      -0.07358428      -0.00915319      -0.11151203
C        8.61423491       9.21179423       7.16806476      -0.13341695      -0.21568367       0.09889014
C       -4.91656477      11.32275368       7.32230369      -0.20058200      -0.03798512       0.05367674
C       -2.44336195      11.36968379       7.45898923      -0.05674657       0.03354881       0.06915961
C       -0.02083807      11.35723303       7.54613559       0.13862199       0.01563408      -0.10595829
C        2.47720893      11.32276501       7.26270620       0.12003312      -0.04209721       0.00922169
C        4.98575754      11.41671494       7.14453229       0.01431470      -0.34022165      -0.00600934
C        7.40129208      11.36406179       7.18948587       0.12086825       0.25121005      -0.04266460
72
Lattice="14.76 0.0 0.0 -7.38 12.782534959858314 0.0 0.0 0.0 15.0" Properties=species:S:1:pos:R:3:MLIP_forces:R:3 config_type=s0_sscha_overlap_203 split=frozen_overlap_screen sscha_index=203 overlap_local_index=11 selection_group=high_Aprime_amplitude lattice_temperature_K=450.0 degauss_Ry=0.0019000869380739254 sscha_random_seed=453005 MLIP_energy=3.593171020585997 pbc="T T F"
C        0.01448446       0.00983969       7.45687167      -0.10432973      -0.36443478       0.04372642
C       -4.92395421      12.77347127       7.45509789      -0.04956335       0.00754328       0.00122858
C       -2.50618412      12.77875400       7.48479850      -0.09855629       0.13513736      -0.04598147
C        7.27716799       0.01714338       7.64793797       0.42015576       0.03123223      -0.02770259
C        2.42560629      12.77631463       7.63035269       0.07731087      -0.15098130      -0.08014198
C       12.31083829       0.03522536       7.58920707       0.10452751       0.00859382      -0.05062872
C       -1.20439024       2.10066185       7.37442168       0.13044942       0.10984686       0.12480070
C        1.13157385       2.14664375       7.36504460       0.00890802       0.18482676       0.00650271
C        3.62701405       2.17072952       7.42585840      -0.01506643      -0.30822494       0.01111736
C        6.08134694       2.14196120       7.59674958      -0.22437330      -0.18690704       0.02181195
C        8.54776220       2.10818700       7.54107705      -0.19977921       0.34361131       0.02187473
C       11.04944755       2.18574431       7.47440660       0.14944681      -0.52356232       0.06435592
C       -2.40143522       4.25568191       7.53689499      -0.14084082      -0.02339979       0.02206809
C        0.03191188       4.25484876       7.45732691       0.19960867      -0.11869081      -0.04648629
C        2.45335199       4.19566394       7.27589529       0.31677729       0.39700999       0.08869504
C        4.92307887       4.31139973       7.58222448      -0.07238150       0.07453911      -0.01418280
C        7.31895699       4.28875665       7.56320880       0.43902567      -0.26549447      -0.03296943
C        9.92548801       4.25484387       7.40373418      -0.54101920      -0.00319385       0.13204188
C       -3.60442397       6.48061569       7.58797484      -0.41155384      -0.20818118       0.03704783
C       -1.21808509       6.38892744       7.56514748       0.07247008      -0.44310483      -0.12981229
C        1.19877169       6.36850667       7.25711458       0.29120820       0.10347048       0.07210867
C        3.72873847       6.36274487       7.52272946      -0.19268346       0.46670641      -0.08569708
C        6.15632726       6.39757674       7.60861030       0.47135202       0.06827395      -0.06221948
C        8.60918054       6.36903166       7.64855072      -0.07802950      -0.03396813      -0.02775890
C       -4.86684364       8.53302816       7.65085586      -0.06156922      -0.20939094      -0.04659589
C       -2.41530452       8.47609396       7.39846361       0.23446975       0.27975580       0.00326893
C       -0.04045724       8.52079555       7.34301792       0.04831842       0.26912752      -0.03710710
C        2.46542978       8.52543704       7.37568299       0.11559209      -0.30905890      -0.00470061
C        4.91872563       8.51303243       7.53473766      -0.20231255      -0.05593492       0.09562944
C        7.43014063       8.53150998       7.70989302      -0.27033758       0.17535442      -0.03136993
C        8.60240915      10.58738154       7.67476938       0.16764811       0.41691598      -0.07914889
C       -3.58609993      10.69700195       7.46441832      -0.51642682      -0.23275295      -0.05746641
C       -1.24485921      10.68392032       7.28961123       0.21623407      -0.25411635       0.08771614
C        1.24457359      10.64042052       7.41315973      -0.16480663      -0.05420415      -0.03418747
C        3.65158711      10.63230498       7.50858918       0.24422319       0.17045967       0.07077908
C        6.20584089      10.66004623       7.59516697      -0.18481332      -0.07185581       0.04672143
C        1.21881846       0.75056208       7.46846903      -0.13921653      -0.03816883      -0.04634366
C        3.67506436       0.66536556       7.40114183      -0.20618339      -0.01227314       0.04861908
C        6.12028164       0.75439237       7.60366890      -0.14487386      -0.03288550      -0.02741072
C        8.54800451       0.68388409       7.66916483      -0.07416814       0.31875229      -0.03560495
C       11.08773357       0.69201120       7.54412319       0.03921588       0.13514268       0.02647097
C       13.54746979       0.66953216       7.45176965      -0.02097139      -0.06273314      -0.01218177
C       -0.08029218       2.91822863       7.43193270       0.25629826      -0.57240823      -0.05138076
C        2.38247499       2.80915634       7.28587532       0.48848274       0.14660521       0.05384423
C        4.88044406       2.86507325       7.60246293      -0.24607146       0.32325256      -0.07778631
C        7.30919277       2.84149143       7.55115097       0.27315367      -0.16415423       0.01907577
C        9.77492496       2.85913163       7.46587622      -0.19757323      -0.19662704      -0.01670286
C       12.30203561       2.76070513       7.57026779      -0.07435124       0.42397342      -0.12659513
C       -1.12028950       4.90210795       7.46643250      -0.27774537       0.37556541       0.09677566
C        1.25828227       4.96199162       7.34440785      -0.38241039       0.10929106      -0.03504636
C        3.64689876       4.98503651       7.48957100       0.19416785      -0.43472028      -0.03495296
C        6.13052492       4.99837961       7.57483843      -0.08264919      -0.05148276       0.03765309
C        8.59772471       4.94086897       7.51847530       0.26727574       0.30792554       0.00877282
C       11.17859328       4.95807900       7.59817921       0.03879402       0.15720847      -0.09072886
C       -2.35023563       7.08511235       7.49593718      -0.03342808       0.13708588       0.04184476
C       -0.02272008       7.12295236       7.35153312      -0.27832030       0.02718826       0.03716989
C        2.48545442       7.08389293       7.35067596      -0.23788416      -0.24893164       0.00063948
C        4.96444716       7.14295428       7.50811403      -0.35431908      -0.39844292       0.06372294
C        7.40018491       7.13881543       7.60170010      -0.00716586       0.03142731       0.07066487
C        9.82181327       7.11595723       7.69546513       0.55901777      -0.12712450      -0.06782600
C       -3.67568034       9.22452187       7.38676627       0.03328124       0.26992058       0.10926825
C       -1.20862291       9.21909245       7.40402410       0.00684051      -0.10451867      -0.08443569
C        1.24079373       9.24961167       7.24483075       0.21035566       0.13059540       0.09710067
C        3.68033444       9.16630477       7.59836405      -0.02231105       0.34216429      -0.12957055
C        6.18396199       9.26774279       7.68767104       0.01230657      -0.27314299      -0.06794960
C        8.63206447       9.20209280       7.68556378      -0.19511126      -0.10897298       0.02986947
C       -4.89512138      11.29732559       7.53152549      -0.21589331      -0.03609520       0.02252427
C       -2.46794099      11.37191414       7.30902785       0.33880563       0.20958104       0.06784073
C       -0.01443737      11.43093674       7.47118598      -0.17315750      -0.20794334      -0.04747832
C        2.47671042      11.33602340       7.44778882       0.19328133       0.04871591       0.08361496
C        4.94499367      11.36104608       7.60768873      -0.14151944      -0.11795092      -0.03926302
C        7.32839659      11.38218267       7.57472841       0.41476414       0.26923355       0.01844806
