72
Lattice="14.76 0.0 0.0 -7.38 12.782534959858314 0.0 0.0 0.0 15.0" Properties=species:S:1:pos:R:3:REF_forces:R:3:MLIP_forces:R:3 REF_energy=-11162.280473225552 MLIP_energy=6.599038780556445 config_type=s0_sscha_overlap_168 split=frozen_overlap_screen sscha_index=168 overlap_local_index=0 selection_group=high_committee_disagreement lattice_temperature_K=450.0 degauss_Ry=0.0019000869 kgrid=8 sscha_random_seed=453005 pbc="T T F"
C       -0.02031540       0.04215193       7.67189338      -0.76346903      -1.59200239       0.17601181      -0.06221895      -0.35918687       0.01261113
C        2.52611978       0.09857162       7.55404102      -2.10461172      -0.60882437      -0.04030307      -0.16800862       0.04688168      -0.00418317
C        4.92710575       0.02144970       7.45692792       4.06983596      -1.12108917      -1.03704289       0.01937707      -0.05192812      -0.07444131
C        7.36747221      -0.01298980       7.33496465       1.74684014      -0.83104996       0.19085839       0.21691285      -0.06637399       0.01715143
C        9.86892588      -0.02459077       7.40739611     -11.17824303      -4.18681807      -1.13011631      -0.61203275      -0.20650737      -0.03468618
C       12.25836221      -0.09452661       7.56639119      -1.37135444       2.62061644       1.26309068       0.04804603       0.39733462       0.09113462
C       -1.32562768       2.12270711       7.79338529       1.83270624      -0.18743625      -0.68103149       0.37933412       0.11693255      -0.05094901
C        1.27648230       2.12044762       7.62380048      -3.31680175       0.42894023      -0.59330545      -0.22354223       0.13589617      -0.04507386
C        3.70972887       2.10883306       7.49571191       1.38425983       3.01860469      -0.55809574       0.10649670       0.03039966      -0.04161924
C        6.23234775       2.07521370       7.34629292      -2.19200454       3.36537426       0.56575145      -0.40572531       0.03675339       0.04338037
C        8.59381823       2.13524099       7.35484327       2.40426762      -2.05102298       0.72025033      -0.01726548       0.07715372       0.05757419
C       11.01561176       2.10554334       7.56436042      -0.38638898      -0.77149704       1.08132037       0.10206669      -0.24396852       0.07958393
C       -2.52045401       4.25669238       7.61140241       1.19971350       0.29416788      -0.68917649      -0.13745960       0.13087130      -0.04821821
C        0.00724932       4.20023272       7.52560112       0.16939173       1.39750358       0.19637392      -0.03113676      -0.02397669       0.01389327
C        2.41714867       4.31867952       7.53986012       2.68618497      -4.21485621      -0.32002495       0.50717798      -0.25467797      -0.02241942
C        4.93635931       4.18162930       7.55527338       0.14794436       4.01648043      -0.16704457       0.11523928       0.45641360      -0.01492645
C        7.39091703       4.25605625       7.40537385      -0.16908294       0.39980320       0.61362848       0.27516618      -0.07304920       0.04608526
C        9.79586793       4.26786861       7.40404991       2.34526954      -0.97319134       0.75271590      -0.09111762      -0.07461857       0.05731405
C       -3.68370736       6.38587663       7.50437658      -0.39447536       1.95313723      -0.77287747      -0.19248096       0.19212772      -0.05752045
C       -1.19697640       6.37430392       7.54778907      -1.22769250       0.08437384      -0.40413114      -0.28603267      -0.17824712      -0.03076378
C        1.23617921       6.39809704       7.40374077      -0.30651535      -0.44033818       0.70922801       0.04364730      -0.03648291       0.05561088
C        3.69966029       6.37291393       7.49554298      -1.44453652      -0.85074461       0.01862636      -0.16753741       0.14506537       0.00065720
C        6.12998806       6.41769871       7.47868720       1.27989130      -0.44266297       1.47004186       0.43210338      -0.10973248       0.09961983
C        8.53727669       6.43768843       7.49335150       5.84729511      -2.69844527      -0.37534841       0.36058911      -0.20782190      -0.01813381
C       -4.94581462       8.58611159       7.57986979       4.79959731      -3.28132156      -0.89160561       0.41993960      -0.31999720      -0.06680120
C       -2.39034890       8.58410886       7.61231164      -2.37670334      -2.16375403      -0.24301399       0.10924550      -0.07608778      -0.02377771
C        0.07260124       8.42416302       7.50964524      -3.54801001       7.17865527      -0.15975472      -0.47368163       0.64101318      -0.01931871
C        2.48174325       8.49580560       7.41811839      -1.29251130       1.39550969      -0.75342604       0.00986480      -0.11133674      -0.04922084
C        4.95069603       8.55415643       7.45491691      -0.43463985      -3.14455738       0.00821545      -0.38060448      -0.34026874       0.00336571
C        7.41166221       8.57604989       7.53284194      -0.27995277      -0.58018306      -0.40582755      -0.07064986       0.10926994      -0.03000162
C       -6.07245078      10.74011903       7.55641663      -3.51287691      -0.62681644      -0.64655068      -0.22305319       0.16757870      -0.04747137
C       -3.69317302      10.67781782       7.50842063       0.59152445       0.90826790       0.59697493      -0.01236611       0.11080498       0.03952128
C       -1.26481331      10.61722511       7.53108588       2.85809381       2.27204504      -0.38488360       0.34531232      -0.08906444      -0.03093361
C        1.15159164      10.65223187       7.43194939       3.26499428      -1.25229513      -0.67307701       0.20805464      -0.20482782      -0.04770566
C        3.67358403      10.57653925       7.41167977      -0.80254337       2.59178691      -0.47195324      -0.02958777       0.36516046      -0.03158654
C        6.14399131      10.70722345       7.33241724       1.87435143      -2.98011271       1.27149587       0.20946740      -0.23062407       0.09738655
C        1.19948679       0.71789637       7.67838486       3.15159938       1.06522758      -0.44192764       0.13567016       0.12138651      -0.03750808
C        3.79443471       0.75025078       7.43304189      -4.07450791      -0.88223471       0.88722368      -0.29047773      -0.22827435       0.06934828
C        6.22984731       0.72440484       7.30123803      -4.32401830      -1.97143937       0.85151183      -0.29215834      -0.05615441       0.06612535
C        8.55648421       0.67455851       7.37218603       2.97520267       1.81048111      -0.37947991       0.12982713       0.25911238      -0.02499720
C       10.89837978       0.62419523       7.56612804      13.10524320       6.12437699       0.74129532       0.74911553       0.23407231       0.01186304
C       13.46372834       0.65906704       7.78784494      -0.55328289       1.78599778      -1.20469553      -0.12897409      -0.00371564      -0.09022761
C       -0.03180185       2.82454046       7.59476845       0.51672052      -2.22684145       1.23861249       0.09320734      -0.29482882       0.08703677
C        2.47504383       2.80957351       7.44773907      -0.17291029       2.06369647       1.48799922       0.31248409       0.29530511       0.10598370
C        4.95602378       2.81992159       7.51528111       0.70955865      -2.16106954      -0.76490962      -0.03076648      -0.00178492      -0.05563158
C        7.42432349       2.82201626       7.36628488      -2.04206860       1.53991570      -0.30099776       0.04069002      -0.09919690      -0.01827606
C        9.84793810       2.84754543       7.50340362      -2.08992789      -0.65255472      -1.33402845      -0.40692186      -0.15444056      -0.09567328
C       12.20836021       2.85998700       7.74437051       1.19665800      -1.97619771      -0.75277530      -0.06634249       0.09656121      -0.05959028
C       -1.19456646       4.88695789       7.51020829      -2.97423337       3.30900360       0.75360499      -0.13913580       0.26911974       0.05118077
C        1.22688273       4.97529953       7.55338172      -1.37678229       0.68534606      -1.06822626      -0.43711339       0.14699434      -0.07389129
C        3.68614743       4.92587342       7.56934807       0.43658823       1.35265814      -0.37978459       0.06590395      -0.13250487      -0.03029754
C        6.16350944       5.01063517       7.49121820      -0.38945888      -2.54417240      -0.27749222      -0.11030589      -0.20979106      -0.02182259
C        8.62622780       4.94566934       7.45691265      -3.42322151       2.84574403      -0.51052056      -0.04157938       0.38517663      -0.03562104
C       11.01335106       4.96859252       7.44537290       1.98403032       0.69843966       0.75377571       0.33521922       0.03205373       0.05422257
C       -2.44238828       7.16080269       7.56499216       0.74975965      -3.09965769       0.13262161       0.31935649      -0.19663404       0.00737714
C        0.02280982       7.13200633       7.47872163      -0.32657844      -6.78922030      -0.03544960      -0.29662461      -0.35288292       0.00337596
C        2.44621450       7.11568116       7.36527820       1.38855872      -2.14148776       0.87634894      -0.03262861      -0.34288002       0.06661227
C        4.89087474       7.06290183       7.55180623       1.66592264       2.96426777      -0.87161040      -0.13736320       0.08393027      -0.06484372
C        7.41087616       7.13835802       7.60990112      -3.95786082       1.32834065      -1.23893542      -0.27224035       0.32246872      -0.09249200
C        9.85102627       7.12743269       7.40892812      -1.68766774       0.42089473       1.79368153       0.12784012      -0.08197689       0.12450003
C       -3.63723014       9.25849734       7.60474601      -2.28124059       1.09936232      -0.34973611      -0.30023335       0.31654876      -0.03053222
C       -1.19115621       9.23515098       7.55875483       1.35760598      -0.87551591       0.16265133       0.29859429      -0.30925561       0.00552387
C        1.19284547       9.19147895       7.41050863       3.49368620       1.23018827       0.50718764       0.51363257       0.26817576       0.03840428
C        3.72301210       9.19165618       7.39746623      -1.43366024       0.44615170       0.28447868      -0.04003164       0.07453712       0.02340552
C        6.16056876       9.24107130       7.38311644       1.22071582       1.42573790       0.36995321       0.07397494       0.02955047       0.02908665
C        8.66207206       9.26590917       7.51106988      -2.47780888       3.09848938       0.58451459      -0.45347059       0.12297914       0.04318751
C       -4.90573116      11.50642530       7.53930398       1.47443922      -3.67164561       0.01409170      -0.01023629      -0.43135196      -0.00000598
C       -2.45251599      11.36717441       7.48801619      -0.92405088       0.31607805       0.19153382      -0.05318946       0.07678866       0.01366028
C        0.00466128      11.37282729       7.45686608      -3.40416861      -1.15975265      -0.11699034      -0.32829516      -0.09877933      -0.00840874
C        2.41360924      11.35629067       7.32984093       1.55853100      -2.84053215       1.05365222       0.34461629      -0.25407723       0.07974952
C        4.92364689      11.30292906       7.47970530      -2.30521381       0.85319050      -0.88371850      -0.13986432      -0.00839476      -0.06511228
C        7.36419428      11.41019919       7.50913393       1.83409413      -0.39751363      -0.00945317       0.14428132       0.22128488      -0.00084957
72
Lattice="14.76 0.0 0.0 -7.38 12.782534959858314 0.0 0.0 0.0 15.0" Properties=species:S:1:pos:R:3:REF_forces:R:3:MLIP_forces:R:3 REF_energy=-11162.236826574002 MLIP_energy=0.7478449074156421 config_type=s0_sscha_overlap_065 split=frozen_overlap_screen sscha_index=65 overlap_local_index=1 selection_group=typical lattice_temperature_K=450.0 degauss_Ry=0.0019000869 kgrid=8 sscha_random_seed=453005 pbc="T T F"
C        0.01358438      -0.02080645       7.58997408      -0.09082036       1.10484314      -0.72977344       0.03163754      -0.25996362      -0.05359888
C        2.39132831      -0.00260158       7.48098387       4.97499591       0.53059650       0.76496747       0.38726068       0.21728129       0.05689826
C        4.91774170       0.07612333       7.23886382       1.41287749       0.91938330       2.83850535      -0.26448107       0.11497755       0.20296054
C        7.37462041       0.05535273       7.42747147       4.69889183      -3.07818718      -1.02702716       0.46905088      -0.32328354      -0.07259963
C        9.79066468      -0.01788117       7.44007730       0.75866492       1.59536283      -0.17908993      -0.09641822       0.04482899      -0.01391243
C       12.27971636       0.03770182       7.51976333       0.00596419      -2.76625452      -0.28059040       0.19180582       0.05259954      -0.02162544
C       -1.28401533       2.06861573       7.41527313       0.81512686       2.44105471      -0.34813894       0.37202882       0.40291016      -0.02242469
C        1.11291734       2.14945790       7.38913334       6.69293197      -1.13503689       1.17125036       0.40430365       0.03280705       0.08564580
C        3.61173618       2.14806486       7.55618839       2.08447175      -0.58058260       0.14978656       0.19673881      -0.20587550       0.01151379
C        6.22838636       2.09607499       7.58360250      -3.71555646       2.67164641      -0.11899965      -0.64428185      -0.00801784      -0.00772616
C        8.62448815       2.20033563       7.57869076      -1.17791723      -2.22826995      -0.05341415      -0.22563299       0.14831782      -0.00591322
C       11.00326739       2.13697599       7.51569515       2.53785340      -0.04706199      -0.54266449       0.35490293      -0.31839622      -0.03923689
C       -2.44151930       4.27153900       7.32971272      -1.34753831      -0.54231765       0.52901682      -0.45003811       0.05401078       0.04202304
C       -0.05020662       4.28649968       7.40494451       3.67945534      -3.30583780       0.87524363       0.28457890      -0.49488546       0.06700417
C        2.41926688       4.32914209       7.54510458       5.57708528      -4.86488431       0.86143783       0.69816725      -0.13445644       0.06677185
C        4.88210880       4.22244186       7.72306757       0.66821711      -0.55616715      -0.57834369       0.22531962       0.25142424      -0.04316573
C        7.40289995       4.28964321       7.66751626      -1.01325324      -1.56027370      -0.11195612       0.27485908      -0.30653687      -0.00975886
C        9.86678528       4.29488433       7.62707764       1.83293199      -1.01543637      -0.85722945      -0.22678965      -0.10088630      -0.06397378
C       -3.70405646       6.43153744       7.39995621       3.56337877       1.17158229      -0.50957773      -0.01170124       0.11814016      -0.03810401
C       -1.16033580       6.37324781       7.39547269      -5.99408531       0.56935177      -1.27285882      -0.59361012      -0.22767905      -0.09084451
C        1.21496964       6.34296513       7.52223034       1.09326237       1.37080962       0.38557111       0.19583390       0.21951148       0.02728973
C        3.70501025       6.35640871       7.80743135      -1.53372500       1.92427120      -0.67485982      -0.12407802       0.45461878      -0.04827065
C        6.10720804       6.34121615       7.71906746       1.83086868      -1.17863611       0.86755371       0.52432313      -0.26872690       0.06367108
C        8.63359443       6.37998915       7.55320289      -0.13995594       0.68936649       0.91893412      -0.17617059       0.01297521       0.06733020
C       -4.93621150       8.59672212       7.49786007       5.41956922      -3.82595783       0.18388735       0.52929085      -0.48952271       0.01470276
C       -2.43501602       8.58219342       7.30506552      -0.61848786      -2.09737689      -0.07349138       0.34032130       0.01756483      -0.00641453
C        0.01897268       8.50699604       7.23331980      -1.95118474      -0.42547078       0.77829967      -0.43047533       0.17568933       0.05523167
C        2.45358857       8.50836887       7.41454833      -0.59037337      -1.84761787       0.18825772       0.11120263      -0.43678273       0.01632185
C        5.00345165       8.41880627       7.79112238      -4.60942567       1.68039384      -1.12421486      -0.78627995      -0.01409579      -0.08402602
C        7.35361020       8.45846785       7.65132135       2.64570603       0.12846234       0.82610007       0.18011705       0.24488694       0.05957912
C       -6.15160154      10.60418502       7.51857193      -0.98312017       1.90660438       0.72656419       0.01236998       0.43129352       0.05073002
C       -3.67537008      10.78388600       7.40758641       0.52804700      -3.55132390      -0.21016454      -0.13230679      -0.22851748      -0.01218386
C       -1.22610427      10.64642503       7.21181157       2.90783103       2.50525412       0.11087677       0.38239640      -0.08803314       0.00775127
C        1.25847679      10.64274337       7.29561217      -2.38616962      -0.87695907      -0.74009899      -0.30557740      -0.17012878      -0.05432386
C        3.71243417      10.65058269       7.37583314      -0.77031768      -2.80173883       0.64530344       0.03152391       0.05174084       0.04856389
C        6.15453468      10.63196853       7.78088958       0.03974437      -0.77065655      -1.58357355       0.14902191      -0.18453178      -0.11921687
C        1.27960129       0.70769133       7.52179402      -6.50928733       2.03208835      -0.51439161      -0.64780087       0.18336791      -0.03737157
C        3.66988321       0.75710879       7.59644923      -0.39201199      -3.07300332      -2.81297352       0.02321893      -0.49156918      -0.20206586
C        6.24840483       0.72731330       7.46049737      -6.24442488       0.73996580      -1.03698273      -0.35429416       0.26023918      -0.06930021
C        8.59701671       0.79515709       7.45397546       0.82786848      -2.34177207       0.50231565       0.01132482       0.07696485       0.03439755
C       11.03730061       0.73416862       7.50598886      -0.42692911      -1.84769938      -0.26400576       0.05065996      -0.26089784      -0.01830570
C       13.51810478       0.68062075       7.47801861       0.38141827      -0.08516368       0.76257968      -0.14300911      -0.21513514       0.05596512
C       -0.04623924       2.81964039       7.41122119      -2.70072687       1.74420527      -0.39666388      -0.07715830      -0.11143198      -0.02604754
C        2.46562753       2.87163073       7.47960620      -4.93123728       1.09766076      -0.22301852       0.01747559       0.30408545      -0.01607842
C        4.84865363       2.80439480       7.56347360       3.63371824       0.87207603       0.94845245       0.06958287       0.25398433       0.06673116
C        7.39558369       2.85287742       7.62837145      -0.08378865       1.67479989       0.20283844       0.24097298      -0.16208183       0.01400778
C        9.82386963       2.83621144       7.59551032       1.24418664       3.35080562       0.07759127      -0.27024399       0.14821019       0.00457845
C       12.27314749       2.82322625       7.36283600      -0.71943246       0.39137667       0.74377129      -0.09328297       0.26106530       0.05806152
C       -1.22333033       4.94979655       7.37163244      -0.45714446       1.69526098      -0.08190275       0.08202074       0.24284638      -0.00389155
C        1.27096305       4.92858598       7.59490366      -6.90595944       3.17269348      -1.38071634      -0.92823545       0.31066165      -0.10414656
C        3.68522816       4.98846438       7.75872233      -0.77751959      -1.62497474      -0.65003067       0.04699582      -0.43229068      -0.04812441
C        6.12799319       4.92788403       7.69827298       0.58787580       0.11838747       0.17929228      -0.13968912      -0.00946276       0.01504163
C        8.65947360       4.95532436       7.62052659      -1.48958019       1.84716279       0.03172998       0.13957193       0.41117716       0.00216631
C       11.11730377       5.05270927       7.45398046      -1.51137569      -3.64550110       0.13928206       0.12659829      -0.40025906       0.01056911
C       -2.44889402       7.16263087       7.23302970       0.90971466      -1.87649342       1.67828707       0.39948776      -0.01773731       0.12083625
C       -0.02860590       7.06251781       7.39751703       4.19395031       1.78969940      -0.24632762      -0.02453784       0.25500749      -0.01581902
C        2.45320283       7.07105917       7.57349524      -0.26593331      -0.10726617       0.38464500      -0.08323945      -0.26640358       0.02505076
C        4.93797718       7.04222813       7.84741010      -0.74700368      -0.00360392      -0.35281963      -0.44055235      -0.13780146      -0.02528429
C        7.33452205       7.03928156       7.70268898       2.30856730       0.58375226      -1.17049600       0.13350855       0.29534256      -0.08551392
C        9.89573791       7.12739268       7.51521849      -4.26694316       1.15142458      -0.24818627      -0.02227271      -0.12154784      -0.01937577
C       -3.64179259       9.25929879       7.46458031      -2.21040387       3.63836191      -0.74948094      -0.40876733       0.50207858      -0.05325291
C       -1.21796906       9.24507137       7.24978014       1.00355813       0.38756243      -0.39403827       0.31301132      -0.28961807      -0.03150264
C        1.18836197       9.22531365       7.27749335       2.93608128      -0.42920633       0.04688509       0.53422300       0.25731734       0.00290078
C        3.70496646       9.09320593       7.47095118       1.79147758       4.45181139       0.89848228       0.24427575       0.50675726       0.06265812
C        6.16666216       9.14811315       7.78208861       0.59393794       2.98844951      -0.17855026       0.09685509       0.03058893      -0.00996533
C        8.65994722       9.20823009       7.58383801      -5.31019166       0.88374241      -0.14573655      -0.75513215      -0.05573128      -0.01102257
C       -4.98235784      11.38035170       7.45848764       2.30687243      -0.67441090      -0.06467790       0.08860447      -0.32341676      -0.00848579
C       -2.38473500      11.45986853       7.24831006      -3.29902309      -1.50342892       0.16172290      -0.18877210       0.05053071       0.01462165
C        0.09014744      11.39571086       7.23937642      -4.02077777      -0.36723221       0.70055876      -0.50563925      -0.02606959       0.04798159
C        2.41551151      11.33315576       7.31837763       4.63030894       1.46954178       0.60347802       0.64397816      -0.01809268       0.04478066
C        4.94673873      11.32382716       7.53410479      -1.43724744       1.76405368       0.58358591      -0.17599346       0.04235547       0.03988996
C        7.37106704      11.37278246       7.63342794       0.51146107      -2.41806133       0.46001304       0.11704087       0.16170799       0.02864667
72
Lattice="14.76 0.0 0.0 -7.38 12.782534959858314 0.0 0.0 0.0 15.0" Properties=species:S:1:pos:R:3:REF_forces:R:3:MLIP_forces:R:3 REF_energy=-11162.781070169973 MLIP_energy=2.267182523405867 config_type=s0_sscha_overlap_020 split=frozen_overlap_screen sscha_index=20 overlap_local_index=2 selection_group=low_Aprime_amplitude lattice_temperature_K=450.0 degauss_Ry=0.0019000869 kgrid=8 sscha_random_seed=453005 pbc="T T F"
C        0.00557350      -0.01929925       7.37432102       1.07161189       1.19821403       1.51025391       0.13248814      -0.20148441       0.11205525
C        2.39869631      -0.00462237       7.32138239       1.06687489       2.36296953       1.79830283       0.06083793       0.34270071       0.13633420
C        4.92197365       0.04506368       7.64635557      -2.37549492      -3.62024695      -0.69091661      -0.50755738      -0.26144647      -0.05316010
C        7.42513206       0.10099682       7.66253767      -1.55138694      -3.93707114       0.58441766      -0.00919372      -0.39144926       0.04233839
C        9.91465902       0.01054282       7.58662137      -3.16253865       0.29724858      -1.19173125      -0.34620681      -0.00836611      -0.08486852
C       12.34868064      -0.03434082       7.56120303      -1.79004007       4.86483854      -0.96108248       0.08379535       0.56355935      -0.07184482
C       -1.18045260       2.07568424       7.57773886      -0.32663552       2.94507269      -1.35445149       0.23537682       0.42105804      -0.09847526
C        1.17275732       2.16763184       7.38601224       3.30231050      -1.01058572      -0.09549437       0.10266461       0.01028679       0.00074125
C        3.64973177       2.13074172       7.31971692       1.25303535      -1.55689578       2.48437522       0.13914822      -0.23764537       0.18249850
C        6.10431308       2.06812464       7.57637631       1.62101138       3.15109390       1.26828688      -0.21747122       0.08054075       0.08764307
C        8.64314032       2.13174055       7.59665848      -0.53998026       1.21964161      -0.15990539      -0.13614592       0.35679781      -0.01418620
C       11.07502445       2.15723037       7.49587438       1.59679390       0.88657936       0.17708216       0.25129559      -0.25886424       0.01204180
C       -2.40534991       4.29793825       7.47918038       0.54865207      -3.00991308       0.21350029      -0.28521260      -0.18078556       0.01409038
C       -0.00226227       4.23640051       7.48593857       0.53782542       2.48665579       0.13707065       0.10603262      -0.02120014       0.00772551
C        2.44137612       4.28293121       7.51384898       1.09543136      -1.57182026      -0.93146260       0.33723616       0.10506791      -0.06511260
C        4.91131065       4.25166477       7.42271236       1.60397011      -1.98825233       1.16981466       0.32164840       0.08760406       0.08616768
C        7.42601546       4.25202457       7.50486535      -2.62750905      -1.78907925       0.54390453       0.07650911      -0.32669217       0.03857605
C        9.90168298       4.35600375       7.47099258      -2.71690502      -5.08472108       0.87265272      -0.52482210      -0.35365130       0.05842701
C       -3.70113207       6.32616804       7.47676718       0.55184796       2.06537797      -0.52138141      -0.21321634       0.14984919      -0.03620302
C       -1.17529533       6.46263811       7.51325654      -3.27432456      -3.85065070      -0.45518168      -0.35710270      -0.51405330      -0.03257734
C        1.23519082       6.39839756       7.49991709       1.31971434      -0.97439231       0.37071862       0.15220232       0.04801108       0.02407948
C        3.72520640       6.40963131       7.31971181      -0.38047262      -1.97071432       0.61036241       0.00746666       0.12064446       0.05170230
C        6.18937598       6.42517125       7.33210945      -5.90096201      -4.35287714       0.39877810      -0.05716648      -0.46477836       0.03256490
C        8.57500112       6.41369680       7.37362912       0.67934536      -1.18941983      -0.09713139      -0.08408421      -0.06750891      -0.00078786
C       -4.93107722       8.54460927       7.44711260      -2.30042179      -2.97546493      -0.87408611       0.00622678      -0.39325127      -0.06101760
C       -2.49459466       8.50633110       7.49355547      -1.23368523      -0.82440572      -0.78597467       0.20454201       0.11051639      -0.05383183
C        0.04408603       8.47801814       7.66741282      -2.60476533       1.16791744      -0.27527105      -0.45909395       0.22693029      -0.02478088
C        2.50213172       8.46089111       7.45168522      -4.04799675       0.18473993       0.90778376      -0.17909233      -0.27033059       0.06405370
C        4.92419872       8.58548798       7.46735959      -2.99452734      -4.40063589      -1.42999230      -0.61805244      -0.41518601      -0.10021567
C        7.34758456       8.52269336       7.56076795      -1.25681513      -0.44859297      -1.09391723      -0.06768294       0.15647932      -0.07808609
C       -6.15087279      10.63898108       7.41976899      -1.55375981       0.53411069       1.72630397      -0.07683844       0.33489207       0.12210903
C       -3.69371944      10.65868746       7.45751935      -1.74678820      -0.09018607      -0.40066426      -0.27122289      -0.01319770      -0.02636577
C       -1.18178745      10.65334841       7.58408629      -3.13907939      -0.10777370       0.58434361      -0.04291831      -0.21951435       0.04541889
C        1.15241568      10.61925851       7.78222611       4.34216001       0.45911006      -1.47149659       0.20712296      -0.02147949      -0.11160220
C        3.69932880      10.65353384       7.50987330      -4.01043859      -0.83574222      -1.02828031      -0.17991513       0.15496181      -0.07442911
C        6.15191166      10.68763032       7.60395523      -1.28718089      -1.30973281      -0.32947144      -0.00727264      -0.23764648      -0.03158475
C        1.18701423       0.78145310       7.36626138       0.53143957      -3.39215462      -0.88592167      -0.14098633      -0.25326184      -0.05479601
C        3.65071819       0.68929884       7.50888260       0.41097567       0.98542131      -1.52634259       0.05260468      -0.17291664      -0.10994158
C        6.12537902       0.70901766       7.74183438       1.91367723      -0.24735401      -1.20412397       0.16528819       0.18463802      -0.09258250
C        8.65259198       0.72316380       7.53332527       0.75318564       0.83299397       1.24767023       0.04260895       0.27463145       0.09034656
C       11.08062988       0.76235898       7.47797934       2.32462179      -2.39101204       1.05496785       0.31315335      -0.30224041       0.07152568
C       13.60017084       0.70223374       7.52897391      -2.57972973      -2.02339237      -0.05077929      -0.32609773      -0.29149012      -0.00476006
C        0.02133706       2.86317512       7.44858532      -2.65811752      -0.99414815       0.76912854      -0.02984574      -0.25805285       0.05259713
C        2.43772039       2.80327859       7.39525610      -0.58156811       3.39035253      -0.03450703       0.29155685       0.47429959      -0.00000992
C        4.90617873       2.79135266       7.56260399      -1.30665520       1.66407659      -2.05274511      -0.27810135       0.27737180      -0.15272569
C        7.36638721       2.80068103       7.62391094       0.80451078       0.75008438      -0.77997371       0.23675346      -0.23459999      -0.06123620
C        9.86896601       2.88626619       7.58344709      -0.44476331       0.53892945      -0.94609783      -0.38248434      -0.00723183      -0.06658067
C       12.37817052       2.81646331       7.47559768      -1.85499925       1.31228077       0.69986739      -0.14060066       0.27077761       0.04605049
C       -1.18742693       4.99056917       7.48596850      -0.47428343       1.24229997       0.10964984       0.02836339       0.22378034       0.00735064
C        1.20886394       4.99174331       7.53438986       0.99459758      -0.99271039      -0.48057698      -0.33229054      -0.03167521      -0.03594351
C        3.72123748       4.94681545       7.41189460      -2.14563598       1.74146448      -0.19799397      -0.01598596      -0.13089968      -0.01122528
C        6.15093436       4.93010205       7.50222492       1.27529031       2.23903979      -1.56401954      -0.05855622       0.17553606      -0.10667567
C        8.62015403       4.96115921       7.43492052       0.88057764       2.52094171      -0.09617906       0.33388838       0.41359060      -0.00358233
C       11.11981950       4.93910780       7.52281776       0.32278169       1.70406675      -0.71763577       0.18562572      -0.01696987      -0.05341523
C       -2.50829584       7.05778493       7.44033568       2.86967329       1.94917439       0.96935886       0.46834270       0.27023333       0.07154905
C        0.03468965       7.09081364       7.53784796       0.03060384       1.42421503       0.29539430      -0.30671753       0.18115298       0.01912972
C        2.49543359       7.07621067       7.46090018      -0.80096137      -0.84094742      -0.63863683      -0.09829315      -0.27868662      -0.04659202
C        4.92204934       7.12295851       7.28934131       1.43045176       0.94966009       0.95712375      -0.23706291      -0.02625388       0.07371408
C        7.30110925       7.09799502       7.33722903       6.20169314       2.78421856       1.21413302       0.43186032       0.37996185       0.09159606
C        9.85236979       7.06972622       7.38683864      -1.76837287       1.21878877       0.73250678       0.10171076      -0.10679944       0.05623154
C       -3.75533117       9.20264131       7.36342880       3.04199942       2.65815223       1.28662013      -0.00515937       0.37002203       0.09782417
C       -1.28998560       9.20451911       7.61586756       3.75439580       0.72802766      -0.10399110       0.54157638      -0.21284617      -0.01268042
C        1.25222223       9.15276066       7.69554578      -0.39358113       2.48307733      -0.43031345       0.21903552       0.47284018      -0.03642846
C        3.62424952       9.15705368       7.37864614       5.21094528       5.49087774       1.18277945       0.50211711       0.51560440       0.08983884
C        6.09899874       9.22130487       7.61106222       3.09252365       3.31230721      -0.13229123       0.21598883       0.04726777      -0.01459594
C        8.55052278       9.22762455       7.48062100       2.02813760      -0.08056166       0.03369045      -0.19562206      -0.06625829      -0.00112132
C       -4.97701407      11.40894622       7.49088613       1.92742466      -2.81646456      -1.45063594       0.08638561      -0.42405633      -0.10506029
C       -2.48110403      11.34291655       7.48747433       1.95210442       1.52602814       1.19431496       0.15820870       0.27315868       0.08522558
C        0.01851872      11.40312226       7.76151297      -1.51737253      -0.10333572      -0.76589024      -0.29580844      -0.05200145      -0.05708787
C        2.40792852      11.39464928       7.53554084       2.20282349      -2.71234826       1.61281290       0.41369255      -0.33614410       0.11468155
C        4.87402702      11.40410235       7.46531800       2.68739364      -3.19644610       1.22732921       0.14791910      -0.26093613       0.08810571
C        7.38081002      11.36611795       7.57967867       0.11533429      -0.57999922      -1.73875171       0.12260664       0.24708560      -0.12816362
72
Lattice="14.76 0.0 0.0 -7.38 12.782534959858314 0.0 0.0 0.0 15.0" Properties=species:S:1:pos:R:3:REF_forces:R:3:MLIP_forces:R:3 REF_energy=-11162.163776253445 MLIP_energy=9.825806470919183 config_type=s0_sscha_overlap_099 split=frozen_overlap_screen sscha_index=99 overlap_local_index=3 selection_group=high_committee_disagreement lattice_temperature_K=450.0 degauss_Ry=0.0019000869 kgrid=8 sscha_random_seed=453005 pbc="T T F"
C       -0.02539502       0.04890260       7.68278889      -2.20534420      -1.74496761      -2.06005964      -0.12827794      -0.35149726      -0.14818173
C        2.38612219      -0.05157407       7.38784694       2.26688278       5.14441259       1.07870479       0.09476589       0.44183132       0.08022119
C        4.87380021       0.05394045       7.37321372      -0.04758572      -1.84039256       2.06803186      -0.25206622      -0.12901172       0.14826694
C        7.34481450      -0.10631842       7.46026438       1.27646659       3.88554854       1.05518331       0.12664328       0.28468547       0.07425609
C        9.84023553      -0.07705364       7.48380823       0.81612342       1.48416441      -0.44983121       0.03488480       0.09451058      -0.03014914
C       12.27632724      -0.05509853       7.43112431      -0.07061946       3.56386111       0.24589902       0.16200897       0.36139823       0.02122237
C       -1.19524075       2.14234155       7.35577444      -2.95430012      -0.63405589       0.46196939      -0.00862583       0.07799446       0.04069829
C        1.25932974       2.09472487       7.40915692      -1.36024624       3.65148045       0.06926089      -0.04310858       0.31399479       0.01194584
C        3.73229514       2.21093721       7.41682430      -2.72843025      -3.49546926       0.95450919      -0.19428269      -0.28236218       0.07372051
C        6.16622349       2.17268751       7.38193870       1.74553453      -3.65499926       2.41439262      -0.08469880      -0.41802463       0.17027080
C        8.64106454       2.08779324       7.37522995      -0.91800724      -0.66721515       1.13728815      -0.24225755       0.12166448       0.08467787
C       11.07375747       2.13233263       7.40864381       0.74803547      -1.60353919      -0.70932597       0.11227731      -0.31331936      -0.04325184
C       -2.37476087       4.29023802       7.52690016      -9.71060001      -3.42325777      -1.01229654      -0.84833032      -0.10894150      -0.07175292
C       -0.01727699       4.28159500       7.52590757       0.78257618      -0.69449533      -1.25040049       0.03492272      -0.15085310      -0.08321735
C        2.43950366       4.27455155       7.42097215       1.24118745       0.74521651       0.78872292       0.33611463       0.12307654       0.05892595
C        4.94116710       4.26422611       7.41598549      -3.36546502      -0.42034477       0.42372269      -0.08992728       0.13253195       0.03228834
C        7.42844667       4.25168635       7.31610464      -4.09231460      -1.68484339       0.43959976      -0.05133994      -0.20601947       0.03395987
C        9.87013393       4.26683025       7.41275609      -2.31633718      -0.75887575      -0.34553827      -0.39928137      -0.01917280      -0.02063238
C       -3.66709157       6.44426059       7.54114564      -1.81669958      -1.12362119      -0.85343244      -0.25467594      -0.10305313      -0.06410615
C       -1.18842831       6.41399307       7.51946653      -1.94997375      -0.74687179       0.00433077      -0.31203122      -0.17605730      -0.00606968
C        1.22669072       6.37545472       7.58475467       1.06013500       3.29161368       0.06241919       0.08887470       0.25594306      -0.00404673
C        3.69194882       6.42922047       7.53509543       1.50497287      -0.48736263       1.68886356       0.06212009       0.12922206       0.11529990
C        6.20657809       6.40713442       7.46474554      -5.46566241      -3.34190035       0.18809651      -0.12944133      -0.33156307       0.01842891
C        8.54058676       6.36286073       7.39762912       3.00245482       1.39781186       0.09329351       0.17904178       0.11300193       0.01009615
C       -4.92908256       8.50507566       7.57867774       0.40473535       1.64156375       0.80964039       0.19928382      -0.03491952       0.05130155
C       -2.45103501       8.53309095       7.55883900       1.53783439      -0.21174320       0.58452745       0.40629683       0.06524403       0.03557712
C        0.06455254       8.54301034       7.50456020      -0.98028065       0.37425595      -0.12335150      -0.22900993       0.18552315      -0.00860826
C        2.52242390       8.45758682       7.63103043      -2.46775587       4.18522810      -0.33586989      -0.13597604       0.09655358      -0.02939847
C        4.90849794       8.49621774       7.64442609       1.46080260       2.05747285      -0.65428199      -0.23499442       0.07497978      -0.05060558
C        7.34858109       8.56326632       7.55595953       3.83126998      -1.12073950       0.71653508       0.24862591       0.01486266       0.05090773
C       -6.10530056      10.75879341       7.58854212      -3.13751436      -4.41138979       0.26672367      -0.26961741      -0.12744890       0.01285557
C       -3.70957118      10.65486944       7.55611306      -0.44944863      -1.29160884       0.07350115      -0.17676453      -0.10042347      -0.00027871
C       -1.30434057      10.69211586       7.59466057       1.32361728      -2.25393290      -1.24086581       0.23640245      -0.37597408      -0.08628083
C        1.21569060      10.57667439       7.48769844       1.51267563       2.66583469       0.63475421       0.12797757       0.14574703       0.04512781
C        3.67513276      10.57295496       7.64437915       1.17418322       3.39358904      -0.49554234       0.21505688       0.39677456      -0.03993829
C        6.13532178      10.61505490       7.65161048       0.29370740       4.18652548      -1.18385031       0.06410194       0.28681998      -0.08978836
C        1.16413078       0.74956302       7.48054214       2.14046292      -3.58577565       0.20516221       0.11621905      -0.25786145       0.01469347
C        3.64149331       0.73980997       7.48443447      -0.17571793       0.56607490      -1.91085801       0.02995018      -0.07465252      -0.12521217
C        6.14011896       0.66867842       7.61683458      -0.11252047       1.64145731      -3.30915426      -0.03496859       0.25259583      -0.22946537
C        8.61969699       0.65584176       7.44139157      -0.99969916      -0.93426433      -0.19932554      -0.16879074       0.08337650      -0.01532439
C       11.07161750       0.69294000       7.33356883      -1.03657418      -0.80326919       1.23409506      -0.11018019      -0.09915060       0.09592812
C       13.47339496       0.70397644       7.51474083       2.24108279       0.72254529      -0.27086957       0.13886314      -0.10782408      -0.01994699
C        0.01304086       2.85718570       7.38247417       0.68951253       0.05657018       0.73024678       0.11795517      -0.10640308       0.05414189
C        2.45181499       2.85059519       7.43605244       1.51264555       0.58919734      -0.56132144       0.38535224       0.18257318      -0.03199430
C        4.96643073       2.82957084       7.45585474      -1.20210668       2.37304157      -0.87468184      -0.13530449       0.28930196      -0.06228942
C        7.41739784       2.83200019       7.47028417       0.01391455       0.13707785      -1.86799258       0.15367226      -0.17981175      -0.13267713
C        9.85673522       2.78030030       7.44205856      -0.31252607       3.03380866      -0.53521009      -0.22119991       0.17471929      -0.03363444
C       12.28550164       2.85458746       7.35345312       2.53039077       0.54755318       0.92690377       0.06032055       0.21619175       0.07221130
C       -1.28856908       4.94918799       7.53337853       8.05210632       4.34233664       0.23110078       0.49314942       0.26970287       0.02064220
C        1.24974997       5.01094842       7.47494767      -2.22950999      -1.77889666       0.47964675      -0.48748303      -0.09617390       0.03568407
C        3.66950072       5.03699626       7.51708115       0.82988011      -2.98391306      -1.14581135       0.12593401      -0.39307848      -0.08155185
C        6.10118822       4.90575222       7.34233160       5.29359288       3.94063108       0.36230597       0.30904751       0.33084624       0.02810165
C        8.57153492       4.96884434       7.28069148       3.35025412       0.17765809       0.96077240       0.47368944       0.13033997       0.07480708
C       11.01879086       5.02796481       7.48900802       3.78410155      -1.19124429       0.38884336       0.44294174      -0.15581195       0.02352893
C       -2.41034289       7.10565332       7.53393588      -1.13110978       1.01249965       0.08080746       0.15451473       0.09229909       0.00336803
C       -0.00651804       7.14802352       7.48999990       2.06160693      -2.15842722       0.72756949      -0.01010956      -0.08734110       0.04812953
C        2.50235253       7.13067312       7.73244479      -2.15693649      -4.13483808      -1.75481107      -0.24308928      -0.39552739      -0.13496867
C        4.96304905       7.12097891       7.62141117      -0.75083617      -1.27800925      -1.05487658      -0.35258700      -0.14612676      -0.07787200
C        7.34048352       7.06938797       7.54136547       3.21309271       3.65286653      -0.81875623       0.14566967       0.36809728      -0.05696167
C        9.81430432       7.11144975       7.45961770      -0.16533967      -1.04186808       0.54066314       0.16326753      -0.18884831       0.03821363
C       -3.68849729       9.21856794       7.67494276       0.15116235       0.32207515      -1.22597912      -0.11373173       0.19348532      -0.09583347
C       -1.17439227       9.23763242       7.57015887      -2.49155297       1.00866485      -0.08202848       0.03603476      -0.10632926      -0.01101855
C        1.31947565       9.22642658       7.46895568      -2.02634425      -2.68160172       0.94291172       0.05335733      -0.01358667       0.06410289
C        3.66108950       9.21231137       7.61848720       3.46523874      -2.18136557       0.61917461       0.36489779      -0.13475252       0.03980494
C        6.18092675       9.25825976       7.53175257      -3.14857242      -2.26915898       1.27150513      -0.22989760      -0.26216536       0.09224698
C        8.66830324       9.30221531       7.67509050      -3.08421051      -1.02859502      -1.45474354      -0.47175365      -0.12846335      -0.10700873
C       -4.90093091      11.37879542       7.51121915      -0.48641878       0.12298795      -0.11736237      -0.16206302      -0.12613579      -0.00951701
C       -2.55682103      11.37522410       7.43488083       3.23089503       1.14322482       0.78305261       0.16412594       0.14816444       0.05326318
C       -0.03484800      11.30498694       7.50448286       0.11141953      -0.53253203       0.02886115      -0.06001966      -0.10173027       0.00240926
C        2.49156946      11.27981549       7.61480106      -2.73838865       1.23065699      -1.05098521      -0.00935356       0.06176159      -0.07706974
C        4.89273499      11.39220428       7.58816954       0.57651820      -5.39625754       0.52146831       0.10942932      -0.42918342       0.03341488
C        7.35278902      11.36939173       7.55458156       1.05387616       1.30213571       1.65435267       0.12744797       0.30978454       0.11391148
72
Lattice="14.76 0.0 0.0 -7.38 12.782534959858314 0.0 0.0 0.0 15.0" Properties=species:S:1:pos:R:3:REF_forces:R:3:MLIP_forces:R:3 REF_energy=-11162.985558685616 MLIP_energy=3.593171020585997 config_type=s0_sscha_overlap_203 split=frozen_overlap_screen sscha_index=203 overlap_local_index=4 selection_group=high_Aprime_amplitude lattice_temperature_K=450.0 degauss_Ry=0.0019000869 kgrid=8 sscha_random_seed=453005 pbc="T T F"
C        0.01448446       0.00983969       7.45687167      -0.49267787      -1.05518562       0.59932055      -0.10432973      -0.36443478       0.04372642
C        2.45604579      -0.00906369       7.45509789      -1.02443034      -1.12460592      -0.02457795      -0.04956335       0.00754328       0.00122858
C        4.87381588      -0.00378096       7.48479850       2.27859287       0.77535164      -0.65519988      -0.09855629       0.13513736      -0.04598147
C        7.27716799       0.01714338       7.64793797       3.38540161       0.43995920      -0.34576787       0.42015576       0.03123223      -0.02770259
C        9.80560629      -0.00622033       7.63035269       1.32426957      -0.44367933      -1.07307947       0.07731087      -0.15098130      -0.08014198
C       12.31083829       0.03522536       7.58920707      -0.01256138      -3.08636740      -0.65738686       0.10452751       0.00859382      -0.05062872
C       -1.20439024       2.10066185       7.37442168      -2.61456457       0.21038129       1.68049565       0.13044942       0.10984686       0.12480070
C        1.13157385       2.14664375       7.36504460       1.39219297       0.21585697       0.04505164       0.00890802       0.18482676       0.00650271
C        3.62701405       2.17072952       7.42585840       1.24380509      -2.56475742       0.13719612      -0.01506643      -0.30822494       0.01111736
C        6.08134694       2.14196120       7.59674958       0.89394274       0.69156736       0.31174960      -0.22437330      -0.18690704       0.02181195
C        8.54776220       2.10818700       7.54107705       0.01982295       0.92816644       0.31311126      -0.19977921       0.34361131       0.02187473
C       11.04944755       2.18574431       7.47440660      -0.85568010      -3.94701925       0.90753874       0.14944681      -0.52356232       0.06435592
C       -2.40143522       4.25568191       7.53689499       1.54914982      -2.53750424       0.31223734      -0.14084082      -0.02339979       0.02206809
C        0.03191188       4.25484876       7.45732691       1.78456902       1.17634757      -0.64267320       0.19960867      -0.11869081      -0.04648629
C        2.45335199       4.19566394       7.27589529      -0.13108487       3.40683922       1.16887492       0.31677729       0.39700999       0.08869504
C        4.92307887       4.31139973       7.58222448      -2.14665748      -1.78547688      -0.17887370      -0.07238150       0.07453911      -0.01418280
C        7.31895699       4.28875665       7.56320880       2.56788594      -1.95766726      -0.45946848       0.43902567      -0.26549447      -0.03296943
C        9.92548801       4.25484387       7.40373418      -3.21638732       1.12681167       1.77199993      -0.54101920      -0.00319385       0.13204188
C       -3.60442397       6.48061569       7.58797484      -2.72507187      -4.22927212       0.48034378      -0.41155384      -0.20818118       0.03704783
C       -1.21808509       6.38892744       7.56514748       4.21006521      -2.92431103      -1.76257683       0.07247008      -0.44310483      -0.12981229
C        1.19877169       6.36850667       7.25711458       2.21930117       1.20938548       0.95171775       0.29120820       0.10347048       0.07210867
C        3.72873847       6.36274487       7.52272946      -1.86677285       2.78090055      -1.14691976      -0.19268346       0.46670641      -0.08569708
C        6.15632726       6.39757674       7.60861030       0.98681305       2.03114013      -0.84990797       0.47135202       0.06827395      -0.06221948
C        8.60918054       6.36903166       7.64855072       0.07182274       0.47520414      -0.40007188      -0.07802950      -0.03396813      -0.02775890
C       -4.86684364       8.53302816       7.65085586      -1.60740022      -0.24540717      -0.65847752      -0.06156922      -0.20939094      -0.04659589
C       -2.41530452       8.47609396       7.39846361      -0.61277230       2.51267716       0.07228811       0.23446975       0.27975580       0.00326893
C       -0.04045724       8.52079555       7.34301792       3.58495059       0.50230331      -0.52154776       0.04831842       0.26912752      -0.03710710
C        2.46542978       8.52543704       7.37568299      -0.44709581      -1.67089027      -0.08326569       0.11559209      -0.30905890      -0.00470061
C        4.91872563       8.51303243       7.53473766       1.84124848       1.89973105       1.27960950      -0.20231255      -0.05593492       0.09562944
C        7.43014063       8.53150998       7.70989302      -2.50279769      -0.17073848      -0.41289706      -0.27033758       0.17535442      -0.03136993
C       -6.15759085      10.58738154       7.67476938       0.51103246       2.91327585      -1.03732983       0.16764811       0.41691598      -0.07914889
C       -3.58609993      10.69700195       7.46441832      -6.46750819      -4.53061261      -0.73485239      -0.51642682      -0.23275295      -0.05746641
C       -1.24485921      10.68392032       7.28961123       1.97685849      -0.91986126       1.19943402       0.21623407      -0.25411635       0.08771614
C        1.24457359      10.64042052       7.41315973      -1.36151225       1.52417438      -0.47648584      -0.16480663      -0.05420415      -0.03418747
C        3.65158711      10.63230498       7.50858918       3.91504501      -0.65285040       0.98551335       0.24422319       0.17045967       0.07077908
C        6.20584089      10.66004623       7.59516697      -4.35339393      -0.18056549       0.65815716      -0.18481332      -0.07185581       0.04672143
C        1.21881846       0.75056208       7.46846903      -0.09326882      -1.58287858      -0.65521710      -0.13921653      -0.03816883      -0.04634366
C        3.67506436       0.66536556       7.40114183      -0.91230505       3.18074977       0.66347728      -0.20618339      -0.01227314       0.04861908
C        6.12028164       0.75439237       7.60366890      -3.01071012      -1.70734620      -0.34854414      -0.14487386      -0.03288550      -0.02741072
C        8.54800451       0.68388409       7.66916483       0.77826341       1.12069707      -0.46800274      -0.07416814       0.31875229      -0.03560495
C       11.08773357       0.69201120       7.54412319      -2.78155130       2.28815789       0.37073482       0.03921588       0.13514268       0.02647097
C       13.54746979       0.66953216       7.45176965       0.47631537       2.40195645      -0.21845429      -0.02097139      -0.06273314      -0.01218177
C       -0.08029218       2.91822863       7.43193270       2.86094979      -5.39529312      -0.77050974       0.25629826      -0.57240823      -0.05138076
C        2.38247499       2.80915634       7.28587532       1.10324545       0.23668419       0.69325554       0.48848274       0.14660521       0.05384423
C        4.88044406       2.86507325       7.60246293      -1.38105058       0.77744349      -1.00228569      -0.24607146       0.32325256      -0.07778631
C        7.30919277       2.84149143       7.55115097       0.64359083       0.48266574       0.23342557       0.27315367      -0.16415423       0.01907577
C        9.77492496       2.85913163       7.46587622       2.28973320      -0.92746119      -0.25294359      -0.19757323      -0.19662704      -0.01670286
C       12.30203561       2.76070513       7.57026779       0.58873609       3.65464265      -1.73319735      -0.07435124       0.42397342      -0.12659513
C       -1.12028950       4.90210795       7.46643250      -5.47973406       4.68372669       1.39525695      -0.27774537       0.37556541       0.09677566
C        1.25828227       4.96199162       7.34440785      -0.56446642      -0.38406779      -0.49775580      -0.38241039       0.10929106      -0.03504636
C        3.64689876       4.98503651       7.48957100       2.00559673      -2.36929419      -0.46242807       0.19416785      -0.43472028      -0.03495296
C        6.13052492       4.99837961       7.57483843      -0.04308346       0.47215327       0.50951577      -0.08264919      -0.05148276       0.03765309
C        8.59772471       4.94086897       7.51847530       1.38641930       1.16805268       0.09556302       0.26727574       0.30792554       0.00877282
C       11.17859328       4.95807900       7.59817921      -2.38649924       2.49360677      -1.21260398       0.03879402       0.15720847      -0.09072886
C       -2.35023563       7.08511235       7.49593718      -4.46118717       1.64647250       0.56087304      -0.03342808       0.13708588       0.04184476
C       -0.02272008       7.12295236       7.35153312       0.64339877      -1.65279253       0.53602564      -0.27832030       0.02718826       0.03716989
C        2.48545442       7.08389293       7.35067596      -1.09903450      -0.07018983       0.00603232      -0.23788416      -0.24893164       0.00063948
C        4.96444716       7.14295428       7.50811403      -1.18164045      -3.09601855       0.85468200      -0.35431908      -0.39844292       0.06372294
C        7.40018491       7.13881543       7.60170010      -0.43067958      -2.44773932       0.97156666      -0.00716586       0.03142731       0.07066487
C        9.82181327       7.11595723       7.69546513       3.56158903      -0.69896725      -0.86406447       0.55901777      -0.12712450      -0.06782600
C       -3.67568034       9.22452187       7.38676627       2.38592537       0.05369389       1.46987911       0.03328124       0.26992058       0.10926825
C       -1.20862291       9.21909245       7.40402410      -1.97318746       2.15199818      -1.17748889       0.00684051      -0.10451867      -0.08443569
C        1.24079373       9.24961167       7.24483075      -1.21085923      -0.97137254       1.31448138       0.21035566       0.13059540       0.09710067
C        3.68033444       9.16630477       7.59836405      -0.07698963       3.02893359      -1.76567476      -0.02231105       0.34216429      -0.12957055
C        6.18396199       9.26774279       7.68767104      -0.30453766      -2.24987596      -0.89379388       0.01230657      -0.27314299      -0.06794960
C        8.63206447       9.20209280       7.68556378       1.13240871       0.98036189       0.44368242      -0.19511126      -0.10897298       0.02986947
C       -4.89512138      11.29732559       7.53152549      -0.60869376       2.30443657       0.30581781      -0.21589331      -0.03609520       0.02252427
C       -2.46794099      11.37191414       7.30902785       3.24858087       2.06609068       0.83835241       0.33880563       0.20958104       0.06784073
C       -0.01443737      11.43093674       7.47118598      -0.76847162      -3.71003990      -0.67099956      -0.17315750      -0.20794334      -0.04747832
C        2.47671042      11.33602340       7.44778882      -1.73876996       1.57050746       1.21774285       0.19328133       0.04871591       0.08361496
C        4.94499367      11.36104608       7.60768873      -1.73045399      -0.00657354      -0.52895331      -0.14151944      -0.11795092      -0.03926302
C        7.32839659      11.38218267       7.57472841       5.81402041      -0.28642295       0.28927405       0.41476414       0.26923355       0.01844806
72
Lattice="14.76 0.0 0.0 -7.38 12.782534959858314 0.0 0.0 0.0 15.0" Properties=species:S:1:pos:R:3:REF_forces:R:3:MLIP_forces:R:3 REF_energy=-11162.248144604893 MLIP_energy=8.197445232290695 config_type=s0_sscha_overlap_094 split=frozen_overlap_screen sscha_index=94 overlap_local_index=5 selection_group=typical lattice_temperature_K=450.0 degauss_Ry=0.0019000869 kgrid=8 sscha_random_seed=453005 pbc="T T F"
C        0.02732167       0.08399910       7.25731887      -1.96297119      -2.77827957       0.01311700      -0.12221335      -0.33844522       0.00179012
C        2.43521821       0.07568281       7.40026617       2.68952329      -4.41105066       1.24958853       0.06969370      -0.28133650       0.09107345
C        4.96158205      -0.03605385       7.67723634      -2.42688279       2.51224932      -0.59388215      -0.37366164       0.11349028      -0.04499427
C        7.42743340      -0.01839804       7.58001055      -0.71232182      -0.84366431      -1.03919542      -0.06296805      -0.06646313      -0.07441243
C        9.91143271      -0.06970536       7.42920426      -1.23834201       0.12950492      -1.55292908      -0.06450551       0.04534918      -0.11253469
C       12.32207043       0.03316884       7.29008882       3.71814659      -1.59261097      -1.49108300       0.47232344      -0.02807566      -0.10956132
C       -1.20325504       2.23349331       7.33641776      -1.87863540      -1.53964394      -0.61445406       0.01667836       0.00525222      -0.04349795
C        1.22213197       2.12081137       7.41380138       2.34126788       3.67245088      -0.66533902       0.16350138       0.30153509      -0.04646150
C        3.68861194       2.09863285       7.49693561      -0.47409343       1.88614174       0.55233724       0.03902620       0.04744243       0.04106594
C        6.17238638       2.08843090       7.55980879      -1.77341892       3.99486028       1.17463085      -0.35818381       0.20851337       0.08643426
C        8.55757705       2.13084218       7.33775072       2.44119406      -1.87703798       2.43669977       0.06933578      -0.01672999       0.17648818
C       11.04313948       2.08760772       7.33405835       0.00297451       0.63022701       1.54485171       0.00322206      -0.13701582       0.11333102
C       -2.52382337       4.29903474       7.45546517      -2.80091093      -0.90983550       0.58079344      -0.37144989      -0.05191556       0.04010293
C       -0.00669091       4.28947359       7.48502067      -0.11771590       0.08778286      -1.47712396       0.14880811      -0.09705721      -0.10530376
C        2.51693258       4.28063944       7.60715897      -3.51010783      -2.40743213      -1.32898214      -0.06257237      -0.06911651      -0.09528120
C        4.94840740       4.26134146       7.52036239      -2.84443534      -0.85672243       1.11491466      -0.04612955       0.00531008       0.07763045
C        7.35617653       4.24274950       7.53532704       1.16255643       3.40230970       1.09160838       0.16665381       0.13381514       0.07980161
C        9.78372654       4.21817221       7.63621903       0.10299994       1.69680005       0.15299504      -0.20522951       0.20230769       0.01112104
C       -3.67471867       6.41587357       7.62583526      -3.70290637       0.36116595       0.81234390      -0.39009573      -0.02078384       0.05777502
C       -1.22225846       6.38368199       7.53853608      -3.03607611      -0.34884985      -0.49724390      -0.35126238      -0.13774740      -0.03526721
C        1.17741493       6.32804612       7.55638439       4.08750278       1.36339327      -0.56887689       0.24497445       0.11071535      -0.04399735
C        3.67324636       6.38083933       7.60775016      -0.49147974       3.97436782      -0.63664525      -0.02311605       0.40326588      -0.04797567
C        6.09363381       6.34206122       7.70762054       1.35663050       5.99922468      -0.41691826       0.30389488       0.38275185      -0.03435745
C        8.54319863       6.39519646       7.82774840       1.76129334       0.45220897      -1.24992226       0.13135739       0.12370452      -0.08944372
C       -4.93962159       8.55535375       7.63009324       1.29351943      -1.11800667       0.49328208       0.22880458      -0.10698569       0.03568778
C       -2.45895460       8.55064755       7.59011245       2.30501790      -0.97816874       0.42593126       0.36625336      -0.00807943       0.02923408
C       -0.00221445       8.48706060       7.38834312       2.12958176      -1.45277690       1.37746415       0.04477114      -0.03759315       0.09971605
C        2.44172771       8.51451376       7.41049013       4.17202291      -1.54908374       0.46062264       0.27629457      -0.29159329       0.03426304
C        4.91365348       8.54131663       7.57874663       1.31895484       0.81932059      -0.15154468      -0.18727889       0.02678237      -0.01240595
C        7.35601989       8.54310122       7.62886858      -0.00119531      -1.52909521       0.82262600      -0.02444477      -0.05907742       0.05985318
C       -6.17170500      10.63021169       7.43742293       0.45067787       1.69696742       0.38429096       0.02575726       0.29886769       0.02973498
C       -3.65434612      10.69382882       7.55917094      -1.06670802      -3.84685318       0.14977242      -0.06723695      -0.33158925       0.01210047
C       -1.17719691      10.65732851       7.53576725      -2.52429340      -1.41440627      -0.48715720      -0.00625819      -0.22204941      -0.03348446
C        1.21664077      10.56505943       7.33232346       2.75186020       2.61123937       0.18416452       0.20504814       0.19082835       0.01427118
C        3.76314417      10.60857987       7.22147720      -0.60185360       2.46617953       0.76864517       0.02845629       0.26178072       0.05860402
C        6.16093902      10.67847413       7.39984600       1.03780317      -2.51021918       0.46314721       0.03355366      -0.21132215       0.03228653
C        1.24154932       0.75390731       7.36679503      -0.67269495      -0.87974588      -0.50924580      -0.08979413      -0.13262645      -0.03634273
C        3.67400767       0.74832345       7.57589711       0.84691161      -4.32251755      -0.49630004       0.04992310      -0.40873290      -0.03765501
C        6.14820125       0.76114486       7.71055291       2.31068512      -5.53661535      -1.01411868       0.09408803      -0.33410261      -0.07582615
C        8.66274051       0.62314478       7.40384567      -1.43443182       2.75564512       0.54064412      -0.13865852       0.27130591       0.03515313
C       11.12543112       0.64083653       7.30166863      -2.56728636       2.72483868       0.52486217      -0.15062302       0.16259644       0.03814166
C       13.56484833       0.80725818       7.17747319      -0.60767972      -0.55403751       1.49990934      -0.08326211      -0.08495150       0.10804740
C        0.04626720       2.89761763       7.33541982      -1.69459892      -0.44209502       1.10896899       0.02621711      -0.07331227       0.08098151
C        2.50972123       2.84589552       7.43136118      -2.35064135       0.15791073       0.98079589       0.06173387       0.14363842       0.06873429
C        4.87470938       2.76882578       7.60275237       4.07728110       3.79131607      -1.12411690       0.26425297       0.34734199      -0.07923620
C        7.39179630       2.87301086       7.57346905      -1.67905172      -2.85400216      -1.72245503      -0.07979652      -0.40736345      -0.12529216
C        9.79455404       2.79376950       7.54765360       0.55703438      -0.00226746      -2.08220121      -0.23993808       0.01570308      -0.15005863
C       12.22487133       2.86715118       7.45099838       2.28442542      -0.11260506      -1.24374133       0.09049554       0.10568437      -0.08964399
C       -1.33282389       4.98148534       7.38034832       3.89933300       0.12930798       1.55986129       0.24971679       0.03438016       0.11518764
C        1.26475756       4.95593270       7.50477646      -1.78251317      -0.99901525       1.09572035      -0.38185755      -0.09885325       0.07675867
C        3.63853415       5.01508507       7.62122314       5.49646629      -1.83832128      -0.35489708       0.51376767      -0.26692024      -0.02505375
C        6.14517646       5.01617053       7.57656211      -0.67895507      -5.16221259      -0.12774732      -0.06037933      -0.31430994      -0.00945401
C        8.59702880       4.99605636       7.66648152      -1.93179785      -2.32749088       0.12630441       0.09320155      -0.06202832       0.01166690
C       10.94442362       5.01044757       7.61503032       4.26720901      -1.56818267      -0.59690808       0.37161583      -0.14235731      -0.04422762
C       -2.47311421       7.13692837       7.63209309       1.54065669      -0.86960622      -0.78368021       0.25246715      -0.03199397      -0.05744834
C        0.00971018       6.98974688       7.49455936      -2.01631592       4.79828194      -0.23626561      -0.30712135       0.34825269      -0.01635651
C        2.41267802       7.09832027       7.52183240       1.05536406      -0.80878009       0.28918174       0.01071846      -0.15323174       0.02043989
C        4.92815909       7.17705595       7.58168351      -1.80465114      -5.05613710       1.00348948      -0.31614804      -0.41158930       0.07132406
C        7.32886513       7.09778152       7.76150611      -0.22119869       0.24512692      -0.08665672      -0.03747192       0.16446496      -0.00408205
C        9.78973320       7.10878392       7.72577354       1.31563606       1.28322987      -0.11442515       0.21687982       0.00160217      -0.00739356
C       -3.62264874       9.24305349       7.64046361      -3.83407763       0.93651019      -0.65004173      -0.33330710       0.16938594      -0.04638967
C       -1.16600643       9.23375435       7.51727049      -1.78957419      -0.30501640      -0.31034629       0.09471216      -0.14923189      -0.02182502
C        1.29683665       9.18761526       7.42482803      -5.37779136       0.37533067      -1.19578100      -0.21997483       0.20201510      -0.08203045
C        3.73034372       9.24281761       7.39538793      -1.93751032      -1.44572694      -0.17433853      -0.10461447      -0.05811264      -0.01501486
C        6.14847670       9.23804902       7.63902872      -0.22217185       1.35056604      -1.42378643      -0.12080870      -0.00199200      -0.10314234
C        8.58472866       9.24804524       7.55811474       0.28135659      -0.83195808       0.17707187      -0.20540616      -0.07924981       0.01233739
C       -4.87796622      11.27601174       7.49125008      -3.52202618       5.39179076      -0.81853332      -0.32679403       0.35604213      -0.05896557
C       -2.47824746      11.35047808       7.55299647       4.52997395       1.70878961       0.83751063       0.25286724       0.17594309       0.06138104
C        0.02090296      11.30239395       7.40023681       0.50974203       2.58738364       1.37654652      -0.00389494       0.09262844       0.09856496
C        2.49635646      11.31701627       7.29780246      -0.17388062      -1.29564882       0.18542230       0.12275361      -0.14252512       0.01501740
C        5.02505331      11.37128461       7.23201383      -4.88395829       1.03657469       0.46789064      -0.28588825       0.11790515       0.03302968
C        7.33136261      11.37482155       7.36186233       4.25155099       2.14672253      -0.19112321       0.39852626       0.29585907      -0.01471334
