72
Lattice="14.76 0.0 0.0 -7.38 12.782534959858314 0.0 0.0 0.0 15.0" Properties=species:S:1:pos:R:3:REF_forces:R:3 REF_energy=-11167.18235817408 config_type=fd_force_conv_snapshot_002 split=validation degauss_Ry=0.0019000869 kgrid=8 lattice_temperature_K=300.0 pbc="T T T"
C        0.01316236      -0.00897555       7.53346736      -1.69871320      -0.63747469       0.09149656
C        2.49610415      -0.00704414       7.50092270      -1.11606009       0.21210650       1.27696384
C        4.95280953       0.02259331       7.57342804       0.12314839      -0.98906816      -0.43720632
C        7.42050698       0.02486006       7.46893406      -0.74060601      -0.70897218       0.37155989
C        9.83317561       0.00029122       7.42203653      -0.53066849       0.95742457       1.05517817
C       12.25294766      -0.01306105       7.42654396       1.80847205       0.01461621       0.40299111
C       -1.23140585       2.14076162       7.57844543      -0.91471983      -1.71497980      -0.70405084
C        1.25977471       2.15546810       7.51349012      -0.48537388      -2.33662421       0.19929392
C        3.71003137       2.11101141       7.53215900       0.66937668       0.06750766       0.45603220
C        6.16480991       2.14524232       7.48979645      -1.22800335      -0.85691757       0.28825023
C        8.57615786       2.15141467       7.43924612       2.23266628       0.51866710       0.15337093
C       11.06466297       2.10041778       7.44893853      -1.49206104       0.73728826       0.65989882
C       -2.47828114       4.26885819       7.44901033      -1.00206817      -2.10275512       0.70058807
C       -0.04790608       4.21967736       7.44310017       0.36718310       1.70309899       0.45646466
C        2.47511791       4.22663074       7.46343331      -1.28689550       0.70278200       0.78749136
C        4.93087534       4.22476539       7.47029294      -0.71058529       0.99705864       0.62855759
C        7.40017494       4.25152298       7.41382726       0.36000741       1.39834870      -0.66300652
C        9.87537903       4.31110765       7.36407023      -0.24707479      -1.03942836       0.27016406
C       -3.61797941       6.41079464       7.40345770      -1.94884529       1.63062011       0.48002933
C       -1.23800808       6.41504454       7.45794608       0.59582282      -1.09204367      -0.44986206
C        1.21368968       6.39964275       7.45252955       0.51824004      -1.66061897       0.80278351
C        3.65961180       6.36587236       7.60192840      -0.23989267      -0.58121587      -0.12460620
C        6.11614584       6.34286770       7.47958211       0.79248727       1.71514410      -0.13327339
C        8.64581052       6.40324712       7.36697358      -0.56174362       1.55520605       0.56315567
C       -4.96748228       8.54193022       7.54895020       2.42387897       0.04173646       0.17843867
C       -2.45981357       8.56191055       7.50391053      -0.03154564       0.67294949      -0.05430581
C        0.03739021       8.54855800       7.46475252      -1.16683346      -1.36425099      -0.24047374
C        2.43635074       8.49246686       7.69106611       2.34290979       0.61352152      -0.66454301
C        4.87392120       8.47902100       7.53713670       1.59054664       0.90976351       0.49066856
C        7.33856215       8.51566398       7.54489062       1.73745844       0.32713894      -0.20530593
C       -6.14446660      10.66399366       7.57828787      -1.36691234      -0.25271116       0.56411135
C       -3.67619419      10.66509587       7.64185541       0.32596909       0.29260594      -0.62029766
C       -1.19433929      10.66872658       7.49293923      -0.61730130       0.03294432      -0.28503995
C        1.26023897      10.68407499       7.52404174      -0.58886361      -1.63021696      -0.25042082
C        3.66374719      10.64085877       7.51179611       0.44020500       0.06256780       0.64830752
C        6.08614946      10.61471038       7.44516760       1.60442597       0.97279951       1.00946112
C        1.23152915       0.69463952       7.54030679       1.29109874       1.06045304      -0.39341144
C        3.72210703       0.71581547       7.57336873      -0.31339254      -0.85454650      -0.44683588
C        6.18578045       0.70909125       7.51812874      -0.21486709       1.21843859      -0.06605961
C        8.62662495       0.74796353       7.49974149      -0.40058970      -0.81315817      -0.89291070
C       11.03616313       0.67503378       7.46334106       1.09343592       1.59291565      -0.57804904
C       13.51763250       0.69581632       7.48851836      -0.17243592       0.55577017       0.41921863
C        0.00678469       2.82283747       7.51851005      -0.10125904       0.16775651       0.02083648
C        2.52079992       2.80726469       7.52758798      -2.59470229       1.31363600      -0.60311215
C        4.90943947       2.84183321       7.54414091       1.48920043      -1.28778818      -0.70685874
C        7.36362359       2.85058190       7.42810198       0.72568307       0.22042967       0.14276590
C        9.83410694       2.87064719       7.44301558       0.05429810      -0.37146579      -0.52855813
C       12.25416551       2.81381678       7.55004160       1.98129467       1.09476081      -0.75296299
C       -1.30146269       4.93886443       7.46178333       3.36016649       2.19930545      -0.19816212
C        1.17046474       4.95285012       7.46290926       2.07050295      -0.26297269      -0.40999968
C        3.69519158       4.93216230       7.54200188      -0.42125648       0.88255276      -0.49317744
C        6.15340506       4.93069494       7.44658094       0.34441932       0.70699475       0.03309447
C        8.65235733       5.01306457       7.29858061      -1.30234731      -1.66867243       0.85419169
C       11.11201967       5.01397440       7.42986388      -1.34045826      -0.58461975      -0.61550898
C       -2.43226273       7.16531769       7.43424848       0.14303715      -1.36969376       0.23788875
C        0.01688289       7.09676360       7.43620160      -1.28326844       1.17840497       0.23521172
C        2.44101605       7.09463040       7.64084365      -0.18963608      -1.12695745      -0.56684520
C        4.85642582       7.07404376       7.53247199       1.96434287      -0.77884191       0.25566767
C        7.37491871       7.10770697       7.47402809      -0.47900089      -1.47486088      -0.19454843
C        9.88794219       7.13590690       7.46712805      -1.04904197      -1.18268226      -0.66173305
C       -3.71606172       9.26274725       7.59657661       0.80604881      -0.68858282      -0.24726453
C       -1.20979632       9.25377096       7.47073406       0.15520747      -0.01620849       0.21067208
C        1.27470380       9.20441596       7.50200624      -1.55285272       2.71914291       0.78961689
C        3.70302797       9.21759643       7.66338386      -2.19729690       0.05655990      -0.73658429
C        6.13084384       9.20495043       7.51988804      -1.74759142      -0.14577975      -0.31044014
C        8.59688447       9.25303273       7.56915065      -1.35845701      -0.70308487      -0.07359089
C       -4.91174884      11.35860680       7.63206579       0.28364950       0.86871765      -0.69069318
C       -2.42184828      11.37849670       7.51583284      -0.85793882      -0.06782287       0.92428125
C        0.02421262      11.37397033       7.46331692       0.76839681       0.42509437       0.28030578
C        2.46531687      11.40369625       7.54492825      -0.44030810      -2.05621918      -0.68570190
C        4.87305850      11.35340690       7.43862698       0.49792807      -0.49906784      -0.15272327
C        7.33431619      11.33508631       7.58368888       1.02996104       0.52347429      -1.10088364
72
Lattice="14.76 0.0 0.0 -7.38 12.782534959858314 0.0 0.0 0.0 15.0" Properties=species:S:1:pos:R:3:REF_forces:R:3 REF_energy=-11166.63617386221 config_type=fd_force_conv_snapshot_006 split=train degauss_Ry=0.0019000869 kgrid=8 lattice_temperature_K=300.0 pbc="T T T"
C       -0.09823363      -0.00429110       7.57254554       2.48830438      -0.52380313      -0.07556832
C        2.43293412       0.02665778       7.67948559      -1.65505253      -2.07106036       0.17721637
C        4.89231803       0.05038416       7.67154632       0.48552712      -1.03187189      -0.64060449
C        7.37630426       0.00164664       7.44771152       0.03219715      -0.21941769      -0.21762280
C        9.86659075       0.04468849       7.42030791      -0.11169489      -2.84090290      -0.12763059
C       12.28597639      -0.02787062       7.42643072      -0.88051182       0.84177120       0.25155365
C       -1.21842636       2.13251448       7.32557265       0.39019190       0.71817365       0.51761140
C        1.23526147       2.09374891       7.54173095      -1.23825871       1.03987367       0.02788850
C        3.68184213       2.11497575       7.61718369      -0.86757248       0.25204499       0.35264223
C        6.13934343       2.17001101       7.51170077       0.55049736      -0.09538767       0.13069689
C        8.59317411       2.14293876       7.44683567       1.91973397      -0.49711354       0.83009351
C       11.08946034       2.15210397       7.40324411       0.12772983       0.43934085       0.23940416
C       -2.46904508       4.28772037       7.41713284       1.10809635       0.29198913      -0.53234717
C       -0.00019887       4.27215428       7.37413009      -0.27403512      -1.56888535       0.09657423
C        2.47542101       4.19713347       7.41699811      -0.20819354       0.21395589       0.99858047
C        4.91229608       4.26664964       7.53458290       0.28942548       0.18476436       0.10754513
C        7.43873009       4.31596075       7.62998104      -1.69283772      -0.83412526       0.29120906
C        9.85888589       4.27183675       7.57134012      -0.01105754       1.34549968       0.38268762
C       -3.69794945       6.38215820       7.52415242       0.47152875       0.29245193       0.50021635
C       -1.16848010       6.37186501       7.44763547      -2.57126257       0.69795809      -0.06247935
C        1.28074584       6.33554707       7.36104842      -1.09185752      -0.37796193      -0.35330737
C        3.69053606       6.37665330       7.27225002       1.70488668      -0.26038050       0.78781660
C        6.10640995       6.41886717       7.64444197       2.03800189       0.19909183      -0.28912286
C        8.62164044       6.43276203       7.81048194      -0.72321738      -0.21098164      -0.97983405
C       -4.86815495       8.51570709       7.61948520      -1.31677069       0.58185967       0.71268794
C       -2.44494719       8.50010661       7.55186946      -1.05242889      -1.24640988      -0.35339762
C       -0.01038673       8.46069829       7.36955481       1.05519334       2.26551984      -0.52520413
C        2.53059410       8.45271576       7.21453218      -3.20408151       1.62001276       0.12816949
C        4.94074240       8.55234877       7.36192445      -0.39234854      -1.17356230       0.35027167
C        7.41947891       8.57943741       7.68005922      -2.60540451      -1.68326319       0.19427873
C       -6.15362852      10.63259051       7.66165970       0.24697040       1.10183778       0.38840370
C       -3.64883391      10.68035260       7.62430192      -2.47529743      -1.47226098       0.32747627
C       -1.26091170      10.63094755       7.56716299       0.31169715       0.74924569      -1.60848497
C        1.19617338      10.60244107       7.31437292       0.83557382       2.20341355       0.08375549
C        3.65558077      10.64397027       7.33421551       0.18811708      -0.07684847       0.35199096
C        6.09080134      10.67208218       7.56294313       1.28551404      -0.91196052       0.21121458
C        1.15460163       0.70725651       7.62035507       0.95716309      -1.30730491      -0.04259727
C        3.63732219       0.72336861       7.69026217       1.75147841      -0.28294425      -0.19227841
C        6.13572777       0.74109100       7.51148240       0.34306667       0.17141750       0.51196757
C        8.64838600       0.68797819       7.45010240      -2.44042659       2.01875358      -0.36504548
C       11.10493639       0.70275150       7.40520546      -1.38374150       2.07967433      -0.13013793
C       13.45767634       0.71172766       7.44462682       1.92853949       0.22242048      -0.15412606
C        0.04679800       2.84945583       7.37807949      -2.03819164      -0.84108395       0.16323137
C        2.44623285       2.77701218       7.61246864       1.12533380       1.79062654      -1.10963387
C        4.87273305       2.84120341       7.56432859       2.21654624       0.48519596      -0.04467446
C        7.42748964       2.87979757       7.50697938      -2.74007632       0.15290633       0.06351139
C        9.82403810       2.88819271       7.52850151       1.33868523      -2.59517666      -1.03076143
C       12.34790535       2.89448712       7.34766047      -2.06020182      -2.09089051       0.22614626
C       -1.24858706       4.98886090       7.37226216       1.82587405      -0.83305568       0.34083546
C        1.24916777       4.88876824       7.43121118       0.22103620       2.58780299      -0.75953910
C        3.68838820       4.97356217       7.42402315       0.17373947      -1.10165214      -0.28621109
C        6.15060015       4.99438585       7.62896701       0.30273814      -0.41626649      -0.13813946
C        8.65356041       5.00665774       7.74696167      -0.48989568       0.25776878      -0.61934121
C       11.08963213       4.98978130       7.47888196      -1.31516915      -1.01215667       0.40269646
C       -2.46727031       7.05145846       7.55347602       1.95482825       1.65138022      -0.72472790
C        0.05719951       7.07210482       7.36150439      -0.61426997      -0.96595035       0.47235665
C        2.47924884       7.03441171       7.23503001       0.11520445       1.42745591       0.10301639
C        4.92585000       7.12919431       7.41243841      -1.06921433      -0.64415673      -0.23391254
C        7.36797572       7.15150642       7.72704887       0.29467336      -0.70359601       0.25850822
C        9.84475866       7.10664099       7.63938138       0.41983955       0.35440652       0.29004460
C       -3.65391625       9.22398715       7.58125823      -0.08190378       0.96242151       0.18652145
C       -1.26189904       9.20060083       7.41026135       1.91704743       0.37219495       1.22405362
C        1.23680421       9.20155230       7.29461087       0.38309309      -1.54944575      -0.15029666
C        3.70121675       9.21600974       7.23582053       0.11248216       0.44592519       0.36969327
C        6.12196734       9.25596823       7.57729137       1.79881808       0.32428810      -0.31875123
C        8.63977032       9.23012860       7.73604237       0.79410269       0.31295673      -0.92295687
C       -4.91877241      11.34696746       7.68630582       0.01145529       1.37655783      -0.37387285
C       -2.47721348      11.40288902       7.63751050       1.48059135      -0.25345806       0.15601454
C       -0.04855221      11.35491693       7.36588102       0.92468260      -0.66666211       1.14057967
C        2.45208484      11.36692130       7.36258916      -1.17786992      -0.21019514      -0.36073040
C        4.86603086      11.36144358       7.50070772       0.66918462      -0.55838884      -0.74042860
C        7.35605899      11.33786534       7.60992899      -0.80654606       1.09562316       0.11460410
72
Lattice="14.76 0.0 0.0 -7.38 12.782534959858314 0.0 0.0 0.0 15.0" Properties=species:S:1:pos:R:3:REF_forces:R:3 REF_energy=-11167.667239864033 config_type=fd_force_conv_snapshot_010 split=train degauss_Ry=0.0019000869 kgrid=8 lattice_temperature_K=300.0 pbc="T T T"
C        0.01154191       0.01042844       7.52025688       1.07063641       0.77003743       0.62858613
C        2.47001866       0.00718186       7.61596333       0.53002623       0.29529763      -0.32857696
C        4.88105868      -0.04809770       7.60641419       0.89452253       0.93093012      -0.27155632
C        7.37055505      -0.03732992       7.55597991      -0.68869441       0.46591012      -0.85829826
C        9.80987199      -0.01099659       7.29570772       0.38057520       0.64258681       0.84006116
C       12.30465876       0.00861837       7.36492609      -1.16304314      -0.22067727       0.19311993
C       -1.22226382       2.10615897       7.51800563       0.71958698       1.03142760      -0.56685626
C        1.30791123       2.13898120       7.49967138      -1.71774888       0.98191638       0.23624093
C        3.74452283       2.13114346       7.51330907      -0.95311874       0.25513134       0.53992755
C        6.09393551       2.08981892       7.63326694       1.68896409       0.37419218       0.11346972
C        8.58716901       2.13137377       7.53809599      -0.93337575       0.15071447       0.61150552
C       11.01112902       2.11617645       7.42596627       2.24787950       0.13190093       0.60978854
C       -2.46764418       4.22081916       7.52422717       1.58190310      -0.22078037      -0.10416696
C        0.01698654       4.26182858       7.38249373      -0.02842869      -0.22478872       0.61285021
C        2.46750086       4.28429630       7.45418730       0.66773297       0.02106119       0.04094662
C        4.91607334       4.29130405       7.54917691       0.95063634      -1.22615036       0.69378416
C        7.40661337       4.23789734       7.59394758      -0.49651756       0.92810705       0.47932922
C        9.89141373       4.29799959       7.59486146      -2.03496722      -2.26911424       0.06970312
C       -3.68211948       6.37463013       7.67349317      -0.09609112       0.26322851      -0.64527285
C       -1.24877642       6.34858607       7.39876641       0.35532980       0.39781034      -0.21406388
C        1.24418482       6.42401645       7.28886026      -0.02451315      -0.08899668       0.36962025
C        3.73860179       6.43097314       7.48081552      -1.72759312      -0.13248098      -0.08127103
C        6.15131418       6.36186056       7.53817765       1.18291263       1.38696026      -0.02540404
C        8.62070208       6.42853135       7.58397736      -0.20628501      -1.44719118       0.40187242
C       -4.94978967       8.52494731       7.71432750       0.45044930      -0.52259652       0.23776199
C       -2.48465344       8.48714487       7.57137307       0.08683901       0.44787614      -0.54809646
C       -0.04357925       8.53317047       7.30996725       0.52003904      -0.59518339      -0.94885662
C        2.45829438       8.57692754       7.28573188       0.75330417      -1.20590240       0.40999145
C        4.92339603       8.54364417       7.48812686       0.98686833       0.16974860      -0.35275073
C        7.37235897       8.54377160       7.60322541       0.06994969      -0.99790581      -0.21264592
C       -6.15726863      10.65882289       7.66340084       0.33227729       0.60962347       0.24746302
C       -3.71908200      10.59625691       7.62835385      -0.22915651       1.45563160       0.05021750
C       -1.28024911      10.64462196       7.46541487       1.01339954       0.17891381      -0.54376184
C        1.24966491      10.66043789       7.29777413      -0.83503029      -0.67984621      -0.74901737
C        3.69711625      10.63471835       7.28008530       0.55725653       2.22423718       0.38069759
C        6.15458937      10.69462327       7.48881639       0.36595488      -1.11001491       0.45082520
C        1.27190965       0.74588113       7.58993856      -1.11321259      -1.32266571      -0.47801256
C        3.72044192       0.70860947       7.56478604      -1.66284837       0.13964124       0.26912148
C        6.10122113       0.65066719       7.60832767       1.37342237       0.66484588       0.15123460
C        8.58432378       0.71670216       7.49250777       0.19527477      -1.03520224      -0.53173627
C       11.03103456       0.70981019       7.36213973       0.89325292      -0.45930753      -0.42965139
C       13.53699337       0.69329714       7.45449605      -0.00419116       0.42740116       0.13617745
C        0.03533036       2.85049706       7.49372545       0.04927622      -0.95924337      -0.28700016
C        2.52649032       2.85500681       7.48674219      -0.87954739       0.13728714      -0.12822040
C        4.93861047       2.86317451       7.60852632      -1.06661366      -0.38300695      -0.62077306
C        7.31161374       2.82828776       7.63456347       2.51034337      -0.75887524      -0.46512979
C        9.82084205       2.83152694       7.55379734      -0.28694668       1.44094340      -0.55131214
C       12.30608335       2.80921044       7.48625072      -1.22119430      -0.33595654       0.02475124
C       -1.23431267       4.92197415       7.45374629       0.04997042       0.99289345      -0.35160453
C        1.24194444       5.00349693       7.37190197       0.13276971      -0.50600416      -0.15562733
C        3.70191085       4.99490578       7.51394313      -0.26979871       0.86541018      -0.33000546
C        6.16622791       4.95037502       7.61208218      -0.02757431       0.69113747      -0.69579142
C        8.65999612       4.99644503       7.60323547      -1.20838635      -0.66825748      -0.19733860
C       11.10872730       4.94599935       7.58726207      -0.64408320       1.52130811       0.31335217
C       -2.46749175       7.08219351       7.51996176       0.17583389      -0.63502906       0.59822474
C       -0.02901699       7.08200513       7.24600371       0.38561020       1.08607820       0.87952451
C        2.48191715       7.15979832       7.38628659      -0.00234742      -0.96335276      -0.56713239
C        4.96242835       7.13070006       7.50041977      -0.89435258      -0.79159227       0.17102953
C        7.37969561       7.09840006       7.52011817      -0.12850348       0.74892378       0.74428629
C        9.84124087       7.11175031       7.70243579       0.19830173      -0.41105923      -0.34479496
C       -3.71307580       9.17886792       7.68493543       0.10459582       1.23649468      -0.30040229
C       -1.29479394       9.23569595       7.38521372       1.12080737      -0.61618030       0.70502040
C        1.22239447       9.24372529       7.21615195      -0.80121128      -0.01911384       0.76320832
C        3.71804902       9.26891315       7.37867502      -1.34286507      -1.76740794      -0.45684004
C        6.15578836       9.24667436       7.51472042      -0.27565980       1.11392582       0.22096523
C        8.59685713       9.25203174       7.71374607      -0.17543665      -0.57368485      -0.53145448
C       -4.93651588      11.37343976       7.62440736       0.68228336      -1.20091909       0.43594520
C       -2.51534287      11.34685128       7.56979576       0.77295563      -1.63388747       0.10070394
C        0.00448707      11.32668966       7.35973437      -1.17490107       1.01940487       1.19872106
C        2.47723628      11.36044391       7.25107668      -0.76039682      -0.10305933       0.14976907
C        4.91611132      11.36671889       7.37880012       0.43084053       0.52500590      -0.29647699
C        7.40488103      11.39506659       7.62239857      -1.40794843      -0.63850982      -0.90989747
72
Lattice="14.76 0.0 0.0 -7.38 12.782534959858314 0.0 0.0 0.0 15.0" Properties=species:S:1:pos:R:3:REF_forces:R:3 REF_energy=-11166.850761066635 config_type=fd_force_conv_snapshot_015 split=train degauss_Ry=0.0019000869 kgrid=8 lattice_temperature_K=300.0 pbc="T T T"
C       -0.02942548      -0.01084643       7.66671295       0.93946053       1.31391111      -0.48694071
C        2.41657261       0.00880747       7.35791857       0.50009679       0.31653340       0.25997298
C        4.88857051      -0.00434575       7.36411033       0.61586380      -0.09002435      -0.23796511
C        7.34779504      -0.05903893       7.45958325      -0.38347181       2.85630278       0.07076601
C        9.82396744       0.00999226       7.51542849      -0.12025564       0.58464186       0.21234998
C       12.33135393       0.02577254       7.58695720      -0.53229292      -0.74025634      -0.50364954
C       -1.16619287       2.16259511       7.65041800      -1.37757085      -0.65154274      -0.67580830
C        1.23855167       2.14837679       7.56788690       1.26357302      -0.91741794       0.10492441
C        3.66321486       2.12599431       7.38450266       1.53267779       1.48420015       0.39179858
C        6.16340211       2.15458270       7.43244442      -1.61164537      -0.29732623      -0.47373373
C        8.59788139       2.10553096       7.50801724      -0.33778228       2.06933695      -0.59532428
C       11.12735710       2.10805290       7.58720239      -2.16246462       0.76540764      -0.63820745
C       -2.42079282       4.24492856       7.51202674      -1.95609863      -0.17932313       0.36798631
C        0.01289680       4.25451200       7.49711000       0.61792248       0.68703656       0.61640039
C        2.46036706       4.27490242       7.55140316       0.82790190       0.91864745      -0.98791914
C        4.95031068       4.30926200       7.38974376      -1.14558201      -1.78309681      -0.13795023
C        7.37322753       4.27320865       7.38466816       1.48991494      -0.42073301      -0.80796171
C        9.83122795       4.25800030       7.45874803       0.30311352      -2.03983869      -0.01491471
C       -3.70680239       6.33690477       7.56220315       0.29134353       1.50781651      -0.04681028
C       -1.20612054       6.38702394       7.58179302       0.45157673      -1.37498509      -0.13355724
C        1.24086378       6.40391553       7.49904256       0.57034447       0.26789995       0.38383125
C        3.69995766       6.42756876       7.43850380      -1.97623319      -1.88942272       0.21382605
C        6.16845812       6.42738283       7.36999859      -1.81026309      -1.94964516      -0.46806213
C        8.61331441       6.38368493       7.43974800      -0.27066697       0.01692866      -0.17252719
C       -4.95952567       8.55414142       7.49640110       2.02529164      -1.70302983       0.38083591
C       -2.49606209       8.44778095       7.53716848       1.32836379       1.19084037       0.22295707
C        0.01546236       8.52206657       7.50640392      -0.44171192      -1.23991193       0.81126121
C        2.45076858       8.54615548       7.72220339       0.94566640      -0.55115967       0.16180415
C        4.94333261       8.51804191       7.52003377      -1.04302765       0.10876203      -0.16029363
C        7.42078063       8.55111806       7.45550174      -1.14446281      -1.05274873      -0.11624189
C       -6.13105669      10.67731951       7.45261079      -1.24289055       1.24577636       0.14061697
C       -3.70555646      10.61960770       7.38777025       0.72508529       1.06175736      -0.08258640
C       -1.26826587      10.56279349       7.32490589       0.54801573       1.73154825       1.47983108
C        1.20134083      10.67247182       7.65125159      -1.49373175      -0.92542127      -0.15843626
C        3.68947254      10.66554575       7.67036465      -0.14606694       0.78313823      -0.22203584
C        6.18232084      10.60892427       7.54773338      -2.00367278       2.59773645      -0.20531493
C        1.20543433       0.70755754       7.59011326       0.32068727       0.33468898      -0.66758308
C        3.63543141       0.72567862       7.28696316       1.31119679      -1.01609637       0.79498278
C        6.14046013       0.71241571       7.43700430      -0.70536518      -0.31308683      -0.34768720
C        8.57991046       0.72464840       7.50007663       0.19785513      -2.54481363       0.04574275
C       11.08317311       0.69730386       7.50326713       0.07565625       0.29304457       0.88032387
C       13.55244733       0.75505410       7.63565684      -0.52310894      -1.04194264       0.47401963
C        0.04700340       2.85032333       7.58239039      -0.55909615       0.56214882       0.04814982
C        2.48729612       2.87085719       7.51198705      -1.84416334      -1.03117332      -0.09715865
C        4.90443903       2.87611492       7.43231488       0.85913926      -1.09887638      -0.48971211
C        7.36561669       2.87387689       7.35889991       1.04290681      -1.56378479       1.25521771
C        9.83393700       2.81170783       7.56126718       1.17563718       0.32422614      -0.53421970
C       12.34671536       2.83568907       7.55268280       0.01050681      -0.05036894       0.44641859
C       -1.21667671       4.93084851       7.57829018       0.60001449       2.02640056      -0.67408334
C        1.22532231       5.00585140       7.49047687       0.61250696      -1.54826022       0.33079839
C        3.70765769       4.98023956       7.41483238      -0.73749497       1.21029359       0.52130814
C        6.18540028       4.96576783       7.31989719      -1.11089629       2.57798600       0.63482722
C        8.62554879       4.95543455       7.36095312      -0.72425019       1.13111621       0.83683032
C       11.05933272       4.93395880       7.47400187       1.02952138       0.39781059       0.48460384
C       -2.44267459       7.03762116       7.64593786      -1.53233275       0.63742198      -0.83407641
C        0.03309067       7.09898763       7.49760507      -1.41013413       0.25700104       0.40379689
C        2.46285145       7.12617446       7.60148521       0.27107912       0.05825528      -0.63288501
C        4.88242277       7.09599739       7.36812251       3.29692893       1.67728357       0.78806266
C        7.36667299       7.09820816       7.44330043       1.95283230       1.70099454      -0.26943541
C        9.82286937       7.12016859       7.51507774       0.35113299      -1.06629587      -0.07909536
C       -3.71537946       9.20887428       7.52141274       0.58110300      -0.03272989      -0.63799020
C       -1.23031194       9.16563197       7.46533539      -1.67742524      -0.07584240      -0.38000339
C        1.20442222       9.22144814       7.73186222       1.09947596       1.87356313      -1.12276218
C        3.72682257       9.24707274       7.73051379      -1.13621188      -0.16837897      -0.86911669
C        6.16690229       9.22632938       7.43668076       0.65670963      -0.86281568       0.74344245
C        8.63728529       9.28617860       7.47661110      -1.86811368      -1.06801388      -0.19402290
C       -4.92083124      11.38016755       7.32778603       0.00091608      -0.80207209       0.80501291
C       -2.44700912      11.32042232       7.37628569      -2.18513430       0.61821224      -0.61277873
C       -0.09125358      11.34070796       7.47383482       2.87721819      -1.59505018      -0.08333511
C        2.40524121      11.39217870       7.63346836       1.85503113      -1.10771223       0.07710018
C        4.93517452      11.37787832       7.55077093       0.19771706      -0.78950685       0.77916433
C        7.35228142      11.38100908       7.57431272       1.86163398      -1.60596451      -0.31677919
72
Lattice="14.76 0.0 0.0 -7.38 12.782534959858314 0.0 0.0 0.0 15.0" Properties=species:S:1:pos:R:3:REF_forces:R:3 REF_energy=-11166.902574806882 config_type=fd_force_conv_snapshot_019 split=train degauss_Ry=0.0019000869 kgrid=8 lattice_temperature_K=300.0 pbc="T T T"
C       -0.00719455       0.03515268       7.51296309       1.79871703      -0.20844473      -0.91053536
C        2.43525620       0.01400481       7.32590812       0.61321787      -0.01266063       0.32641954
C        4.90371797       0.01252878       7.50704045       0.02181452      -0.22274135      -0.87898098
C        7.38249518      -0.03708456       7.47707864       0.67259647       0.15940351       0.56011971
C        9.84974196      -0.02171682       7.75808622       0.12062305      -1.19032872      -0.00085335
C       12.35097959       0.05503274       7.79885191      -0.19386632      -1.76508083      -0.69316607
C       -1.19574588       2.13341356       7.55015654      -0.00904488       1.40179887       0.56246044
C        1.24462112       2.15192463       7.41697929       0.01555132       0.27688801       0.07700377
C        3.65621256       2.15764344       7.34908327       1.79332620      -0.65253004      -0.68954621
C        6.11788895       2.11056068       7.17996451       0.38833556       0.04840436       1.06276883
C        8.58460165       2.10133245       7.41008602       0.29336441      -0.98302890      -0.27619510
C       11.04708536       2.09899060       7.67374503       0.12919973       0.48418732      -0.92807054
C       -2.46083785       4.21155837       7.51414946      -0.30005031       1.66685441      -0.38664429
C       -0.05011340       4.26916911       7.60379755       3.05945978      -0.06624936       0.70379192
C        2.46340741       4.29897115       7.53567955      -0.67470632      -0.20422555       0.10865353
C        4.91575338       4.27289309       7.34853071       0.60087658       0.76068118      -0.60148310
C        7.39826592       4.23086344       7.18088868      -0.67387251      -0.61282887       0.40786926
C        9.83564649       4.25298042       7.27097527       0.69000361      -0.72120421      -0.25283869
C       -3.68997904       6.39804876       7.17444727       1.17156275      -1.46103760       1.46161841
C       -1.22472237       6.37799916       7.71901984      -1.34218450       0.96510497      -0.50631140
C        1.19868205       6.43257684       7.79754464       0.63223555      -1.61156643       0.07448229
C        3.66733015       6.43818998       7.55712000       1.00920299      -1.23232717      -0.01751076
C        6.11621257       6.38829540       7.47065756       0.52644006      -1.73015651      -1.30508579
C        8.57295575       6.39726053       7.22937584       0.02604887      -2.20599314      -0.78979095
C       -4.94270079       8.51143579       7.10940383       0.80270586      -0.57244892       0.74023885
C       -2.44829037       8.54829784       7.42964441      -1.66650859      -1.37231346       0.45473430
C       -0.00351082       8.52796979       7.72763046      -1.31992800       1.44012039       1.06907087
C        2.48654655       8.49960490       7.88114646      -0.52943976       1.35649372      -0.24401620
C        4.98014986       8.52582322       7.59305810      -1.46737511       0.73417851       0.53157275
C        7.39335552       8.48430815       7.38366448      -0.67381518       1.32801232      -0.52321512
C       -6.16825146      10.62776221       7.32766078       1.35396221       1.88620782      -0.29310705
C       -3.69702308      10.63583041       7.37705879      -0.24354980       1.65225003       0.19804951
C       -1.25440208      10.66400689       7.60608423       0.86226290       0.08396272       0.02303940
C        1.21706442      10.61192938       7.79855132       1.45145535       1.01204842       0.64296734
C        3.76868196      10.67256646       7.83362650      -1.59076312      -0.68029230       0.36342672
C        6.19898918      10.67835537       7.57248737       0.03503925       0.16705486      -0.21340902
C        1.22343235       0.74244332       7.36458590      -0.30180226      -0.48812728       0.38689703
C        3.66389282       0.72522112       7.35983744       0.57344522       0.11685484       0.32169668
C        6.15950274       0.69298845       7.39274555      -1.06843195       0.08700613      -0.24014489
C        8.63322784       0.65001775       7.54064221      -1.00490950       1.72518014      -0.08218814
C       11.08510825       0.67019263       7.77272181      -0.28144838       1.86785940       0.09966161
C       13.56928408       0.75697973       7.61398720      -1.07208086      -1.06690831       0.43488822
C        0.04095855       2.86748356       7.51276597      -1.98040481      -0.60847522      -0.16925186
C        2.46617396       2.85556119       7.39859051      -0.70775091       1.53439811       0.40280342
C        4.90308841       2.87438098       7.23385008      -0.53177253      -1.50213488       0.52782871
C        7.35247890       2.78972503       7.22855198       0.68552912       0.85085388      -0.31280838
C        9.80112732       2.82223002       7.42317115       1.44072511      -0.15203859       0.71911750
C       12.30722065       2.80321250       7.62028691      -0.57271477       0.25402268      -0.34027830
C       -1.23732502       4.96539917       7.61334781      -1.25402677      -0.17187568       0.16545280
C        1.19936327       4.97757981       7.74628346       0.48630359       0.95956758      -1.23844306
C        3.69251799       5.03112286       7.46269045      -0.31362034      -1.43507923       0.27838954
C        6.18764376       4.94487955       7.29472579      -1.93751341       1.03207732       0.54078039
C        8.61154851       4.93775418       7.18548965      -0.13007082       1.45457025       0.31143618
C       11.09137075       4.95118941       7.26842609      -0.50430003       0.00315346       0.61892547
C       -2.45458447       7.09230310       7.53039627      -0.71064803       0.78006139      -1.57846297
C       -0.02955383       7.15169645       7.82622807       0.45192589      -2.20931912      -0.56607875
C        2.45986468       7.09730172       7.72300674      -1.11396130       0.96023401       0.62781634
C        4.90925658       7.11038128       7.51665520       0.36018558       0.53752768       0.41514780
C        7.31750286       7.07449951       7.33614855       2.10975675       0.83735816       0.29876142
C        9.81389124       7.04520005       7.10657967       0.26587238       2.68629244       0.22196334
C       -3.72202758       9.24609629       7.26552819       1.10923278      -1.58463773       0.00557801
C       -1.26614738       9.26108234       7.61273591       1.56721619      -0.80413128      -0.08211049
C        1.21677887       9.21333929       7.92629294       0.96181215      -0.41115256      -1.18929462
C        3.72312957       9.22952512       7.80303670       0.94935465       0.17429148      -0.33604267
C        6.20695825       9.25909250       7.51311583      -0.82269825      -1.04661074       0.15170023
C        8.60318730       9.21327354       7.23342370      -0.14400312      -0.28822195       0.23552462
C       -4.91796139      11.37918858       7.34577607      -0.95470974      -1.33202196      -0.33312909
C       -2.47063677      11.36519063       7.54778476      -0.55985951       0.25953589      -0.46059025
C        0.01360883      11.33386017       7.63410089      -1.10573737       0.31620481       0.03350610
C        2.47950641      11.33396193       7.87961788       0.14606977       0.17099122      -0.76335796
C        5.00054151      11.40028244       7.74948787      -1.10004289      -0.13927743       0.23375750
C        7.40319383      11.40800445       7.41523736      -0.31781920      -1.28622161       0.80302031
72
Lattice="14.76 0.0 0.0 -7.38 12.782534959858314 0.0 0.0 0.0 15.0" Properties=species:S:1:pos:R:3:REF_forces:R:3 REF_energy=-11166.979327916497 config_type=fd_force_conv_snapshot_023 split=train degauss_Ry=0.0019000869 kgrid=8 lattice_temperature_K=300.0 pbc="T T T"
C       -0.02098969       0.00149117       7.50806512       1.53277755      -0.47430940      -0.78016732
C        2.45856934       0.01487526       7.34198096       0.40678143      -0.10226306      -0.74963495
C        4.98914931      -0.00378905       7.38801520      -1.22968845       0.60002220      -0.08067325
C        7.46621152       0.00606689       7.61299223      -1.73937314       0.42837690      -0.14360768
C        9.90056587       0.01143521       7.66404846      -2.52205191      -0.26788350       0.35549975
C       12.33298315      -0.05807484       7.54825183      -1.63629813       1.02481087       0.03214573
C       -1.23352552       2.12070853       7.47100605      -0.53264953      -0.64306067      -0.21246002
C        1.17540070       2.13506099       7.43764015       0.94808966       0.64876466       0.08576866
C        3.67763429       2.14071202       7.31914844      -0.63359001      -1.98556116       0.48567676
C        6.13775834       2.10670576       7.34374917       1.02413210       0.19509685       0.23343637
C        8.59773369       2.15922022       7.47975517       0.86831836      -2.51734474       0.44785120
C       11.05675784       2.12503835       7.47976304       0.47012956      -0.74675352      -0.55110234
C       -2.48824766       4.26795674       7.41530307      -0.42499667      -0.81839653       0.36182235
C       -0.05740761       4.28816670       7.50812685       0.83264765      -0.30794540       0.45350969
C        2.46121701       4.25633643       7.62118173      -1.53907598      -0.73785544      -0.93705397
C        4.91298269       4.25269138       7.39625189      -0.40878406      -1.23482577      -0.10113794
C        7.39214988       4.20679524       7.35887511      -1.08478622       1.09731135      -0.13087969
C        9.79355700       4.20632203       7.35756051       0.48642366       3.23888139      -0.00078264
C       -3.72781266       6.37750192       7.52196879       0.04211853       0.96865746      -1.17847645
C       -1.20737665       6.41765815       7.56845825      -1.75676563       0.09797523       0.76207189
C        1.24964659       6.40665533       7.62927534      -0.98055832      -0.34648700       0.39991504
C        3.70194396       6.37381940       7.58046543       0.61615870       1.42438755       0.24162533
C        6.14404695       6.32158468       7.47159075       0.52944542       2.37142589      -0.74271534
C        8.53526930       6.37766422       7.31207841       2.36391981       1.19650271       0.28891306
C       -4.88914656       8.52625965       7.33520650      -1.25899594       1.21645215       0.23146588
C       -2.44624236       8.53551705       7.47363679       0.41506887       0.53380447       0.76483480
C       -0.04877091       8.58286284       7.65842738       2.60965351      -1.13297152       0.49992658
C        2.42131654       8.52178305       7.76160463       1.12556829      -0.05976992       0.64642779
C        4.90035077       8.53562896       7.58037696       0.78768162      -0.97978545       0.06767375
C        7.37212693       8.52114959       7.43366003       0.76849554      -0.65725624      -0.55237683
C       -6.12432998      10.70109839       7.36740644       0.53462208      -2.65023837      -0.11768016
C       -3.63399674      10.67042074       7.33319509      -0.57085792       0.37537489       0.32115932
C       -1.18088480      10.70484322       7.60524493      -0.94379309      -0.75578709      -0.20956805
C        1.24107069      10.64592389       7.81183489       0.41559466       1.94134847      -0.19748001
C        3.65830032      10.63213068       7.77080913       1.07496769       0.43660057      -0.04754253
C        6.19211165      10.65578436       7.54830339      -0.88734324      -1.79429293      -0.57923098
C        1.18097663       0.72816972       7.34842866       1.44610463      -0.62595923       0.92741208
C        3.72135520       0.68931153       7.30032517      -0.43720067       1.13669242       0.29992715
C        6.22194801       0.71536423       7.43079454      -0.84877412      -1.15368536       0.17536261
C        8.64279029       0.73949103       7.64449183       1.27671264      -0.20052368      -0.58184964
C       11.08709827       0.69780302       7.53278240       1.46532080      -0.05432792       0.41527944
C       13.53379977       0.67465045       7.52089330      -0.57640302       1.14562880      -0.07440155
C       -0.04007576       2.87638278       7.47921463       0.12238785      -1.07863331      -0.07987286
C        2.43052834       2.81810280       7.50070429       0.49186463       0.95654165      -0.56268336
C        4.90009680       2.79654589       7.30204130       0.52103097       2.34071072       0.40972920
C        7.38148408       2.80084677       7.40887723      -1.02280823       1.21815165      -0.40960913
C        9.82440178       2.83393392       7.43664296       0.15668354      -0.58934441      -0.01215129
C       12.29345497       2.79393228       7.39002146      -0.32517462       2.33007201       0.64676589
C       -1.27796829       5.00022470       7.55547005       0.55192843      -0.35716891      -0.85604905
C        1.19478132       4.95500665       7.57482885       0.98534006       1.44454217       0.39621882
C        3.67381590       4.97782774       7.53608809       1.01035175      -1.20834187      -0.01431025
C        6.15996766       4.91447639       7.37070580      -0.66209043       0.32220036       0.41534629
C        8.56730434       4.97767908       7.33039254       0.84637862      -2.02455759       0.07840656
C       11.01215757       4.95243637       7.40690567       1.01840548      -0.01956944       0.35456387
C       -2.45958342       7.11714192       7.58643456      -0.69830365      -0.53672267      -0.80437142
C       -0.00757381       7.14486943       7.65934390       1.08442087      -0.28753367      -0.61322584
C        2.49853288       7.10006519       7.70848272      -1.84144388      -0.07905448      -0.59726701
C        4.95145706       7.09542537       7.50777680      -1.61185594      -0.57303359       0.57675475
C        7.35571172       7.10047755       7.40706509      -0.76770518      -1.01224357      -0.02543078
C        9.79166117       7.12130147       7.33743915       1.33468639      -1.42487966       0.72545193
C       -3.63107790       9.27224248       7.38387570      -1.89617187      -1.70263311      -0.28388810
C       -1.22485704       9.29024138       7.59242167      -0.80333373      -0.57493852      -0.21195892
C        1.21979518       9.27821319       7.76506414      -0.73740987      -2.70900685      -0.01171215
C        3.65194590       9.22368471       7.82474653       0.93257485      -0.33899841      -1.40902958
C        6.16698543       9.20291142       7.43149047      -1.60246884       2.18209448       1.46128083
C        8.59954766       9.23605954       7.37925138       1.45726348       0.87172584      -0.31190438
C       -4.87387830      11.37183221       7.27630845      -0.80762953       0.60065186       0.72589904
C       -2.42196983      11.37612961       7.47371882       0.70589663       0.45836084      -0.43382892
C        0.05275064      11.37535612       7.68880839      -0.70156252       0.45308237       0.16352576
C        2.45525705      11.37876643       7.80895780       0.97677263      -0.21649023      -0.35877559
C        4.91766600      11.30201912       7.60059311       0.58182368       1.08350684       0.44421823
C        7.41958239      11.36619285       7.48335313      -1.32859828       0.64067777       0.06902332
72
Lattice="14.76 0.0 0.0 -7.38 12.782534959858314 0.0 0.0 0.0 15.0" Properties=species:S:1:pos:R:3:REF_forces:R:3 REF_energy=-11167.120820309752 config_type=fd_force_conv_snapshot_027 split=train degauss_Ry=0.0019000869 kgrid=8 lattice_temperature_K=300.0 pbc="T T T"
C        0.01008975      -0.00451932       7.49052775      -2.16593741      -2.23572898      -0.53114415
C        2.45093270      -0.00712924       7.38069935       0.81108920      -0.03057556       1.03593192
C        4.93130038       0.00292857       7.52077599       0.35946825       0.35349352      -0.18070459
C        7.37306001      -0.01704579       7.39253179       0.20763175       0.30579775       0.12834767
C        9.82700723       0.01539323       7.31284114       1.09714320       1.37317889       0.08312377
C       12.31175155       0.03147405       7.36619340       1.24666545      -1.73796264       0.41591142
C       -1.20788802       2.11959807       7.54559514      -1.28443032       0.33936325      -1.16214531
C        1.20563327       2.09697508       7.43517694       1.16485423      -1.18651114      -0.61414604
C        3.75689204       2.12709619       7.50174475      -1.87859864       0.78967243      -0.67909494
C        6.17840579       2.15537182       7.50594923      -0.61733215       0.08065268       0.62307343
C        8.61742471       2.15564137       7.54901237      -0.31673266      -0.79463157      -0.29723752
C       11.08509901       2.16902508       7.46480354       0.87300419      -1.28219886       0.51050719
C       -2.46125306       4.28337646       7.55728082       0.19489450       0.42583099      -0.20336192
C       -0.05425993       4.24039989       7.37794409       1.76239300       0.51559154       0.78613896
C        2.40069934       4.19545116       7.44981034       1.42271068      -0.16110532       0.27450820
C        4.91526915       4.33948105       7.56801803       0.78027633      -3.11377973      -0.07407708
C        7.42025435       4.30933051       7.61251934      -0.28423340      -1.10363189      -0.45121832
C        9.83847938       4.27521612       7.58933609       0.77402675      -0.04607957      -0.13883983
C       -3.67636053       6.42022680       7.56738394      -1.65351295      -0.06180958       0.29497264
C       -1.21641592       6.41628884       7.48116746      -0.76919102       0.01534820       0.28370555
C        1.23337412       6.35580022       7.40491933      -0.97406243       0.19756074       1.52657296
C        3.64410410       6.31126602       7.51525917       0.56553471       2.21415177       0.04104895
C        6.17691767       6.34609202       7.56451192      -0.90998309       2.91322546      -0.38327126
C        8.61422108       6.41661692       7.57056050       1.27097317       0.70662811      -0.34854954
C       -4.89985719       8.56128614       7.63125828      -1.69003984      -1.28342091      -0.03322328
C       -2.43446635       8.53693279       7.54451572      -1.78872701       0.46143974       0.05100580
C        0.01502959       8.51600487       7.52426239      -0.93995006       0.34171195      -0.24776179
C        2.45137678       8.51290016       7.59478295      -0.03871516      -0.52465648      -0.93600239
C        4.90837482       8.46966492       7.51678330       0.50133709       0.66825954      -0.23954017
C        7.37717932       8.47127326       7.58913826       0.71150755       1.87304840      -0.05174551
C       -6.18485515      10.65812888       7.66269495      -0.18478570      -0.98765997      -1.10295543
C       -3.72524680      10.70024674       7.53917173       1.40528323      -2.26847172       0.48850266
C       -1.22556535      10.64991985       7.48816200      -1.25112734       0.36995732      -0.13467901
C        1.25698744      10.66972032       7.37725804      -2.24158261      -1.29172377       0.00217747
C        3.65846545      10.67649839       7.38610054       2.29137382      -1.32762563       0.13428692
C        6.14186980      10.61160717       7.45690937      -0.40351562       0.69253718       0.29687551
C        1.19914898       0.63192224       7.40000715       2.11854298       3.60799770       0.41822233
C        3.71991052       0.72373326       7.46771242      -0.81208525      -0.91560197      -0.17006279
C        6.18067084       0.70446991       7.49117711      -1.25243166       1.07734030      -0.12878321
C        8.57742252       0.73120080       7.38052929       1.58454902      -0.38024996       0.27285575
C       11.12428875       0.74507191       7.37834074      -3.01183447      -0.51128392      -0.24498808
C       13.56140953       0.71138968       7.45111391      -1.04393062       0.35112347       0.38657693
C       -0.00406576       2.81808978       7.42499943      -0.09595768       0.55513280       0.48637918
C        2.46668645       2.76787075       7.41750232      -0.49935529       1.08321502       0.53729063
C        4.94426490       2.90950696       7.52459439       0.46361669      -1.40248690       0.12434163
C        7.38630695       2.87620587       7.60855688       1.17981651       0.05439349      -0.52738057
C        9.86959315       2.82401929       7.58111525      -1.60197622       2.00162849      -0.42997175
C       12.30738355       2.86605309       7.52755450       0.79859827      -0.19123171       0.06448944
C       -1.22518432       5.01061956       7.44537890      -1.25014955      -1.30004386       0.26004086
C        1.19203032       4.92994479       7.47257162       0.07523022      -0.03375653      -1.37001412
C        3.64302671       4.91688996       7.51328930      -0.20715327       0.64308355      -0.05023807
C        6.19394321       4.98820762       7.61487449      -1.35647520      -0.90125496      -0.24491249
C        8.64089685       5.03303910       7.49222550      -0.49773343      -2.35377732       1.41307830
C       11.06408737       4.99285265       7.61886845       0.38268788      -0.21802698      -0.58990774
C       -2.47492481       7.12629105       7.54322993       1.81868653      -0.16573922      -0.09941942
C        0.01578331       7.09137367       7.51272913      -0.07570022       0.34186442      -0.70209525
C        2.43333927       7.06837799       7.53318078       0.91045180       0.40560566      -0.25709129
C        4.89273036       7.03382130       7.49346020       0.63374788       0.35511511       0.72541542
C        7.40000577       7.08569266       7.55566087      -1.47002463      -0.50060073       0.30911473
C        9.83256829       7.14603338       7.59216919       1.19727738      -0.81218321       0.00030313
C       -3.70175395       9.23884955       7.59150646       1.84623025       1.86017514      -0.18254087
C       -1.22359762       9.25270745       7.49191723       0.49952858      -1.27156786       0.35847400
C        1.21327293       9.22780063       7.50249062       1.68784386       0.78828840       0.06153575
C        3.68733765       9.22041974       7.51634857      -0.38618407       0.28303012      -0.11472494
C        6.17780433       9.20420352       7.51419114      -2.06820181      -1.17447890       0.06379087
C        8.59367743       9.21231234       7.65519364       0.32639332       1.27439171      -0.01740765
C       -4.94732674      11.36169538       7.53732972      -0.29111881       0.80192965      -0.08451447
C       -2.47431313      11.38272036       7.53910289       0.35378148      -0.66845623      -0.40607541
C       -0.02016218      11.33568475       7.38084187       1.84552962       1.11482647       0.20493723
C        2.45685396      11.38343209       7.28643552      -0.14288494       0.31384582       0.60639571
C        4.92967661      11.35600524       7.39135410      -1.35215935       0.39946356      -0.27261715
C        7.33316950      11.34407368       7.51684538       1.64513476       0.28841350       0.43251072
72
Lattice="14.76 0.0 0.0 -7.38 12.782534959858314 0.0 0.0 0.0 15.0" Properties=species:S:1:pos:R:3:REF_forces:R:3 REF_energy=-11166.817605764136 config_type=fd_force_conv_snapshot_031 split=validation degauss_Ry=0.0019000869 kgrid=8 lattice_temperature_K=300.0 pbc="T T T"
C       -0.01071313       0.04005433       7.47549602       0.10102713      -1.81535053      -0.61462555
C        2.44081680      -0.02886578       7.63055049      -1.28495766      -0.35032052      -0.52110630
C        4.91041201       0.04081851       7.63234082      -1.01560889      -2.62137414       0.24008190
C        7.34064736       0.00738662       7.36039996       2.12160182      -0.22810107       0.54049191
C        9.80341959      -0.01822847       7.33199035       0.63528308      -0.48219266       0.09217508
C       12.26094901       0.00414071       7.38585005       1.38822010      -0.89106877      -0.22105034
C       -1.20920668       2.11122502       7.42848786      -0.54350447       0.72742782      -0.10291792
C        1.21975800       2.11279829       7.60518343       0.61211410       0.73218719      -1.05901991
C        3.64119149       2.12658614       7.69875983       2.70876080      -0.48232533      -0.43534639
C        6.20782744       2.12724405       7.59524384      -1.63923613       0.89625365      -0.06897756
C        8.62457236       2.15014093       7.58323044       0.42601097       0.93277900      -0.31609502
C       11.07627180       2.14725539       7.47679155       0.14080981      -0.69503320       0.24911084
C       -2.40117808       4.25297954       7.53783458      -1.45951422      -0.02641063       0.16220550
C        0.09594279       4.24013326       7.43980608      -2.12183425      -0.28824997       0.41383422
C        2.54035762       4.21537943       7.47269071      -1.53832059       3.17936652       0.71523745
C        4.96425459       4.23988770       7.63787246      -0.33808104       2.15164465      -0.31088674
C        7.36363757       4.28934863       7.75653748       2.67533980       0.13589386      -0.05063839
C        9.86928944       4.29806307       7.69931208      -0.71156514      -0.07285684       0.35440832
C       -3.71126163       6.42411405       7.72709652       2.43064997      -1.25000968      -0.50029965
C       -1.20471247       6.34987206       7.47671755      -0.82090079       1.00951872       0.48848440
C        1.22276603       6.37256649       7.29427548       0.89687997       0.10625315       0.27337100
C        3.70333554       6.39954258       7.29552521      -0.18773810      -0.67162280       0.85897831
C        6.14988105       6.43156212       7.75964668      -1.00968147      -1.25385811      -1.12809105
C        8.59601628       6.46555709       7.88494873       0.50235525      -1.47010228      -0.75408193
C       -4.89919076       8.52970972       7.75110382      -0.65609051       1.93876322      -0.76445633
C       -2.45061344       8.53543309       7.50194217      -0.69631310      -1.65169261       0.39467488
C       -0.02127679       8.50153069       7.25119319      -0.40741649      -1.00517972      -0.35001970
C        2.41754639       8.48114087       7.10830888       1.18907711       0.61182639      -0.58319202
C        4.90227825       8.51839303       7.35319293       0.78100575       0.35662101      -0.14233396
C        7.33766243       8.56232716       7.67398873       1.10302254      -0.31619427       0.07668084
C       -6.18311584      10.62863604       7.59026480       0.60790520       0.90153187       0.32938943
C       -3.65284558      10.64743569       7.60737722      -3.22074457       0.05624468       0.20759473
C       -1.23240167      10.66240167       7.36442870      -0.95786088      -1.34856469       0.05294776
C        1.13257024      10.58917964       7.10711560       3.86829978       0.93514622      -0.32085413
C        3.68554755      10.61932749       7.20745742      -1.38546851       0.43811032      -0.42505580
C        6.12729430      10.67082770       7.36224654       1.28615682       0.54570302       1.03083959
C        1.21044010       0.72749590       7.47002276       1.21005859      -1.06446139       1.71438948
C        3.64304073       0.68074365       7.69767819       1.43276883       1.57208252      -0.12579019
C        6.14143812       0.69880609       7.56917410       0.47812440       1.12694691      -0.45973844
C        8.60861003       0.74744028       7.46014585      -1.25241032      -1.77845160      -0.83865914
C       11.05779047       0.68928069       7.40198326      -1.23760359       1.27064638      -0.08487392
C       13.51923462       0.71272009       7.40226369      -0.61584400      -0.41877691       0.33885237
C        0.02069956       2.81046542       7.45055892       0.34712875       0.86836232       0.55352020
C        2.45462038       2.84372643       7.65513949       0.08936640      -0.92971810      -0.36003029
C        4.95127531       2.84955578       7.61302086      -0.93258488      -1.97029832       0.73696147
C        7.41260875       2.89045378       7.57573644      -0.70559607      -1.67236197       0.86181707
C        9.85788497       2.87455392       7.59321138       0.14197940      -0.40793920      -0.04871958
C       12.33120311       2.83173493       7.48571827      -0.75508955       0.15724893      -0.19663720
C       -1.17142905       4.91994070       7.48443568       0.59929766       1.42417646      -0.08949650
C        1.29161334       4.97720397       7.46159136       0.27369522      -1.51460962      -0.92353460
C        3.74150796       4.99171474       7.49789918      -0.17746654      -1.71467795      -0.39202998
C        6.18557290       4.98747694       7.73445217      -1.92409122       0.74853889       0.11285780
C        8.60720732       5.00803601       7.86036093       0.57484879       0.74458530      -0.65936095
C       11.10602690       4.99340087       7.65637689      -0.08411698      -0.28453859       0.14825187
C       -2.46843608       7.09554932       7.61701314       1.31364371       0.11374509      -0.71164305
C        0.01390623       7.09543894       7.35940284      -1.26301329      -1.15712883      -0.28600489
C        2.44199306       7.07301268       7.17550797       0.80365589       0.28174560       0.24175183
C        4.91738703       7.10360647       7.45842699       0.27207696       0.44601004       0.16503500
C        7.34176383       7.14980894       7.76424981       1.24833898      -0.08102652       0.78325238
C        9.87561808       7.15063824       7.75701402      -2.72830144      -1.11021829       0.97584395
C       -3.67550476       9.24780034       7.57756277      -0.05394432      -0.75129717       0.61818036
C       -1.24058897       9.19806091       7.33836003       0.39443962       2.25971917       0.14480633
C        1.17600426       9.16978799       7.05154490       0.64314012       1.26682675       0.84035581
C        3.68103581       9.20270290       7.12726034      -0.60434525      -0.30549308       0.72730595
C        6.14823393       9.26801146       7.48245752      -1.69904770      -0.63452641      -0.46960119
C        8.58466460       9.23786634       7.72068001       0.53560218      -0.81283421      -0.35167575
C       -4.96038440      11.32451849       7.62207159       2.09311297       0.97661014       0.02085782
C       -2.47267374      11.34369052       7.60659726       2.05077770       2.33825712      -0.97182043
C       -0.01241580      11.35286205       7.20448602      -1.66673022       0.97818623       0.75674559
C        2.42003405      11.30885044       7.17350992      -0.51596307       0.82817830       0.25318861
C        4.88921362      11.35113455       7.32612883       0.24878971       0.72360073      -0.26398802
C        7.39306510      11.38712546       7.50274772      -2.01438091      -0.25187118      -0.57182877
72
Lattice="14.76 0.0 0.0 -7.38 12.782534959858314 0.0 0.0 0.0 15.0" Properties=species:S:1:pos:R:3:REF_forces:R:3 REF_energy=-11167.185178089789 config_type=fd_force_conv_snapshot_036 split=train degauss_Ry=0.0019000869 kgrid=8 lattice_temperature_K=300.0 pbc="T T T"
C       -0.03343192       0.02058191       7.67169759       0.21844118       0.18486309      -0.75818644
C        2.43731186       0.00742221       7.60080838       0.45753475       0.49046801       0.01924188
C        4.91822132      -0.00448768       7.55748179      -0.16237288       1.51125819       0.37435776
C        7.39035710      -0.00039657       7.51626825      -1.12407936       0.16786270      -0.03877455
C        9.85033658       0.03962911       7.44085701      -1.33196231      -1.46676525      -0.32332136
C       12.31890350      -0.02910043       7.42262289      -1.42214504       1.59031678       0.20369796
C       -1.24169056       2.16362867       7.40878592       1.76156279      -1.05183213       1.34709248
C        1.26750691       2.12020224       7.56236800      -1.05538977       0.88729053       0.08307414
C        3.77858998       2.16568794       7.44932816      -3.06912944      -2.23850449       0.56925458
C        6.17292865       2.16438958       7.53839818       0.80142057      -0.36907569      -0.02105836
C        8.61603781       2.12377517       7.58479968       0.92614093       0.87243264      -0.21913049
C       11.09885612       2.13860611       7.50907185      -0.33390891      -0.06357027      -0.37453723
C       -2.46365831       4.27065240       7.47723518      -0.20631869      -0.14421729      -0.67037041
C       -0.02058661       4.27164564       7.46056422       1.20870182      -1.28907476      -0.47505682
C        2.50568281       4.24123740       7.55335813      -1.99034366      -0.93284688      -0.82871386
C        4.93895818       4.26037030       7.62146739       0.65181990       0.99276361      -0.39935300
C        7.45786212       4.29093587       7.68967927      -0.69963985      -0.15339176       0.74659976
C        9.89863094       4.21757522       7.60016241      -0.78975342       2.58965341       0.24651017
C       -3.68609501       6.39638605       7.50868444      -0.65715726      -0.06412923       0.26076925
C       -1.22892990       6.38175580       7.42245950       0.23373719      -0.47373656      -0.48062300
C        1.26330916       6.34147362       7.34873864      -0.61861128       0.49855721       0.21356663
C        3.70808247       6.37800922       7.44808083      -0.18744036       0.28989677       0.12685592
C        6.14035508       6.42188064       7.67067952       0.48194275      -0.95444260      -0.00428834
C        8.63884086       6.38202496       7.67182084      -0.84117317       1.12937866       0.65858962
C       -4.91737226       8.52842657       7.55042394      -0.54380117       0.34693386       0.25754072
C       -2.51918742       8.50523356       7.43645422       2.71223718      -0.92449568      -0.03406352
C       -0.05125436       8.49747883       7.22501614       0.83888643       0.02423368       0.78571987
C        2.46850167       8.48448096       7.29874023      -2.08910385       0.83576151       0.12604190
C        4.86954713       8.53777724       7.33030811       2.22908268      -0.66995055       0.72916460
C        7.40174320       8.52066538       7.62166785      -2.29350578      -0.67427849      -0.90035045
C       -6.19172856      10.65549651       7.59037785       0.10310612       0.30748543       0.04646163
C       -3.72170613      10.64875272       7.65046851       1.05024628       0.23897838      -0.32661161
C       -1.29672666      10.64164979       7.48941646       2.32916287      -0.15952564      -0.68193112
C        1.20215584      10.63694670       7.27935016      -0.09000147       0.23313221       0.56589903
C        3.64538338      10.65030161       7.28662737      -0.62740676       0.32563459       0.23618436
C        6.12263200      10.62905542       7.48501629      -0.16105442       0.62854911      -0.46004389
C        1.19544373       0.71671253       7.62240212       1.43992396      -0.34589745       0.01821909
C        3.69456695       0.72817178       7.53311178       0.12558322      -0.43504788      -0.12858344
C        6.13669367       0.74919425       7.55075526       1.26803157      -1.40134995      -0.25056892
C        8.61084757       0.72151052       7.50248914      -0.01438995      -0.18652196       0.18883133
C       11.06007484       0.72191237       7.45916172       2.18809775      -0.36675732      -0.17682016
C       13.53068007       0.75202989       7.52964987      -1.11616062      -1.67012768      -0.42916468
C        0.00246235       2.84011799       7.53334218       0.66480629       0.62754509      -0.69524481
C        2.52062810       2.81944584       7.52970598      -0.44902903       0.43568372      -0.01045385
C        4.96067753       2.86145244       7.46606502       0.83755151       0.83741807       0.84828149
C        7.42500775       2.86330835       7.61692026      -0.80419273       0.12354639      -0.04696377
C        9.86605621       2.84660788       7.54298903      -0.05002235      -1.96159822       0.41687507
C       12.32899532       2.85819255       7.45121275      -1.90570783       0.17190473       0.03358863
C       -1.26220278       4.95966092       7.37769938       1.55600027       0.89662980       0.93792841
C        1.26113208       4.91612546       7.40462178      -0.87083495       1.23268970       0.79404793
C        3.67768307       4.95813596       7.55573401       2.67284660       0.80640234       0.07648595
C        6.19290890       4.98250919       7.73241192      -0.78860105       0.09349277      -0.74196895
C        8.71976455       4.98570694       7.76270105      -2.44531862      -1.11024220      -1.21332287
C       11.07212617       4.98111966       7.50390444       0.84144596      -0.48587833       0.35570107
C       -2.45327464       7.07804512       7.47508888      -0.74967018       0.74040983      -0.44663147
C        0.02051942       7.05787704       7.35200572      -0.73428829       0.78791199      -0.58434207
C        2.47476374       7.08386842       7.37191044       0.25072935      -0.82463557      -0.35371489
C        4.93201939       7.12010368       7.44747771      -1.22334914      -0.57224683       0.33791238
C        7.36212600       7.10230110       7.71962950       1.80072146      -0.05742405      -0.56818500
C        9.82363648       7.13054499       7.56863215       1.32453310      -1.00689773      -0.07268637
C       -3.66933260       9.21013936       7.58453215      -3.13419815       1.82201971      -0.17589328
C       -1.31319684       9.22142273       7.28769443       1.60388501       0.00584052       1.03192100
C        1.20490083       9.19883043       7.26543245      -0.04368561       0.21548570      -0.41381674
C        3.64870716       9.22655380       7.31906916       0.48528595       0.54102773      -0.56351356
C        6.13926596       9.21570260       7.42922781       0.02731926       0.28412053       0.64397752
C        8.59196558       9.22372074       7.53846574       1.15007116       1.14814514       0.76692742
C       -4.95234732      11.36635188       7.62167292       0.23150958      -0.31229082       0.12727989
C       -2.46607756      11.37961845       7.64101014      -1.70950849      -1.00664834      -0.51970222
C       -0.01757605      11.34905655       7.43296652      -0.92759103      -0.00374558      -0.12889017
C        2.41325838      11.39334058       7.32067064       1.10375068      -0.80913594      -0.09330148
C        4.87367894      11.33363401       7.35202394       1.47676761       0.53428115       0.57798296
C        7.33503990      11.38794413       7.61832693       0.20796291      -1.26372163      -0.14239901
72
Lattice="14.76 0.0 0.0 -7.38 12.782534959858314 0.0 0.0 0.0 15.0" Properties=species:S:1:pos:R:3:REF_forces:R:3 REF_energy=-11167.060990640046 config_type=fd_force_conv_snapshot_040 split=train degauss_Ry=0.0019000869 kgrid=8 lattice_temperature_K=300.0 pbc="T T T"
C        0.01598712      -0.00371596       7.49575863      -0.62863447       1.03224727       0.56996626
C        2.45303854      -0.02300598       7.42348334       1.04264790       1.79383065      -0.00029131
C        4.84677323      -0.02131643       7.51412125       4.52073444       1.44171344      -0.07692715
C        7.39009954       0.04235913       7.60269815      -1.62792791      -2.22512626      -0.47796551
C        9.82355717      -0.03362015       7.53037215      -0.06091689       2.00439526       0.07807412
C       12.26856326      -0.00743351       7.52356913       0.89899933       0.56607798      -0.03236196
C       -1.22389199       2.12375340       7.55333461       0.90897316      -0.02257454      -0.81475945
C        1.26981537       2.10518464       7.58323113      -0.49014559       2.33960155      -0.98359043
C        3.70037985       2.11852524       7.51441355       0.10651001       1.53639123       0.15770427
C        6.12805606       2.15853661       7.54361101       0.12073386      -0.81540274      -0.29223493
C        8.60754463       2.19439038       7.42654916      -0.31866098      -2.81637046       0.24408356
C       11.07201528       2.13722388       7.52629344      -0.29312273      -0.74516380      -0.71009653
C       -2.45576325       4.21620458       7.54001057       1.65946814       0.47629763       0.07300442
C        0.04512340       4.28402549       7.50894327      -0.60182763      -1.64665454      -0.15251193
C        2.45044025       4.29282941       7.52942869       1.77604890      -1.34346825      -0.07816976
C        4.89102658       4.31032167       7.51773150       1.30669968      -1.90928784      -0.43714616
C        7.38986946       4.28762782       7.34203355      -0.62000764      -0.61506984      -0.63287961
C        9.86905274       4.28715581       7.35953787      -0.58417572      -1.65630440       0.15163569
C       -3.68477006       6.36905609       7.48080801      -0.89460660      -0.55520067      -0.32089321
C       -1.23308448       6.34879740       7.58611779       0.11608788      -0.25442248      -0.77780884
C        1.28036329       6.39231664       7.52669151      -1.36512671       0.72854291       0.03364854
C        3.69879008       6.41672316       7.44975059      -0.52991387       0.27168127       0.45979655
C        6.12176209       6.37667788       7.31264862       1.11203786       2.07010546       0.09890005
C        8.59040989       6.43688262       7.23828927       0.41862599      -1.41262347       0.73809481
C       -4.90071567       8.52231255       7.41956652      -0.65239712      -1.27481954       0.14145670
C       -2.46852676       8.47946603       7.46082475      -0.11848543       0.97578096       0.00346302
C       -0.03542051       8.45386841       7.52128829       0.25571524       1.87356802       0.47943695
C        2.45280996       8.55522347       7.69730142      -0.67608880      -1.33083282       0.22330468
C        4.95062891       8.52964652       7.58389162      -2.16911735      -0.19288107      -0.44466329
C        7.36673903       8.55393071       7.44955769       0.47420193      -1.14132581       0.03762989
C       -6.13974448      10.64406469       7.54017547      -0.09353596      -0.00362783      -0.69628173
C       -3.67221519      10.64678978       7.41867386      -1.01157791      -0.28066753       0.32767039
C       -1.26681018      10.62367130       7.37479626       1.54847336       1.75140565       1.76654867
C        1.24123616      10.61999878       7.68889903      -2.41650916       0.37545511      -0.37866950
C        3.68288969      10.64977765       7.62724880       1.35345904      -0.60829473       0.53084873
C        6.17117940      10.68440782       7.65499339      -1.47175936      -1.09275998      -0.87463299
C        1.26172013       0.71368498       7.51806206      -1.11032730      -1.03812301      -0.26079214
C        3.70201305       0.71498294       7.40877381      -2.37026504      -0.62006549       0.82284763
C        6.14197561       0.72305645       7.57996367      -1.14242444      -0.02074495      -0.20042315
C        8.60281511       0.73811722       7.52571884       0.66424399      -0.11242020       0.08422985
C       11.04075940       0.71771585       7.49021940       0.41781969      -0.89905744       0.44536520
C       13.51996718       0.71008020       7.51804064       0.46646265      -0.70065775       0.15819664
C        0.02041156       2.83992096       7.48883301       0.76398788      -0.22700244       1.01945526
C        2.50430873       2.87276499       7.54842978      -1.81787278      -1.39364847       0.05826583
C        4.89642105       2.86727978       7.57195738       0.75826589       0.15159558      -0.44152012
C        7.35713826       2.84396332       7.39431043       0.54900971       1.73281297       0.58568110
C        9.84498559       2.83906972       7.44038129       0.32150282       1.93607668      -0.20495086
C       12.32051884       2.81511100       7.49988697      -1.01011290       0.19803099       0.59991730
C       -1.19914554       4.92922996       7.57758148      -1.15565354       0.72051027      -0.22557316
C        1.26584821       4.99706749       7.46788245      -0.80807433      -0.36737927       0.59814607
C        3.68434270       4.98110483       7.51076887      -0.55532794       1.79661361      -0.32960386
C        6.13313574       4.99834933       7.34552773       0.45025647      -1.40995338       0.48191292
C        8.63466089       4.98014636       7.22890445      -0.82087302       0.97983405       0.66299032
C       11.10811475       4.92843716       7.49392198      -1.06642237       1.73771632      -0.43432772
C       -2.48111406       7.06194210       7.50952657       1.50950778       0.47429911       0.36423790
C        0.00790461       7.03738255       7.50688103      -0.48056104       0.97951960       0.59898862
C        2.46878286       7.14770970       7.59757144       0.81036801      -1.14672487      -0.59330159
C        4.92770641       7.11871654       7.37347896      -0.56486237      -0.05328663       0.95543582
C        7.34996045       7.12464401       7.35297182       0.33112723      -0.08591136      -0.71948594
C        9.83547780       7.09873777       7.36647824       0.51791608      -0.08463789      -0.00965064
C       -3.69508882       9.20151767       7.47163452       1.21148581       1.36095407      -0.58542219
C       -1.25606073       9.24123698       7.43897086       0.13702334      -3.22498972      -0.09087461
C        1.17052074       9.18843248       7.72387594       1.45846238       0.91490186      -1.01769842
C        3.68170316       9.22710563       7.71395179       1.00283822       0.60788489      -0.64621310
C        6.13368566       9.25237298       7.55415993       1.64989541       0.82368606       0.43525948
C        8.64191565       9.20609500       7.46828651      -1.68024831       1.74353113       0.14817088
C       -4.92314518      11.37657120       7.41272164       0.47913330      -1.96477070       0.55113859
C       -2.46032187      11.37264647       7.47674800      -1.39159056      -1.44603418      -0.89802463
C       -0.04105468      11.32520139       7.57331960       2.18615065       1.51989838      -0.16120277
C        2.47964045      11.34535932       7.63511524      -1.69314034      -0.11556672      -0.01188621
C        4.92373600      11.35759084       7.58036328      -0.37776499       0.46625876       0.31234841
C        7.37854066      11.37511828       7.56813717       1.36518456      -0.52736514       0.01498053
72
Lattice="14.76 0.0 0.0 -7.38 12.782534959858314 0.0 0.0 0.0 15.0" Properties=species:S:1:pos:R:3:REF_forces:R:3 REF_energy=-11166.513830800068 config_type=fd_force_conv_snapshot_044 split=train degauss_Ry=0.0019000869 kgrid=8 lattice_temperature_K=300.0 pbc="T T T"
C        0.03481520       0.00690086       7.55845290      -0.21226282      -0.93844828      -1.85855894
C        2.50066755      -0.01926120       7.27028371      -0.30434662      -0.90399267       0.79683578
C        4.90018388       0.01241335       7.43148937       0.72153588      -0.98444660      -0.38379911
C        7.37999322      -0.01339335       7.48505038      -0.76496567       0.92948619       0.13829733
C        9.83426978       0.03687393       7.67307782      -0.28535723      -1.33552251       0.14148498
C       12.28790223       0.01909862       7.70350546       0.15275464      -1.19906815      -0.53898267
C       -1.28085025       2.10339988       7.59238407       2.01289353       1.53730063      -0.68160459
C        1.22641547       2.09926930       7.53077049       1.15985395       0.65080020      -1.12828029
C        3.66184050       2.15217295       7.30183767       1.97568915       0.25324749      -0.64025431
C        6.13521022       2.11005675       7.18049332      -0.76526854       0.22777351       0.08009861
C        8.56467420       2.09768747       7.41641122       0.21715897       1.30494644      -0.68211033
C       11.08070770       2.13505566       7.63028149      -1.86278687      -0.55011503      -0.16039878
C       -2.44668988       4.26229074       7.42952790      -0.55748047      -0.07566499      -0.22368366
C        0.01198271       4.26811606       7.59889061      -0.56414580      -1.05214324      -0.14438338
C        2.43019167       4.27505637       7.48361084       1.61430826       1.58923512       0.58358334
C        4.92347696       4.30581807       7.33916933      -1.85495760      -1.75265649      -0.52942768
C        7.32805315       4.25449438       7.27762526       0.50085861      -0.67830869      -0.18304198
C        9.85226594       4.24156282       7.35394642      -1.61011016      -1.58087132      -0.07804121
C       -3.69057398       6.34455103       7.27500867       2.08712384       0.29000990       0.82275198
C       -1.21443189       6.40219039       7.67042829      -0.67972640      -0.40134252      -0.66752420
C        1.23856396       6.42245564       7.82598391       0.70312035      -0.56897664      -0.67331073
C        3.71414285       6.45413885       7.50895566      -2.30669683      -3.27780018       0.64355741
C        6.12622705       6.44105056       7.48532379       0.57758650      -2.37993470      -0.88952379
C        8.63478014       6.36043856       7.29034074      -1.46354905      -0.45134816      -0.35888101
C       -4.91673649       8.44979982       7.24808692       1.23454629       2.32496863       0.57109523
C       -2.43010378       8.48529034       7.54149816      -0.45405348       0.42878699       0.00548802
C        0.03322541       8.57658383       7.81256671      -0.04674471      -1.59972085       0.48329463
C        2.45994347       8.52890521       7.87272986       1.98647004      -0.33476946      -0.94127315
C        4.87762149       8.55204770       7.62631818       2.23114830      -0.44216469      -0.25969839
C        7.37510566       8.55523391       7.41543467      -0.24614559      -1.47500126      -0.71453399
C       -6.16606721      10.62440659       7.24592867       2.20135333       0.63075151       1.05550598
C       -3.71394139      10.60246796       7.49295626       1.00503060       0.39976643      -0.63344320
C       -1.23758057      10.66893354       7.60684758      -0.16440148      -0.29614789       0.73323748
C        1.24747530      10.65545407       7.71686147       0.56487471       1.50137924       1.07908428
C        3.73190941      10.65307280       7.72900699      -2.04172382       1.53990413      -0.04579829
C        6.15365807      10.70106820       7.50500630       0.56732651      -1.34141214      -0.00882583
C        1.29039350       0.67104122       7.38079737      -2.19431262       1.40764838       1.05886076
C        3.69889181       0.70749367       7.27444044      -0.48593258       1.11592871       0.48019337
C        6.13501064       0.71034088       7.36912777       0.45906327      -0.92287922      -0.12243053
C        8.59929372       0.68823061       7.49093839      -0.30240493       1.04799219       0.34062823
C       11.05351736       0.69782293       7.73874463       1.21394224       2.06205019      -0.53173139
C       13.51483209       0.71626500       7.57702092       0.84412274      -1.12500059       1.01507204
C       -0.00638425       2.79090288       7.52326256      -0.39937382       1.51054290       0.82504001
C        2.46372519       2.88418868       7.43801124      -1.34572054      -2.09200483      -0.06837000
C        4.94073550       2.85954710       7.18176301      -2.45440053       0.00106058       1.02717037
C        7.31604111       2.83014579       7.17121220       2.59533992      -0.20643593       1.35513772
C        9.81359313       2.80496177       7.50842270       0.51123918       0.78594330      -0.44011578
C       12.28100641       2.85420224       7.53743947       0.49554722      -0.53578833       0.32648845
C       -1.22916279       4.97883112       7.50146458       1.15909316       0.05114207       1.02180602
C        1.23403943       4.99528985       7.70768222      -0.79987328      -0.18822198      -0.70701095
C        3.67319211       5.01093935       7.42499363       0.27489387      -0.37493986      -0.02240922
C        6.11896629       4.97661493       7.38483905       1.19348680       2.17913540      -0.15335165
C        8.57944270       4.90645810       7.30354003       1.27574051       2.26341847      -0.05619069
C       11.07204103       4.93647744       7.29356790       0.28065468       0.16750686       0.56978037
C       -2.47539566       7.06600246       7.52340511       1.25361205       0.18748021      -0.40957699
C        0.00606639       7.13380629       7.82466294       0.21274645       0.11294239      -0.09186243
C        2.50663170       7.11359958       7.72687604      -2.34299000       0.88146441       0.70624321
C        4.88960309       7.10734993       7.55552850       2.50939180       2.91679415      -0.00693761
C        7.36165374       7.08903431       7.31287643       1.29898405       1.42162670       1.29848372
C        9.90060667       7.06032158       7.25987023      -3.45560353      -0.41525039      -0.28365336
C       -3.66347195       9.17756523       7.38819272      -0.98510609       0.13101750       0.28533897
C       -1.20002925       9.23200962       7.69356346      -0.89249547       0.70554645      -0.40878535
C        1.29218403       9.25068888       7.89740370      -2.72773348       0.58449197      -0.77597822
C        3.68150425       9.25328036       7.70908047      -0.15188278      -0.30549693       0.65783577
C        6.14480663       9.28100701       7.55013698      -0.50401284      -1.07675923      -0.46709385
C        8.62020613       9.21723653       7.28270523      -0.25905741      -0.91153063      -0.08725347
C       -4.90461669      11.33619543       7.37701770      -1.04216710      -0.20135929      -1.03502509
C       -2.49853321      11.35390655       7.54692228       1.00460225       0.08347215      -0.21471617
C        0.00363803      11.39074924       7.67189901      -0.24254013      -1.96036126      -0.76957231
C        2.47642912      11.41341630       7.74768598       0.09425741      -1.96850291      -0.33383023
C        4.92810291      11.37350674       7.63077971       0.23487207       0.86110847       0.40256508
C        7.41309921      11.34598997       7.36803500      -1.65489286       1.81771903       0.90631644
72
Lattice="14.76 0.0 0.0 -7.38 12.782534959858314 0.0 0.0 0.0 15.0" Properties=species:S:1:pos:R:3:REF_forces:R:3 REF_energy=-11166.746070981602 config_type=fd_force_conv_snapshot_048 split=train degauss_Ry=0.0019000869 kgrid=8 lattice_temperature_K=300.0 pbc="T T T"
C       -0.04104058      -0.00008357       7.52226323       1.77448850      -1.31306136      -0.90745209
C        2.45823583       0.01405123       7.34084611      -1.19042154      -0.03703828      -0.05077260
C        4.93740612      -0.05767689       7.47244410      -0.92458155       1.34733648      -0.69483574
C        7.40238131       0.01402049       7.54926068      -0.22610024       0.31155934       0.39322015
C        9.86438713       0.04677880       7.62561865       0.11271871      -1.41568797       0.51677502
C       12.28417851      -0.00643978       7.55771320       0.37491878       0.69462646      -0.41094610
C       -1.23493364       2.15438566       7.50995237      -0.95078135      -1.30994235      -1.15390801
C        1.17843366       2.17120568       7.48092870       2.08615531      -2.57704318      -0.83653618
C        3.66624597       2.10820005       7.34484215       0.03682874      -0.47693295       0.67899235
C        6.15759466       2.09279821       7.49636729      -0.70377907       1.54659106      -1.51254862
C        8.63615573       2.12183731       7.42946015      -0.83133818       1.01075747       0.13172944
C       11.07234328       2.16858943       7.52964374      -2.50128485      -1.14508759      -0.86500549
C       -2.50075048       4.25997993       7.52872498      -0.18736606       0.21923514       0.66887660
C       -0.01538370       4.26170384       7.60766257       0.10125544       2.42044680      -0.08203619
C        2.43410626       4.25039275       7.51035403       0.49011705      -0.85276036       0.48895003
C        4.84636060       4.20450193       7.42377074       1.82396244       1.70304860      -0.02020733
C        7.34923303       4.22546571       7.43080786      -1.00660437      -0.12923650      -1.23795223
C        9.79416740       4.25290115       7.45796726       0.10193550       1.27582510      -0.01970108
C       -3.69337019       6.37586090       7.64409221      -0.33993506       1.29101466      -0.68333520
C       -1.27526122       6.37762033       7.69203882       1.34434063       1.96340725       0.26376382
C        1.22707346       6.41077036       7.65771075      -0.07870327      -0.45504361       0.04625492
C        3.64893704       6.40376975       7.46450724       1.71113600      -0.46127673       0.25404222
C        6.15431175       6.40131447       7.41284815      -0.12891228      -1.00763024      -0.33552819
C        8.63269702       6.34599484       7.34703997      -0.36208177       1.61497777       0.26012802
C       -4.88141466       8.54453796       7.42023739       0.36591169      -1.07837620       0.04958090
C       -2.42208236       8.53908320       7.47821833      -1.07785838      -0.23229403       0.69117912
C        0.05309778       8.50969723       7.56663769      -1.51990018      -0.49255215      -0.21748987
C        2.50790453       8.55186549       7.62822085      -1.87717836       0.12241485      -0.41335831
C        4.93905235       8.52922127       7.60372098      -0.93193696      -0.64472083      -1.01348490
C        7.38511562       8.53630242       7.37076671       0.94662850      -0.48212709       0.58287860
C       -6.11406957      10.62901895       7.38552743      -0.12318772       1.72625178       0.24891750
C       -3.67420714      10.68237835       7.41332103      -0.28182967      -1.34770311       0.25711957
C       -1.18872782      10.62438644       7.40006130       0.11685998      -0.27251431       0.99762711
C        1.24190834      10.67394325       7.59474073       1.28771516      -0.24850123       0.62743479
C        3.74096896      10.68592947       7.65455621      -1.63823931      -1.45718480       0.04727127
C        6.15036984      10.62113060       7.53801223       0.75018105       2.00426182       0.14646572
C        1.19099701       0.71668616       7.39528950       0.08287540       0.45512383       0.64624909
C        3.67649138       0.70192346       7.34103440       1.40664565      -1.18159725       0.54221095
C        6.14337726       0.71243960       7.45606726       0.68180359      -2.21732399       0.79430864
C        8.63627758       0.74533278       7.63056256      -0.48262049      -1.52265074      -1.09959809
C       11.08858529       0.75069294       7.55076263      -0.79005321      -0.64480850       0.42509308
C       13.49913886       0.68425221       7.47080829       0.61770599       2.37205324       0.92740694
C       -0.00084214       2.88701106       7.45051814      -2.11823702      -1.08739332       1.14511124
C        2.44185682       2.80335029       7.46503756      -0.53206923       1.74104153      -0.40520997
C        4.88669915       2.78998160       7.40597385       1.05685684       0.74518720       0.31101118
C        7.40436247       2.79736434       7.35957780      -1.68791354       0.61640167       1.37130044
C        9.81002699       2.89095388       7.41324371       1.77537193      -2.87662272       0.75334917
C       12.24587296       2.82537244       7.45298568       3.65772772       2.13925579       0.81222640
C       -1.27284814       4.99592379       7.64464938       0.49473244      -2.27682703      -0.35739028
C        1.25112177       4.97445885       7.65181833      -2.15084067       0.21669797      -0.50645307
C        3.64562372       4.95697694       7.49585638       0.45429722       0.48646146      -0.69986019
C        6.10291068       4.95077891       7.38488953       0.15529309      -0.17208059       0.54596142
C        8.55209647       4.92233505       7.37864157       1.46415738       1.65785837       0.39900641
C       11.01638877       4.96015764       7.62218942       1.15459784       0.06193222      -0.83810121
C       -2.47221582       7.12655661       7.66393055      -0.20641022      -0.82406376      -0.45903242
C       -0.01631409       7.09747727       7.70471956       0.59519161      -0.50028628      -0.54211504
C        2.45381210       7.13965921       7.54258301      -0.06008977      -0.61006133       0.59774626
C        4.91915003       7.11434316       7.44292600      -0.40458674      -0.49087682       0.66271470
C        7.42356488       7.10085174       7.37193967      -1.35666238      -0.05556488      -0.12772983
C        9.87188830       7.10898169       7.41452042      -0.67800196      -0.90542915       0.66111701
C       -3.66448698       9.28382364       7.51115544       0.26434926      -1.82130083      -1.07525900
C       -1.17212907       9.18842693       7.38972070      -0.34850249       1.59464446       0.80629975
C        1.23356028       9.24755866       7.59094774       2.05056841       0.17702662       0.20088620
C        3.72002226       9.24602016       7.63040741       0.28634402       0.61971737       0.32323343
C        6.13320198       9.24157255       7.51526293       1.90274104      -1.37028074      -0.21608142
C        8.66274755       9.23062809       7.37254591      -1.95099293      -0.23735165      -0.07870095
C       -4.88274604      11.38409049       7.32498342      -1.57412423      -0.33935734       0.61195521
C       -2.43991154      11.28687702       7.49661349       1.36668454       2.96533812      -0.99475056
C        0.02937055      11.37853491       7.56915108      -0.76087993      -0.12239634      -0.86218936
C        2.50780815      11.37818407       7.70399292      -1.20568129       0.84793285      -0.90257651
C        4.93600778      11.36710013       7.57300636       0.58724922       0.15492491       0.35000170
C        7.39709520      11.32900621       7.52080210      -0.29066013       0.58963674      -0.61824978
72
Lattice="14.76 0.0 0.0 -7.38 12.782534959858314 0.0 0.0 0.0 15.0" Properties=species:S:1:pos:R:3:REF_forces:R:3 REF_energy=-11166.763573343706 config_type=fd_force_conv_snapshot_052 split=train degauss_Ry=0.0019000869 kgrid=8 lattice_temperature_K=300.0 pbc="T T T"
C        0.03119036       0.02027132       7.62397473      -0.86652193      -0.53618480      -0.92731926
C        2.44922503      -0.03173321       7.51266882       2.18216159       0.42540085       0.36504446
C        4.92023182       0.05818207       7.48938317      -0.42381447      -1.58153775      -0.14005802
C        7.38330643       0.03235753       7.36908903      -0.75487795      -1.53759451       0.46038585
C        9.85629806      -0.02491649       7.29564001      -0.54287969       1.44624347       0.81831554
C       12.31942331       0.01722674       7.38541543       0.58636733      -0.68438267      -0.03920187
C       -1.27667606       2.13515055       7.65256445       1.86761668      -0.26218773      -1.67528583
C        1.22815070       2.06498612       7.54071012      -0.10468606       2.39976279      -0.23295069
C        3.70796626       2.13515807       7.55608387      -2.34947973      -1.46460475      -0.67757490
C        6.12667344       2.16219321       7.54340764       1.72519891      -0.52928344      -0.68176863
C        8.63651646       2.15286602       7.50265533      -1.35605997      -0.71998705      -0.40642533
C       11.03615726       2.12454582       7.55627863       1.96803832       0.36389260      -0.30652460
C       -2.45095499       4.29525131       7.49056272      -0.14846038      -1.01713072       0.08869637
C        0.01121874       4.24530953       7.36428864      -0.04405380      -0.55684798       0.77031253
C        2.45602866       4.23456022       7.50368539      -0.76375236       0.28361556       0.06735648
C        4.87854848       4.22531986       7.58164565       2.00335705       1.14929288      -0.34254910
C        7.38335871       4.29617425       7.64970775       0.57384914       0.04248619      -1.33796840
C        9.87079694       4.25461616       7.67251068      -0.36994575       1.73638295      -0.93581033
C       -3.67320962       6.41386906       7.49747823      -2.42783744       0.52535994       1.04242138
C       -1.27129549       6.35920618       7.36367672       1.07142908       1.68947909       0.13148236
C        1.16460204       6.38857737       7.40539217       0.95168535      -0.10792051       0.15001898
C        3.67106943       6.31574869       7.47106182      -0.94511798       2.13118972       0.24200920
C        6.10765080       6.36280835       7.59855293       0.81299259       1.77109644      -0.28669060
C        8.61872741       6.39858184       7.61866603       0.52917134       0.43327613       0.19671510
C       -4.92305132       8.55652448       7.58483469      -1.95187276      -0.31677508       0.87307850
C       -2.50449612       8.52864205       7.42169608       2.43045148       0.41232704       0.73698384
C        0.04869161       8.49156118       7.40769724      -1.89513032       2.54293056      -0.09005854
C        2.49051221       8.44588247       7.47940831      -0.56610112       2.33624806      -0.88406354
C        4.92111201       8.48666877       7.50080166       0.05189592       1.52692443       0.08543133
C        7.37502247       8.49521644       7.64548972       0.37431971       0.62707535      -0.17465735
C       -6.10223189      10.67099317       7.67465025      -3.56828135      -0.39637258      -0.48952056
C       -3.66283720      10.65205554       7.58885468      -0.74869110       1.20249029      -0.03469755
C       -1.22361200      10.69548951       7.40346460      -1.09236352      -1.33089787       0.70312010
C        1.25818061      10.67599933       7.42384503      -0.74632646      -1.88495312      -0.74269169
C        3.69662321      10.62150207       7.23749962       0.55013432       0.62888155       1.00668305
C        6.17198032      10.68720262       7.47881841      -0.24284686      -1.69503961      -0.20192030
C        1.25910861       0.67457321       7.56170499      -0.52533525       0.55478544       0.31479610
C        3.69288080       0.71476074       7.47782099      -0.96338104       0.35976778       0.59019853
C        6.14411371       0.73384722       7.45100500       0.76687497       1.12283443       0.14850075
C        8.59668316       0.70579413       7.37475532       1.84543449       1.01307250       0.02461343
C       11.07723254       0.71065964       7.43766027      -0.29202821      -0.18633402      -0.60176130
C       13.57908886       0.71265937       7.51077999      -2.55902283       0.56744324       0.99354471
C       -0.02627915       2.81285211       7.51397626       1.02408839       0.30568385       0.29259463
C        2.46075018       2.80639502       7.52271361      -0.77620216       0.68417724       0.11253976
C        4.88329639       2.83366998       7.54242518       2.04726789       0.36778217       0.51910521
C        7.40716421       2.87985484       7.53168533      -1.33432566      -0.62739905       0.68910116
C        9.85041270       2.85645210       7.55283732      -0.34407145      -0.42674836       0.51860282
C       12.28289044       2.85543879       7.55992807      -0.87599747       0.07643298       0.36952820
C       -1.20278936       4.96729768       7.34555114      -1.44641574      -0.77767077       0.51236532
C        1.21706293       4.98685234       7.43961359       0.40031099      -1.83536862      -0.48693531
C        3.69495940       4.93137360       7.54499167      -1.54522966      -0.48155785      -0.30605615
C        6.11506527       4.98307170       7.55550349       0.50410514      -1.93689146       0.93776386
C        8.65802963       5.00287666       7.59150107      -1.51033002      -1.73794515       1.05354706
C       11.08032183       5.01653098       7.59586097       0.45633327      -1.50705238      -0.45753552
C       -2.46699430       7.09659942       7.43004036      -0.42113667       0.86030629      -0.36753483
C       -0.06918389       7.10113311       7.41074765       1.88715630      -0.83345857      -0.43024660
C        2.42568140       7.04591116       7.41970477       0.57171333      -0.21950613       0.50083495
C        4.85468684       7.08086253       7.53484788       1.99964514      -0.74380215       0.03868328
C        7.39823374       7.06953183       7.62669766      -2.33587679       0.49344998       0.06404849
C        9.81637756       7.14453340       7.63939536       1.97310365      -0.68497145      -1.16432355
C       -3.71976657       9.25606992       7.58817829       1.97761105      -0.78209873      -0.83370334
C       -1.20776546       9.24757762       7.41304740      -1.04521308      -0.28202482      -0.20671592
C        1.29466118       9.22866716       7.40015912      -1.35603220      -0.90351419       0.67849947
C        3.69422005       9.21546337       7.43840462       0.68767265      -0.82834747      -0.50269643
C        6.17599692       9.21782962       7.55466106      -1.47935105       0.43816612      -0.22023607
C        8.57318196       9.25989994       7.65149384       1.81943575      -0.78446749       0.01803243
C       -4.89901261      11.33699036       7.60589406       0.53210445       1.17140437      -0.01406573
C       -2.48923158      11.42781039       7.51521881       2.15894735      -1.77628184      -0.54494789
C        0.00394667      11.35145132       7.40804516       0.77259670       1.99622275      -0.28772161
C        2.47367289      11.35476443       7.30213115       0.60832301       0.02363409      -0.24184465
C        4.94330493      11.36398475       7.26766991      -0.64109480       0.06497640       0.78503596
C        7.37708670      11.41303364       7.59118854       1.64875127      -1.79735486       0.37407031
72
Lattice="14.76 0.0 0.0 -7.38 12.782534959858314 0.0 0.0 0.0 15.0" Properties=species:S:1:pos:R:3:REF_forces:R:3 REF_energy=-11166.865716987435 config_type=fd_force_conv_snapshot_054 split=train degauss_Ry=0.0019000869 kgrid=8 lattice_temperature_K=300.0 pbc="T T T"
C       -0.00832343      -0.00885509       7.60422923      -0.10544531      -0.29026778      -1.19975875
C        2.46782405      -0.03407154       7.58430135      -1.75514326       0.99905124       0.49832633
C        4.88638101      -0.00427733       7.54781932       1.91490673      -2.17140203       0.49925193
C        7.39033853       0.01090392       7.54686756      -1.47548051      -3.02658386      -0.21099784
C        9.79679895       0.02930278       7.36513820       2.31830510      -0.90053865       0.21661184
C       12.26645598       0.00735132       7.42662992       1.69013395       0.46252552      -0.16683580
C       -1.23915626       2.13999070       7.48144417       0.87235293      -0.12247913      -0.06288121
C        1.24611840       2.13201223       7.52551188      -1.03463300       0.09526091       0.09005263
C        3.69053734       2.08811934       7.56647621       0.64878754       1.60511502      -0.59153679
C        6.19121635       2.13313449       7.60488278      -2.78446256      -2.68646650      -0.17389013
C        8.58951416       2.11614993       7.54850979       0.54162294       1.13749435      -0.06517129
C       11.05920527       2.13672024       7.42114288       0.00843322       0.39766816       0.15062756
C       -2.51671827       4.25412741       7.53448350       3.06148350      -0.66467748      -1.18799184
C        0.01409481       4.28160775       7.46963176      -1.02867318       0.57429934      -0.25912940
C        2.46986751       4.29301741       7.47338733      -1.00121405      -0.96019879       0.39445505
C        4.90114583       4.26164495       7.69090921      -0.56155516      -0.16081042      -1.19115224
C        7.33277816       4.25603055       7.67865454       1.09957340       0.84971848      -0.77298751
C        9.83918246       4.26670666       7.54131699      -0.97107764      -0.01465812      -0.53257471
C       -3.66217808       6.38889223       7.43717530      -1.28914727      -1.17754931       1.79811385
C       -1.26222297       6.38299272       7.30574127       1.45762677      -1.05676479       0.50119542
C        1.25408739       6.45617258       7.30859461      -1.07879195      -1.71773860       0.04831797
C        3.68704331       6.42715496       7.58021983       0.65245034       0.46177270      -0.17057573
C        6.13831441       6.38318759       7.72897150       0.79278603       2.95033496      -0.32542453
C        8.69255843       6.34280833       7.70038620      -2.36100161       2.22723843       0.03667216
C       -4.93634062       8.51921879       7.66169754       0.80121925      -0.98166698       0.96889374
C       -2.47319136       8.48080996       7.43865734      -0.54601515       1.54234771       1.07473449
C       -0.01641730       8.52431873       7.21022590       1.25764406       0.01817410      -0.16047515
C        2.48934971       8.52463841       7.25705842      -0.75853277       1.72440058      -0.76902570
C        4.93003008       8.54293613       7.37515397       0.02067527       0.98934636       1.27711399
C        7.40716062       8.49948961       7.70293683      -1.08204851       0.37278090      -0.67113480
C       -6.12445127      10.66289349       7.62260986      -0.66342252      -1.66954224       0.22723230
C       -3.69136884      10.63107392       7.63140461       0.70834561       0.33878912       0.00782310
C       -1.22831125      10.59561301       7.46512231       1.16775880       1.85980079      -0.24636208
C        1.27167560      10.66351002       7.23416716      -1.91445935       0.10922226       0.21964317
C        3.67601499      10.68584538       7.26537779       1.59123543      -0.58583434       0.30184777
C        6.16279084      10.67146590       7.46858780      -0.57203009      -1.32108268      -0.10743586
C        1.21513133       0.70072421       7.59597415       0.93824465       0.06135012      -0.16234485
C        3.65861203       0.67789183       7.59159505       1.04706196       0.65776069      -0.35637470
C        6.14573109       0.64607618       7.60353877      -0.28198471       3.07184556      -0.35778623
C        8.59056021       0.69663832       7.51684570       0.46088515       1.74096286      -0.36107519
C       11.06701037       0.72008553       7.40466233      -1.84861495       0.51054730      -0.25055837
C       13.52587792       0.70526769       7.45407136      -0.28602083       0.36552859       0.80066338
C       -0.00420878       2.87461458       7.51747446       0.82501481      -1.36159144      -0.12738556
C        2.47548540       2.83395012       7.48101115       0.15767059       0.53423461       0.54533767
C        4.96330023       2.81965469       7.53253115      -2.00530337       0.58874303       1.36691748
C        7.35373001       2.82918407       7.61905651       2.13649622       1.15369564       0.14711184
C        9.81340818       2.87228084       7.45890156       0.49102928      -2.12494709       0.54795942
C       12.30338084       2.84376673       7.45969995      -1.40746018      -0.42348743       0.40149910
C       -1.26865107       4.94707936       7.41227821       1.00064353       1.06469948       0.32038028
C        1.24651254       5.02258560       7.44709069      -0.42413869      -0.29216062      -0.54926734
C        3.65445292       5.00428052       7.61193359       2.05495266      -0.46028120       0.02452884
C        6.10554050       5.00362101       7.67340647       0.69035663      -2.10225453       0.82880359
C        8.59509350       4.96969906       7.59884224       0.25932661      -1.62969734       0.62305054
C       11.07067545       4.95162438       7.47398824      -1.54210011       1.50235163       0.21339025
C       -2.46545648       7.06908613       7.46751556       0.61615562       1.40943144      -1.44165302
C       -0.02571700       7.10445008       7.21433413       0.83733297       0.07755090       0.35622814
C        2.49311079       7.13662140       7.33800193      -0.69298995      -0.64462956       0.41022054
C        4.91983291       7.18865861       7.65753000       0.00474163      -3.59004960      -0.82943839
C        7.42845079       7.07294567       7.70916701      -0.65938409      -0.21942129       0.41900060
C        9.90297267       7.08584466       7.70698795      -1.11032113      -0.00741275      -1.50385778
C       -3.73689564       9.23130849       7.64829461       2.68705683      -1.14152892      -1.13473350
C       -1.22777571       9.20091719       7.36348066      -1.27541372      -0.45392466      -0.05142258
C        1.24621558       9.25734546       7.14233823      -0.17384257      -1.39575575       0.83314567
C        3.69620133       9.25505855       7.27390761       0.13017675       0.34719354      -0.11647457
C        6.15736906       9.22407120       7.50698957       0.92942345       0.72333437       0.02464454
C        8.62397122       9.22340217       7.70719493      -0.71306075       0.63549263      -0.29321503
C       -4.90758350      11.35216024       7.65985358       0.16668385      -0.07870558      -0.45808445
C       -2.42912242      11.31560803       7.54451267      -1.93293530       1.20531439       0.26165346
C        0.01044687      11.34710630       7.42195135       0.30989455       0.00289069      -0.20827478
C        2.47455330      11.39181626       7.25534064      -0.77452529       0.42374428       0.14702211
C        4.91579788      11.39469299       7.40843844       0.05864532      -1.32089474      -0.42573200
C        7.40016775      11.32836701       7.51583477      -0.29590415       1.96299227       0.91054821
72
Lattice="14.76 0.0 0.0 -7.38 12.782534959858314 0.0 0.0 0.0 15.0" Properties=species:S:1:pos:R:3:REF_forces:R:3 REF_energy=-11166.295825437659 config_type=fd_force_conv_snapshot_057 split=validation degauss_Ry=0.0019000869 kgrid=8 lattice_temperature_K=300.0 pbc="T T T"
C       -0.01023481      -0.00678902       7.42627239      -0.45205264       0.14927722       0.46119883
C        2.46189718      -0.01160543       7.55884346       1.43520470      -0.67162820       0.67686888
C        4.99450044       0.00920873       7.65592756      -1.28859834      -1.13224261      -0.58952207
C        7.41292944      -0.04595222       7.50024709       1.60543821       2.02016820      -0.50996366
C        9.85687833       0.03977046       7.39594731      -1.52285335      -2.87328466      -0.30833389
C       12.28886974      -0.00539988       7.38713979       0.43386954      -1.81621802      -0.16469407
C       -1.23968350       2.12095943       7.31008590      -1.38522734      -0.00774956      -0.01478153
C        1.22992992       2.11343721       7.55769503      -1.97060376      -0.19057942      -0.55872874
C        3.69876241       2.12586829       7.74912099      -0.76200993      -1.17044586      -0.26165988
C        6.18531953       2.08831701       7.72947904      -0.06713639       0.97968029       0.14264352
C        8.60436715       2.18397939       7.61136849       1.76061508      -2.87357982      -0.56114224
C       11.08984051       2.09982862       7.46419133       1.31353752       0.94384709       0.10701111
C       -2.45417554       4.31284029       7.33619235      -1.83226761      -1.68842133       0.71461087
C       -0.04676027       4.27095703       7.33007887       0.00665839      -1.61103062       0.34532409
C        2.41007860       4.24156279       7.56204113      -0.31423611       0.99139578      -0.03180506
C        4.92581310       4.24187354       7.67020506      -1.21363114       0.24527373       0.67169942
C        7.37496100       4.26584704       7.73280091      -0.45422394       0.62263788       0.42875228
C        9.82227995       4.29590112       7.63364390       2.25769083      -1.40167571      -0.24807906
C       -3.71868942       6.41582821       7.59921832       0.98024774       0.61257818      -1.42190644
C       -1.28001330       6.43619887       7.36520261       0.99255689      -0.96347052      -0.82073238
C        1.21803696       6.42815451       7.30277494      -0.78969608      -1.73794772       0.04957833
C        3.67120468       6.33746959       7.35874461       1.27698055       1.06690522      -0.22637741
C        6.14767698       6.37207414       7.64455343      -0.51357554       0.17030242       0.00412688
C        8.62129598       6.39722020       7.65293964      -1.02782009       0.50509502       0.18569793
C       -4.92185755       8.54373024       7.59247450      -0.73976500       0.58845481      -0.53964730
C       -2.46395134       8.58253202       7.49211541       0.59846926      -1.21609503      -1.69966631
C       -0.00976358       8.54562337       7.20704231       0.26079239       0.18729278       0.77383443
C        2.41107372       8.49765256       7.35937587       3.68584068       0.42013677      -1.07996720
C        4.91776978       8.46770550       7.48746211      -0.05425593       1.60088684      -0.32769610
C        7.38158911       8.47227847       7.73055868      -0.00784726       2.37251141      -0.83763379
C       -6.13756033      10.67576640       7.60342009      -1.78660688      -0.88815056       0.25241265
C       -3.71983674      10.68063809       7.66650689       3.84385116      -1.08180040      -1.77374236
C       -1.18499814      10.67446960       7.28937312      -0.72836499       0.21560037       1.23910717
C        1.25115673      10.65142500       7.29597172       1.72804306      -0.06049266      -0.13474355
C        3.71592435      10.66650774       7.36326382      -0.55358294      -0.93539304      -0.10540726
C        6.12652717      10.62212793       7.53157475       2.10116232       0.05588138       0.05039748
C        1.26620190       0.69811529       7.53191127      -2.19270131      -0.09437928      -0.43860346
C        3.71944692       0.66012556       7.64192568      -0.06170390       2.52264558       0.63649150
C        6.23054955       0.67626456       7.63258092      -1.56257458       0.95990234       0.29404473
C        8.62369891       0.71577796       7.43874887      -0.30757130       1.44318257       1.05882348
C       11.07043095       0.65080770       7.45216083       0.81207188       3.51062308      -0.43654478
C       13.46585771       0.70646170       7.33892345       3.14835053      -0.20820896       0.41465698
C       -0.05345753       2.79185236       7.36023104       3.23892355       2.33591433       0.48867312
C        2.40239825       2.82770814       7.68961084       2.71764524       0.31257724      -0.34134094
C        4.95050272       2.81540744       7.80531059      -0.84776033      -0.02362407      -0.87338240
C        7.38100211       2.85324342       7.69911428       0.12248787       0.25876019       0.10707436
C        9.89769516       2.81415273       7.60190281      -2.50850863       2.20901727      -0.20111580
C       12.33629509       2.89147508       7.35388186      -2.26634130      -1.85516226      -0.03797905
C       -1.26916686       4.97564017       7.28387093       1.61546371       2.50443137       0.39157515
C        1.16379809       4.97885715       7.45025723       1.48145756       0.36493081      -0.75954295
C        3.64936757       4.96193781       7.50545004       0.83329839      -2.36264712       0.55684361
C        6.12549729       4.97321760       7.77835877       0.93597514      -0.88465721      -1.20171999
C        8.60223416       5.00314712       7.67475641       0.12993970      -1.63776006       0.16745955
C       11.08155078       5.01299357       7.55124654      -1.53195171      -0.73442456      -0.18016517
C       -2.49373711       7.14182280       7.39766491      -0.07716318       0.47107212       1.43952955
C       -0.03966624       7.14486766       7.28472958       0.85445754      -0.86382099      -0.09616851
C        2.48743335       7.06276407       7.22694251      -2.32593305       1.37907520       1.25911421
C        4.92302945       7.04725902       7.41819913      -0.31638376       0.62991847       0.99012720
C        7.37449117       7.07418834       7.70791180       0.33873719       0.17076419      -0.14205833
C        9.81812382       7.12294015       7.56414049       0.45706912       0.17123290       0.93731983
C       -3.68997241       9.26218925       7.48682080      -0.78035578       0.46777391       1.71557578
C       -1.21766965       9.26317992       7.29826551      -0.61531924      -0.06141646       0.04350358
C        1.25036936       9.23398143       7.28597150      -1.86123572      -0.18022225      -0.41841670
C        3.68487672       9.24371777       7.38942633      -0.09849870      -1.67617491       0.22166663
C        6.17004485       9.20673748       7.62206373      -1.72820016      -1.19528940      -0.23835566
C        8.58327591       9.27156751       7.63888422       1.35869432      -2.20497807       0.38693637
C       -4.91050491      11.33751613       7.62222993      -1.12107734       2.33408962      -0.12342144
C       -2.40201589      11.38272831       7.52532041      -1.38123493      -0.63339383       0.31930607
C        0.06571013      11.36905421       7.34039190      -1.93349477      -1.08456973      -0.26789866
C        2.48199248      11.36333277       7.29890451      -0.23485973       0.82075989       0.62077383
C        4.95647739      11.34412807       7.39152538      -1.51736687       0.64917501       0.28499239
C        7.36266763      11.35395584       7.55651148       0.40906277       0.75716314      -0.46480711
