72
Lattice="14.76 0.0 0.0 -7.38 12.782534959858314 0.0 0.0 0.0 15.0" Properties=species:S:1:pos:R:3:REF_forces:R:3 REF_energy=-11165.047078024954 config_type=fd_force_conv_snapshot_003 snapshot_index=3 split=validation degauss_Ry=0.0019000869 kgrid=8 lattice_temperature_K=450.0 trajectory_seed=0 pbc="T T T"
C       -0.02030902      -0.01939019       7.73003020       0.59154656       2.56929593      -0.83929626
C        2.41023112       0.01619341       7.77390649       0.19370023      -1.66878788       0.18302501
C        4.87394512      -0.04254704       7.61737085       0.42372449       1.65641316       0.70425318
C        7.37294363       0.00436466       7.49248159      -2.18636714       0.91344353       1.48817225
C        9.83420387      -0.02112779       7.44368783      -1.32928502       1.02673559       0.17480699
C       12.29065780      -0.00190723       7.52256476       1.63918291      -0.39071872      -1.11647224
C       -1.25316303       2.09083998       7.33165713       0.99262631       3.05322486       1.77655747
C        1.20614100       2.12256824       7.60126804       0.31524502      -0.49573903       1.24373387
C        3.63964486       2.10617960       7.67694538       0.41029381       0.08989914       0.53939250
C        6.08255997       2.10889677       7.72169411       3.30490397      -2.36447466       0.38108223
C        8.54424248       2.16757104       7.66677632       0.97487979      -1.50418045       0.47298194
C       11.03156658       2.08442245       7.46754416       0.15102634       3.77654405       0.22790798
C       -2.45311913       4.26432704       7.52553388      -1.23636098      -0.25145003      -0.55530095
C        0.03204577       4.27054150       7.47883691      -0.75708395      -1.05801486      -0.78024573
C        2.45681558       4.25018606       7.52926759       0.70165328       0.06440922      -0.09740084
C        4.94369932       4.19885421       7.57506594      -0.13645076       0.68842418      -1.07813015
C        7.38596745       4.28985414       7.50297536       0.75869295      -0.85682116       0.70442724
C        9.83492193       4.31202035       7.64157541       1.06427242      -1.12724953      -0.45613710
C       -3.66233380       6.44065515       7.39854408      -1.03034877      -2.39083361       0.94016629
C       -1.20138258       6.36677816       7.49496579       1.22296682      -0.20607340      -0.31806140
C        1.31532494       6.39493360       7.39684132      -2.48666068       0.01931644       0.36535504
C        3.67829913       6.34491475       7.39922159       1.93863724       0.64363685      -0.41477808
C        6.12972845       6.34499096       7.29193968       2.28765112       1.53066024      -1.31998662
C        8.68234846       6.41038067       7.39088122      -2.08857163       1.82587997      -0.62752812
C       -4.86488628       8.57567154       7.53510509      -1.94036219       0.73589189      -1.43355173
C       -2.41419264       8.45118930       7.41941086      -1.03394008       3.68911549      -0.43519675
C        0.00712576       8.47573810       7.37312224       0.38067753       2.39110280       0.49145866
C        2.47280059       8.56825298       7.32835444      -1.17482111      -1.39523870       1.37942410
C        4.89942204       8.54743323       7.35324693       2.38582201      -1.94175521      -0.07101464
C        7.38645980       8.50203647       7.38311806       0.69065462       1.09709923      -0.32896134
C       -6.21308833      10.67685620       7.54510627       5.16490145      -0.58927268       0.86835950
C       -3.63995233      10.69819496       7.56465906      -2.88770880      -1.41951223       0.24625049
C       -1.20780228      10.66385003       7.46336937      -1.38239141      -0.90440868       0.15667171
C        1.21735949      10.66837405       7.43882658      -2.82810369      -0.33454037      -0.09925718
C        3.69543325      10.65737480       7.37197787      -0.42001490       0.26793158       0.52006398
C        6.18969622      10.69439159       7.51785565      -0.34082312      -2.53762791      -1.07844588
C        1.19066598       0.70034999       7.83198504      -0.08549844       0.95822984      -1.38645041
C        3.61915300       0.68359608       7.68716449       1.78642099       1.11426649       0.15561705
C        6.10319851       0.64905390       7.67041985       0.41244531       2.37097595      -0.76699170
C        8.57088544       0.67962563       7.59380954       2.29997185       2.55835512      -0.76644251
C       11.08586490       0.70213172       7.41551156      -1.71215622      -1.31102581       0.59666717
C       13.54332821       0.73466866       7.52915812      -1.71485022      -2.70486223       0.16584310
C        0.01234253       2.81782343       7.48550528      -1.61989269       1.19787311      -0.70836283
C        2.41364251       2.86592775       7.66039942       1.15699539      -2.03106377      -0.49886755
C        4.92225789       2.76171156       7.70914948      -3.57036806       2.83556478      -0.55532537
C        7.31533492       2.85639684       7.77256109       0.78269060       0.56135692      -1.66034772
C        9.78618998       2.88253619       7.61867788       0.93354262      -1.73219694      -0.18583162
C       12.27755104       2.84716705       7.41349838      -0.39606302      -1.51094734       0.06767066
C       -1.23676540       4.95022534       7.47084750       1.90970024       0.48660236       0.36852213
C        1.27234943       4.97562824       7.38750865      -0.91930693       0.06509365       1.07796354
C        3.71281443       4.91786793       7.50736917      -0.22808847       0.52570524      -0.00840468
C        6.16764961       4.93954411       7.29596553      -1.23630441      -0.56589132       2.05862497
C        8.65582948       5.03286033       7.53723058      -2.03623194      -1.67475875      -0.32415260
C       11.06951224       5.00347468       7.54886120       0.54314554       0.14156623      -0.30497757
C       -2.42282327       7.04360268       7.44865202       0.50211022       2.11520518      -0.24524339
C        0.06893890       7.10030621       7.46494830      -1.48374455      -2.00109448      -0.61415273
C        2.49067840       7.11701277       7.41061773       0.66705343       0.51573321      -0.73887283
C        4.93137515       7.04761947       7.26263116      -1.56585993       2.10518019       1.12223434
C        7.40844067       7.10835102       7.22985010      -0.48786837      -1.57813952       1.47894970
C        9.87532012       7.16677340       7.39023313       0.72256278      -0.51589288       0.64208802
C       -3.65625536       9.29323229       7.43119677       1.08068017      -2.44662217       0.95734486
C       -1.21376784       9.21669641       7.35895946       0.04733529      -0.49267119       0.76027135
C        1.20056817       9.25005959       7.42070891       1.60994535      -0.68240395      -0.82681587
C        3.69516700       9.25158873       7.42774385      -0.30064963       0.31463001      -1.16384044
C        6.17488716       9.24160435       7.40070263      -1.29497545       0.26618091       0.11873277
C        8.60826502       9.27058116       7.50349331       0.21103255      -1.40180324      -0.16597319
C       -4.91647921      11.38244401       7.70917422      -0.93286076      -0.77429954      -0.95071013
C       -2.44422930      11.35333619       7.59864557       0.78524010       0.13616177      -0.73722295
C       -0.04787278      11.42680319       7.49185689       2.68129884      -3.69700158      -0.74316143
C        2.39186173      11.35227318       7.38010074       4.11577412       0.62127006       0.22814761
C        4.95980218      11.32999950       7.44099189      -2.07652010       2.26416949       0.65044642
C        7.41096337      11.40438141       7.52814255      -2.92047134      -0.63576928       1.08869892
72
Lattice="14.76 0.0 0.0 -7.38 12.782534959858314 0.0 0.0 0.0 15.0" Properties=species:S:1:pos:R:3:REF_forces:R:3 REF_energy=-11164.907511381334 config_type=fd_force_conv_snapshot_009 snapshot_index=9 split=validation degauss_Ry=0.0019000869 kgrid=8 lattice_temperature_K=450.0 trajectory_seed=0 pbc="T T T"
C        0.05031630      -0.07045205       7.37873127      -0.67854472       1.95357612      -0.00054867
C        2.49505887       0.02515760       7.11085961      -2.36499222      -0.54110743       0.52428264
C        4.93904808       0.00594069       7.18386985      -0.70355024       0.71781421       0.62797395
C        7.33750455      -0.03399396       7.41086900       1.04954077       0.96376079       1.21448655
C        9.80423785      -0.00285314       7.58540113       1.54892742      -1.09306594       0.43410891
C       12.32885378      -0.04368262       7.49380669       0.63948041       1.28985098       1.15978401
C       -1.16300960       2.09693042       7.38302439      -1.95653186       1.82309418       2.06136910
C        1.26138898       2.17159446       7.38405750      -2.03747121      -1.75483859       0.35075066
C        3.67132893       2.15978939       7.23897215      -0.13143299      -0.17273057       0.47992237
C        6.09470817       2.21358664       7.27916813       2.41794383      -3.32404404      -0.22070401
C        8.58586429       2.13025459       7.41792193       1.03692745      -1.46669660      -0.19836035
C       11.05554258       2.06277532       7.53046012       0.93708046       3.00850232       0.24811017
C       -2.44899189       4.26125618       7.53881241      -0.93201410      -1.50189911       0.44027493
C        0.03258768       4.27956243       7.49234120      -1.32044711       1.57296132       0.20340948
C        2.46862584       4.26002490       7.56272497       0.38356360       3.02082484      -0.17718320
C        4.91346426       4.27112850       7.46304029      -0.80856901       2.39706802       1.40329962
C        7.40306872       4.20914945       7.53507472      -0.71677985       1.79914435      -0.34118153
C        9.82163203       4.33266862       7.48672466       3.40094779      -4.77668981      -0.28353534
C       -3.72486647       6.41102427       7.66619664       1.09863058      -3.08532739      -1.61344925
C       -1.29937967       6.40189236       7.60797069       3.25557427      -0.84930119       0.14709101
C        1.25881106       6.41389652       7.52570789      -2.07012088       1.32121612       1.52389516
C        3.65695699       6.46658128       7.66406837       0.66323509      -1.11936961       0.59103902
C        6.17459717       6.34773942       7.66935895      -0.79213811       1.09572035       0.62270396
C        8.59638481       6.32132219       7.66693087       0.38322344       3.02617479      -1.24651786
C       -4.91505207       8.46231429       7.49360678      -1.89601683       2.14597023       0.04056661
C       -2.51296064       8.48672698       7.48666168       1.95280916       0.92321990       1.35924171
C        0.00485805       8.53023446       7.72960863       1.13381638      -0.78487758      -0.91680165
C        2.49712913       8.58454692       7.70498520      -3.20144535      -0.40329733      -0.88542725
C        4.91887518       8.52399310       7.64840610      -0.62294641      -0.95182162      -0.65707241
C        7.35459130       8.54302772       7.47936502       1.14686216      -1.40354233       1.25762040
C       -6.11598820      10.62518039       7.41699176      -0.15210132       2.49613365      -1.96575595
C       -3.75558523      10.63979046       7.31585760       3.00244608       1.05177994       0.25548075
C       -1.23220500      10.59743287       7.55397908      -0.36922096       1.89890624       0.16467890
C        1.23033418      10.67849256       7.57591859      -0.04219849      -1.01518954       1.02849449
C        3.72013444      10.67728111       7.60838476      -1.38011984      -1.03285508      -0.06157843
C        6.19302427      10.65477409       7.51290674      -1.73373214      -2.17198490      -0.12388115
C        1.23714304       0.71297843       7.30121599       1.20856375       0.27245903      -0.53607578
C        3.68072444       0.72130000       7.13950335       1.68683548       1.30888023      -0.20233965
C        6.15096163       0.72605846       7.28396521      -0.95956424       1.14402469      -0.35516756
C        8.57865677       0.65909782       7.49295132       0.07442907       2.46997756      -0.50769620
C       11.09666462       0.65521493       7.60504017      -1.43768144       0.68200491      -0.91758455
C       13.59062941       0.68274640       7.47538949      -0.68759038      -0.86193842      -0.96420662
C        0.02817197       2.88553450       7.47125319       0.35692054      -1.76482938      -0.80324451
C        2.44141745       2.87487620       7.45200007       2.24473350      -1.12203148      -0.92077426
C        4.89020549       2.90412469       7.26943054      -0.76283037      -1.55175717       0.23531533
C        7.38037143       2.83627839       7.35690002      -1.36303769      -0.04577026       0.44857394
C        9.81628159       2.85770101       7.43867818       0.65581308      -0.99164389       0.56691102
C       12.32007309       2.83693955       7.57613058      -0.06380527      -2.14811273      -1.65569196
C       -1.25937471       4.96172614       7.56071780       2.27644780       1.31903069      -0.22817641
C        1.26529400       5.02446618       7.48083061      -0.50930083      -2.22044866       0.52892580
C        3.69104297       5.04720385       7.65619125      -0.46990330      -2.24844437      -1.40002018
C        6.14782372       4.92313462       7.65246131       1.39258815       0.41790557      -1.10875584
C        8.63422156       4.94836594       7.50769254      -3.36393290       0.63328225       1.15143384
C       11.08604439       4.95668992       7.56553968      -1.24328162       1.87310419       0.46795800
C       -2.50967189       7.07951222       7.56449623       0.04820278       1.42504807       0.46763533
C        0.00835065       7.10871337       7.69679432      -1.42340051      -0.67798936      -1.12463369
C        2.40647413       7.18163018       7.69849949       2.99005311      -1.13107302      -0.67027657
C        4.93973113       7.08985331       7.68105526      -0.56841923       0.76703772      -0.14289883
C        7.39520964       7.09450270       7.67990165      -0.44035927      -0.19900930      -0.90755879
C        9.82861653       7.05593523       7.51565538      -1.36987965       0.51376735       1.46967419
C       -3.72571334       9.21673167       7.54679939       0.25750935       0.08186033      -1.60138898
C       -1.22315697       9.16740070       7.59884756      -2.21112661       1.72313637      -0.17845436
C        1.24207145       9.27612864       7.61225023      -0.26538413      -0.89494188       1.08071899
C        3.68887124       9.25063227       7.57082864       1.75850421       0.68348484       1.30877301
C        6.11267340       9.20320353       7.53083879       2.06085874       1.88142685       0.02926275
C        8.60783626       9.27648710       7.45113090       0.51750650      -4.71985069       0.28739843
C       -4.92294322      11.38047337       7.11575019      -0.20506887      -1.02134296       1.91606784
C       -2.46246711      11.40563354       7.37576549      -0.36906926      -3.66418119      -0.43299563
C        0.00704688      11.35430010       7.65895816      -2.28893230      -0.39369683      -1.96202348
C        2.44229081      11.35556954       7.64617326       1.82352612       1.03147388      -0.82466900
C        4.95938136      11.33895436       7.58248211       0.04267620       0.78930270      -0.55244085
C        7.40815747      11.29593147       7.38511628       0.46676501       1.58277522       0.59183709
72
Lattice="14.76 0.0 0.0 -7.38 12.782534959858314 0.0 0.0 0.0 15.0" Properties=species:S:1:pos:R:3:REF_forces:R:3 REF_energy=-11164.513971368115 config_type=fd_force_conv_snapshot_015 snapshot_index=15 split=validation degauss_Ry=0.0019000869 kgrid=8 lattice_temperature_K=450.0 trajectory_seed=0 pbc="T T T"
C       -0.07223834      -0.01731676       7.63590973       3.46180786       0.26526997       0.01443803
C        2.44340424       0.01282605       7.73679034      -1.49976330      -0.91759921       0.64208571
C        4.92051237       0.02220598       7.72749333      -1.30246841       1.45800704       0.29781782
C        7.41086983       0.04537188       7.71920853      -2.10605179      -2.06243431      -0.68551781
C        9.85194431      -0.02758511       7.53866251      -0.95195249       0.64725877       0.09885866
C       12.28359416      -0.01724090       7.53395477       1.32975347      -0.31241937      -0.36902144
C       -1.24264523       2.18359992       7.45026917      -0.27058418      -2.39224386      -0.23673792
C        1.25376420       2.14714682       7.46594849      -4.68371229      -2.84142895       1.18041737
C        3.67761266       2.16254503       7.66135188       0.19927592      -1.97518238       0.11789742
C        6.17441319       2.14914932       7.59835438      -1.55880483      -0.53085824       0.83936979
C        8.59824405       2.16594401       7.63546186       0.37489435      -0.58112099      -0.13692410
C       11.12114242       2.11592057       7.53153812      -1.80907549       2.68047120      -0.48542299
C       -2.45404103       4.39824284       7.52970448      -1.55440875      -3.81470282      -0.54656845
C       -0.00918587       4.23673284       7.28727698      -1.49392484       0.97342428       1.31968529
C        2.41496765       4.19505608       7.29249092       0.57341231       1.67532902       1.20036965
C        4.94314322       4.22324635       7.45337305      -1.77352279       0.62470505      -0.50820836
C        7.40719918       4.23958560       7.60839004      -1.92106786       2.44268427      -0.56199379
C        9.80053288       4.28603827       7.61175878       3.61350937      -1.41331587      -0.11833425
C       -3.75098624       6.42114205       7.44356931       1.97778665       1.26076949      -0.25114587
C       -1.22088945       6.41535432       7.45173848      -0.01758017      -0.11302672      -1.48559935
C        1.22247849       6.37444336       7.22877032       0.77722854       0.12109485       0.03367965
C        3.70148239       6.32619576       7.31386002       0.47032162       1.62689792      -0.76043821
C        6.14051886       6.39010119       7.42100438       2.02264469      -1.34230560      -0.85999236
C        8.64840403       6.34003148       7.42307418      -0.63764670       1.31677454       0.56261548
C       -4.92967366       8.50258754       7.42623650      -1.55390944       4.21321044       0.84289812
C       -2.50504332       8.54267836       7.42134390       2.04434300       0.45985029      -0.84962695
C       -0.03093599       8.50900762       7.30881624       3.78165001      -0.36424356      -0.04663056
C        2.50083452       8.47447744       7.37759054      -1.56179656       0.84058567      -1.05350798
C        4.94484503       8.57076699       7.32265651       0.18177956      -2.93917509       0.17357157
C        7.38189125       8.49526982       7.53152763       0.65846081      -1.15114742      -1.05223837
C       -6.20036518      10.60703624       7.82523627       3.23105829       2.77076681      -0.23765684
C       -3.72124895      10.64986537       7.66251677       2.17610304       2.20163949      -0.70706880
C       -1.15208069      10.63828771       7.49755135      -1.46584608       2.95122971      -0.08029787
C        1.28733707      10.61268275       7.28850248      -1.15919574       0.84247466       2.08050351
C        3.69929812      10.58767510       7.43204744       1.17691784       2.83607745       1.08128926
C        6.16490795      10.65590687       7.64503611      -0.02460340      -1.66221665      -0.22200550
C        1.18599848       0.71158802       7.61292610       0.46776363       0.00886414       0.13018729
C        3.62205249       0.73011715       7.78536563       3.05639246       0.79819101      -0.78635982
C        6.13719640       0.75326457       7.78203429       1.55327850      -1.10182569      -0.96372094
C        8.58214699       0.74044996       7.63161346       3.11470096      -0.21916932      -0.09914662
C       11.07466693       0.69901268       7.48582198      -0.19950758       0.02030143       0.57124667
C       13.53522426       0.70447197       7.45146414      -2.68007088       0.79424488       1.05420089
C       -0.06082217       2.85128064       7.45713316       4.26273992      -0.01396238      -1.14163100
C        2.42422478       2.79778253       7.58205562       2.14198707       2.81992270      -1.57995960
C        4.93793242       2.82971535       7.53038637      -0.76949261      -0.18399097       0.54256807
C        7.36485012       2.87507629       7.61031802       1.45376832      -1.66753421       0.25082371
C        9.82047794       2.86753525       7.58320403       1.99265637      -1.19411055       0.31246488
C       12.33968478       2.92331752       7.44998969      -2.75857926      -0.50858657       0.82611421
C       -1.21653050       4.98408532       7.42907690       0.21895797       1.98440750      -0.12117095
C        1.18200866       4.95355957       7.26567712       2.04263065      -0.44993457      -0.56898487
C        3.66182944       4.91300267       7.32735807       0.79468402      -0.20933973       0.17170444
C        6.13586316       4.94173878       7.46993277       1.45660810       1.00444002       0.42964368
C        8.63551237       4.95007316       7.61409240      -2.22047257       0.94191722      -0.71362125
C       11.02503930       5.05293660       7.54343964       0.67334698      -2.08742749       0.09569929
C       -2.48824556       7.11256346       7.36229996       0.32136090       0.68033524       1.15013826
C        0.02294208       7.10311019       7.27624428      -1.75491135      -0.43908606       0.73046224
C        2.48567524       7.06982826       7.24799864      -0.27896855      -0.73520335       0.66531408
C        4.95969340       7.11218527       7.28767999      -1.87045467      -0.21553352       0.73627421
C        7.44810772       7.01816451       7.36422314      -2.98279154       2.71008826       1.10058128
C        9.81758001       7.14965858       7.41360370       0.06182398      -2.75260479      -0.17953859
C       -3.73348329       9.27928052       7.43177535       1.12509777      -2.47832208       0.66806413
C       -1.15505867       9.24394501       7.40293618      -5.25920103      -0.09038970       0.12380325
C        1.22758354       9.19812548       7.32316155       1.37193370      -0.35895840      -0.37356792
C        3.71101459       9.22534637       7.38026883      -0.43002009      -1.73441271      -0.25581628
C        6.17964896       9.21184215       7.46362795      -0.60720098       1.22776629       0.71947951
C        8.56502455       9.26177762       7.62345154       1.54148099      -3.58066662      -0.46856581
C       -4.88914607      11.35487767       7.83461781      -3.27344216       0.12998675      -0.62476264
C       -2.46414306      11.44628995       7.55613589       1.19166415      -4.52087482       0.97165691
C        0.08256089      11.37112415       7.51423867      -1.34366211       0.07314943      -0.22932826
C        2.50037669      11.30674584       7.48594757      -0.51650197       1.45125121      -1.05731630
C        4.93287717      11.32921935       7.60223362      -0.71033538       0.59197928      -0.92033846
C        7.38562785      11.33304757       7.77865019      -1.89229722       1.50998857      -0.39715625
72
Lattice="14.76 0.0 0.0 -7.38 12.782534959858314 0.0 0.0 0.0 15.0" Properties=species:S:1:pos:R:3:REF_forces:R:3 REF_energy=-11164.605185967686 config_type=fd_force_conv_snapshot_021 snapshot_index=21 split=validation degauss_Ry=0.0019000869 kgrid=8 lattice_temperature_K=450.0 trajectory_seed=0 pbc="T T T"
C       -0.01569685       0.00632570       7.44741688       0.62128882      -1.03328805       1.26296932
C        2.44051180       0.01191274       7.37604035       1.40524595      -1.31974340       0.54417141
C        4.93756418       0.02700128       7.31334668       0.30553524      -0.61881722      -0.25687635
C        7.38340271       0.01271390       7.32390027      -0.56229820      -0.28096321      -0.21917677
C        9.83344421       0.01106239       7.42093347      -0.01432182      -0.70490856       1.34309518
C       12.29666080      -0.04518715       7.55185463       0.48144832       1.74871550       0.75917914
C       -1.21663214       2.16314572       7.61283745      -0.59318332      -1.42628837      -0.15389364
C        1.28801844       2.11255140       7.55436414      -5.14138280      -0.71707090      -0.19538764
C        3.68661425       2.12929702       7.46600004       0.10422764      -1.07190653      -0.67995600
C        6.05368843       2.13687887       7.03814662       3.66225826       3.15859201       1.66519785
C        8.59109329       2.15959673       7.30102757      -0.66627876       0.48850703       0.24331069
C       10.96267260       2.11221192       7.57546115       4.67044386       1.95935364       0.09961431
C       -2.40119606       4.23090600       7.62429626      -3.09115094       1.91091792       0.23864362
C        0.00460413       4.25601915       7.63156333      -0.99185627       1.48514709       0.52019125
C        2.43362872       4.24822741       7.44392344       1.96060243      -1.43754414       0.79705586
C        4.94602499       4.28201775       7.30224759      -1.78689690       1.65867984       0.34464301
C        7.44838894       4.25461841       7.27919777      -3.91575309       1.60631855      -0.22098683
C        9.79340713       4.27132864       7.56901203       2.92210708       2.42503313      -1.22376669
C       -3.65842221       6.36853710       7.56020163      -2.46490066      -0.77424838      -0.55508317
C       -1.26693222       6.41545543       7.63522689       1.29209761      -1.47675398       1.53688206
C        1.20466638       6.33826240       7.62714382       0.60824587       1.65711275       0.85165581
C        3.64179818       6.42121903       7.58457392       1.94028351      -1.38023734      -0.58497405
C        6.17659014       6.45570042       7.56862898      -0.62436026      -2.93891901      -1.83983154
C        8.60147123       6.38991977       7.45793623       0.53574617      -0.42861858      -0.83336241
C       -4.92868006       8.45470176       7.57886371       1.01818591       0.48313420      -1.38033376
C       -2.46611831       8.52471705       7.67713487       1.18350758      -0.92303478      -0.11489232
C        0.02136961       8.50540618       7.72952911       1.47635237      -0.45610650       0.15315367
C        2.46969284       8.55099313       7.64328108      -2.02155840      -0.56204855       0.11301670
C        4.91306215       8.51872608       7.45829196       0.09469039       0.01504635       0.73955828
C        7.42512472       8.57024172       7.41662729      -1.07142908      -2.34541070       0.10726462
C       -6.14980819      10.62442561       7.49429595       0.92192097       1.74623105       0.51542185
C       -3.70831122      10.67744769       7.41320332       1.29993767      -1.53063299       0.24920623
C       -1.19415495      10.58431556       7.40905041      -0.78153926       2.59730964       0.14795542
C        1.26378838      10.64519498       7.55524487      -0.46257848       1.65415676      -0.55359528
C        3.71608554      10.65376772       7.60024856      -1.37643545      -1.02995924      -0.08834156
C        6.12926244      10.60199115       7.69057802       1.61680531       1.93453247      -1.18159108
C        1.24327776       0.69300889       7.41975737      -1.61992020       1.16441868       0.41290374
C        3.68671502       0.66457214       7.40706425       0.56428875       2.93256144      -0.28820858
C        6.18008044       0.79920132       7.23696907      -1.85673166      -4.30499960      -0.20663802
C        8.57635511       0.74719722       7.39159791       1.82691741      -1.25853263      -0.78702111
C       11.06654074       0.69910662       7.55809961      -1.13069455       0.02743213      -0.81218629
C       13.52610591       0.72121493       7.54299630      -0.11786091      -0.56737870      -0.05781923
C       -0.01368428       2.89317785       7.61935285       1.90531548      -3.38846354      -0.28708809
C        2.44326522       2.76913916       7.55120954       2.77372332       3.83403366      -0.73515630
C        4.87714444       2.88830426       7.26229987       0.05874457      -1.83903244      -0.44479005
C        7.36681470       2.86867791       7.14582165      -0.53596265      -1.23489931      -0.07476434
C        9.80732340       2.91778294       7.48377396      -0.81535055      -4.41311629       0.00378338
C       12.31989743       2.84786064       7.63392079      -2.30488677      -1.59975684      -0.13014821
C       -1.23438493       4.99774330       7.71328309       1.05960226      -0.87681560      -1.21640665
C        1.23738906       4.91399870       7.57079899      -0.58007893       2.19054827      -0.09901035
C        3.66458144       4.98991490       7.41363061       0.26051317      -0.30689433       0.50203052
C        6.16084481       5.00376026       7.33993185       1.51993849       0.00303827       0.58467632
C        8.61653566       4.99287159       7.39804264      -0.21983729      -0.64475991       0.72511948
C       11.07250654       4.96349498       7.54160254       0.76107842      -1.11065332       0.89022981
C       -2.48240019       7.07640549       7.67159861       0.69568729       2.54738962      -0.31040697
C       -0.02258015       7.06773051       7.77169960       1.09176085       0.58337739      -1.24607718
C        2.44414311       7.12563275       7.67190129      -1.21863348      -0.70289564      -0.60739998
C        4.92132240       7.09697612       7.54529506      -0.74724743       1.41510818      -0.01759612
C        7.41077954       7.11039242       7.42789063      -0.85226105       2.12421998       0.60914885
C        9.83386461       7.04009533       7.42841988       1.01287941       1.46181510       1.68432300
C       -3.70647005       9.16944498       7.55353413       0.79611767       2.76624501       0.16325091
C       -1.13592804       9.21612108       7.69492756      -5.15510683      -0.16715487      -1.02849731
C        1.21844235       9.28120320       7.63453883       1.52225557      -3.21637549       0.56257383
C        3.66178664       9.23557727       7.56423221       2.40646000      -0.06989698      -0.02865289
C        6.16914985       9.24122136       7.44639652      -0.66202924      -1.35085272       0.84905000
C        8.65604643       9.22059157       7.47603629      -0.98179683       0.20628089       0.32141926
C       -4.90622810      11.38614257       7.44563057      -1.65853740      -1.24567583      -0.52631819
C       -2.46053735      11.39551036       7.29567402       0.98768697      -2.47634593       0.99979712
C        0.01452842      11.31121201       7.38527176       0.15552243       2.46893729       0.40765561
C        2.51543429      11.35705941       7.55074039      -2.25220204       1.22252561      -0.54857700
C        4.91437973      11.31663173       7.64614551       1.22708521       1.55502402      -0.23526545
C        7.38027400      11.34049221       7.62828393      -0.47144647       0.19925741      -1.17806996
72
Lattice="14.76 0.0 0.0 -7.38 12.782534959858314 0.0 0.0 0.0 15.0" Properties=species:S:1:pos:R:3:REF_forces:R:3 REF_energy=-11165.088349122692 config_type=fd_force_conv_snapshot_027 snapshot_index=27 split=validation degauss_Ry=0.0019000869 kgrid=8 lattice_temperature_K=450.0 trajectory_seed=0 pbc="T T T"
C        0.07398286      -0.05536097       7.38403688      -3.89513747       3.59136703       1.27429041
C        2.44344303       0.06692209       7.46474295      -1.26178842      -2.80947759      -0.34556783
C        4.81490413       0.01891656       7.62178147       3.29473115      -1.91993966      -0.37639536
C        7.30905493       0.00032304       7.64238226       1.61770931      -0.91270408       0.04882782
C        9.83757405      -0.00482807       7.56237337      -1.51149756      -0.93586510      -0.25540105
C       12.31495626      -0.04494564       7.40401795      -0.44433522       0.05070035       1.29941908
C       -1.22964352       2.13520992       7.43805203       1.03585041       0.60330704       1.36636675
C        1.19893692       2.13654689       7.56301022       0.06148485       0.22147303       0.23295017
C        3.65390564       2.15559962       7.64668553       1.27825325      -1.23204255       0.24129032
C        6.17530137       2.09656267       7.71368458      -0.46388460       1.97204949      -0.28440155
C        8.63372397       2.14143457       7.72288140      -0.43827564      -0.52137010       0.16079242
C       11.06927332       2.09052149       7.50496948       1.95273922       1.62091471       0.65199782
C       -2.49223400       4.30825503       7.31429718       3.22925775      -0.35069590       0.62841489
C       -0.01402649       4.29992256       7.51252288       0.08171429       0.30767003      -0.57331487
C        2.43590023       4.30204981       7.61320484       0.89372986      -1.17425315      -0.38155068
C        4.92041848       4.21681970       7.69678328       1.44409377       2.38083381       0.73021001
C        7.44566210       4.29614786       7.78451329      -1.98369376      -1.08165102       0.09132301
C        9.92125728       4.22876236       7.57032315      -2.35657366       0.68034321       0.42595158
C       -3.69899480       6.37926080       7.24554967       0.32193580       0.40509813       0.04974468
C       -1.22246512       6.46624199       7.15989652      -1.03962582      -3.86607141       0.61452477
C        1.16608874       6.45022017       7.34057834       2.16648943      -1.73222008       0.32444622
C        3.72867341       6.40599799       7.51748988      -1.43173885       0.06585109       0.55617641
C        6.19116899       6.42708271       7.75434908      -0.57292509      -1.14802533       0.46202312
C        8.69289722       6.41362160       7.63487378      -2.05100087      -3.35383772       0.26642285
C       -4.96977260       8.48565742       7.44461723       1.55917326       0.51850923      -1.51035059
C       -2.45231099       8.45294604       7.25968821      -1.28711044       1.50108073      -0.23735139
C       -0.02568981       8.51053137       7.37563216       0.06030008       3.53116928      -0.69468611
C        2.45959055       8.55084038       7.32665265      -1.14299959      -0.68677379       0.11821315
C        4.86369392       8.53804305       7.63112846       2.94798549       0.16530882      -0.97530068
C        7.38964965       8.49396191       7.54880069      -1.29151371      -0.11812419       0.24851152
C       -6.18031467      10.64484003       7.32220796       2.40581954       0.44115657      -0.06923929
C       -3.66101876      10.59723860       7.39241111      -1.96433336       0.89901630      -0.53116292
C       -1.21313784      10.64727401       7.33063382      -0.44689912       0.31086231       2.37636704
C        1.25047750      10.67527074       7.45512210       0.09899878      -1.03754991       0.13783118
C        3.68838190      10.62264266       7.45138215       1.23266116       0.47259087      -0.43714127
C        6.18164253      10.59991423       7.49094509      -1.11201137       1.77223287       0.11723073
C        1.20348664       0.73122450       7.48903910       1.19836650      -0.30370256      -0.46754431
C        3.63677958       0.70532511       7.62702554       0.47570834       2.75068623      -0.19056400
C        6.08232812       0.70950686       7.61109572       0.41068976      -0.85306452       0.82762371
C        8.55225467       0.72242715       7.68581666       1.55146921      -1.09107771      -0.42312362
C       11.04625251       0.68007666       7.47772609       1.95247414       0.14622069      -0.00709136
C       13.54529578       0.68674783       7.51099553       0.16249398      -0.15915514      -1.71173173
C        0.02203657       2.88557940       7.56700875      -2.20664903      -1.04891702      -0.76915322
C        2.41664720       2.81142530       7.61666020       1.19456384       3.15862517       0.15786882
C        4.94163491       2.82362389       7.69718919      -1.22492368      -0.52622588      -0.00370136
C        7.42081227       2.85173508       7.74156343      -0.85448891       0.05762305       0.22232072
C        9.88878814       2.81186396       7.68958807      -0.35781888       0.46684137      -1.00931843
C       12.33644178       2.90832281       7.48809236      -2.03813250      -2.99885605      -1.04998582
C       -1.23068826       5.02999370       7.32423852      -0.14965672      -0.41919292      -0.41909804
C        1.21932336       5.01054668       7.47749102      -0.46108030       0.61867170       0.16279531
C        3.72401909       4.98029550       7.64162532      -1.60371094      -0.32841009      -0.54481933
C        6.15766015       4.99279883       7.81417024       0.74085566      -0.47547077      -0.80034482
C        8.67552714       4.95306683       7.70263745       0.85258244       1.04742295      -0.32089450
C       11.07355188       4.99164476       7.32477962      -0.70931903      -0.91495174       0.25300144
C       -2.47223956       7.06070028       7.13989207       0.09947675       1.17749711       0.41055324
C       -0.04014488       7.15514959       7.27074845       1.25009735      -0.99611273       0.03011070
C        2.42243306       7.11050733       7.35743277       1.70178696       0.69768144       0.37854095
C        4.93859274       7.15158353       7.68099371      -0.47419370      -1.77156258      -0.46358096
C        7.45993655       7.07433911       7.71312779      -1.50699427       1.34460828      -0.42835659
C        9.85645377       7.08068973       7.41978094       0.52431144       1.05933101       0.17249403
C       -3.70101285       9.11366247       7.30996493      -0.34144636       3.57009167       0.64929019
C       -1.26286434       9.23215794       7.32571133       0.78589111      -0.71888559      -0.39999115
C        1.19017679       9.27021827       7.37562766       1.66018959      -1.68051442      -0.10824267
C        3.70801772       9.23851895       7.37916872      -2.34526209      -0.89586901       0.91394336
C        6.13330569       9.21470629       7.56286518       0.88244940      -0.90195353       0.28551432
C        8.56271970       9.21196790       7.38062668       1.63300223       0.65178648       0.66482814
C       -4.92993388      11.42257727       7.28349398       0.63796269      -2.96307864       1.35935793
C       -2.46366081      11.34974406       7.52201431      -0.36065533       0.08946899      -1.17917964
C        0.03370083      11.32591880       7.58406710      -2.24908406       2.24121160      -1.41560903
C        2.50553242      11.32987455       7.43477243      -2.08567657       2.26853574       0.75799618
C        4.91931113      11.29046149       7.50643027       1.36604382       1.98204749      -0.74571736
C        7.40657403      11.37169108       7.42431725      -1.09890595      -2.91228392      -0.53965347
72
Lattice="14.76 0.0 0.0 -7.38 12.782534959858314 0.0 0.0 0.0 15.0" Properties=species:S:1:pos:R:3:REF_forces:R:3 REF_energy=-11165.789206750045 config_type=fd_force_conv_snapshot_033 snapshot_index=33 split=validation degauss_Ry=0.0019000869 kgrid=8 lattice_temperature_K=450.0 trajectory_seed=0 pbc="T T T"
C        0.02021281       0.02025784       7.55962945      -0.21297039       0.89569752      -0.99912606
C        2.49189723       0.01992459       7.42047033      -0.23577376       0.14438775       0.09095252
C        4.94933201      -0.02728551       7.34428411      -0.02333919      -1.91010159       0.29070512
C        7.41723417       0.01851308       7.31143044      -0.80174093      -1.80818641       0.18274964
C        9.83683843      -0.06207677       7.48683809      -0.75693483       2.61211843      -0.14060566
C       12.27253482      -0.02783751       7.64337446      -0.80617814       0.12869965      -1.18701945
C       -1.30015513       2.09711132       7.57559667       1.41167036       1.46180173      -0.17602184
C        1.19232124       2.09706729       7.38209307       2.38472749       0.96569786       0.45378685
C        3.69477591       2.09377976       7.30640048      -0.28018982      -0.20041646       0.48565105
C        6.08366936       2.04202034       7.29268955       2.42961793       2.57602657       0.40898512
C        8.58874316       2.17215835       7.47771297      -1.47383681      -1.49203379       0.00071605
C       10.96170795       2.16045089       7.75408103       3.38690725      -0.46602248      -1.30610601
C       -2.47363288       4.35432717       7.65117460       0.57177349      -3.21472073       0.60329136
C       -0.01192055       4.23989092       7.61800651       0.57932559      -0.53759093      -0.17538446
C        2.48117488       4.20293654       7.34411008      -0.62897102       1.88304716       1.01029802
C        4.94502754       4.22008365       7.27855102       0.52376045       1.25848044      -0.53470538
C        7.39728152       4.24021325       7.26563484      -1.31272274      -0.14094968       1.54705617
C        9.81963376       4.31916156       7.64828693      -0.36034371      -0.44888864      -0.21395743
C       -3.67137735       6.38588046       7.69957323      -1.47827016       2.63804157       0.90711528
C       -1.21111204       6.43265227       7.86903388      -2.04619034      -2.62105815      -0.63534839
C        1.22304701       6.42029996       7.62869729       0.43468433      -2.61847857      -0.59443494
C        3.66655792       6.41491613       7.32030322       1.53086233      -1.45294942      -0.35114070
C        6.13004421       6.42510708       7.24610836       1.18952731      -0.54684433       0.08928953
C        8.54975786       6.42155770       7.50477397       1.26515836       0.58284518       0.01120847
C       -4.87828048       8.47090881       7.60405750      -0.68434461       3.95282223       0.23282342
C       -2.43106326       8.52367000       7.74165752      -2.59292900      -0.66928155       0.08270519
C        0.00101895       8.48100327       7.61431269       0.31492491       0.57819919       0.29999503
C        2.45330733       8.52459584       7.48141651       1.53445468       0.36971718       0.75408605
C        4.94651120       8.55982181       7.40550444      -0.30814646      -0.70332321       0.23896090
C        7.41126136       8.57715178       7.46428098      -1.52638733       0.09760756      -0.45038220
C       -6.11387346      10.65706679       7.44770792      -0.24812894       1.27401350       0.18738097
C       -3.67812509      10.69600644       7.59344890      -0.27755984      -1.59704073      -0.19778442
C       -1.19805142      10.63473671       7.63143535      -0.12500832      -1.66483763      -1.55203280
C        1.25725990      10.63378415       7.46987920      -1.25915098      -0.91511912       0.69818615
C        3.67491712      10.64981235       7.45193817       2.05640302      -1.36446619       0.57387511
C        6.18323408      10.69633515       7.45910064      -0.59126168      -0.67126670      -0.49317332
C        1.28347101       0.72026406       7.44190083      -2.57565941      -0.81256707       0.19252163
C        3.73227137       0.65780180       7.35938617      -0.14004490       2.06381911      -0.31518794
C        6.15894120       0.66836404       7.26917238       0.03616565      -0.71378812       0.29461088
C        8.61902652       0.73946886       7.34690339       0.78758109      -1.08585091       0.97369939
C       11.01486476       0.71045938       7.63178672       0.85547518      -0.30488141       0.39383335
C       13.47343251       0.68764347       7.59536582       1.65492423       0.10977376       0.33615631
C        0.00040945       2.78048237       7.46522796      -2.85688385       1.88849738       0.76594706
C        2.45280154       2.79824317       7.38625982       0.14828658       0.04358765      -0.93233291
C        4.92188219       2.80107203       7.31666805      -1.36224090       0.04203831      -0.52716562
C        7.29794986       2.79284902       7.43314000       2.00984960       1.23817412      -1.48071502
C        9.77612180       2.88992448       7.66039486       0.37873095       0.60442599      -0.10882965
C       12.27546192       2.88214219       7.63435905      -1.77357653      -0.32355251       0.62617906
C       -1.22215758       4.99265718       7.75395819      -0.12140981       0.31410242      -0.18732389
C        1.22881151       4.94651772       7.58528063       0.86076909       0.56674544      -0.72243936
C        3.73052850       4.94532551       7.26677708      -1.68221598       0.58159896       0.55020965
C        6.18284544       4.96745783       7.20662325      -0.93452966       0.43470850       0.27954910
C        8.58602135       4.99891160       7.49166638       0.05260888      -0.28873257      -0.42959611
C       11.05506464       5.02586931       7.68650889      -0.00406466      -1.70757425       0.00396696
C       -2.46041270       7.11215261       7.84756837       0.13859454      -0.31741811      -0.68963980
C       -0.02803888       7.07388011       7.70938006       2.87730201       1.77713339       0.18322452
C        2.45697378       7.12158117       7.44343303      -0.85432693      -0.76349963       0.42034451
C        4.91930455       7.12230432       7.28257802      -0.88071262       0.32704329       0.35159116
C        7.35642143       7.19385074       7.37949528       0.08701024      -3.00945877       0.09506525
C        9.81996408       7.11052263       7.66121919       0.59101126      -2.11411734      -0.54348467
C       -3.65348760       9.26600346       7.68666287      -1.19660401      -1.11086543      -0.29022561
C       -1.23939881       9.14124961       7.61096773       2.83346213       4.24636122       0.87173356
C        1.24317578       9.21647856       7.59644474      -0.97483839      -0.14558332      -1.01647021
C        3.72030667       9.24306369       7.52280159      -1.48587677      -0.56072340      -1.26628579
C        6.16210599       9.27892297       7.45005278       1.00417956       0.07671221      -0.28025307
C        8.63665301       9.22919755       7.48447257       1.47125876       0.82946899       0.33582515
C       -4.90902738      11.43430373       7.49769945       0.26929066      -3.45661989      -0.01982449
C       -2.42835315      11.30966958       7.50941346       0.31048565       2.29832094       0.25781583
C        0.02975715      11.33313261       7.45137768      -0.18808957       1.35309420       0.10207485
C        2.46892619      11.31118315       7.48618393      -0.52455415       1.73387304      -0.51683210
C        4.92063645      11.32388979       7.43184404      -0.29747329       2.33732226       1.25711672
C        7.41503539      11.42827498       7.42343133      -0.09730314      -2.52719515       0.89254689
72
Lattice="14.76 0.0 0.0 -7.38 12.782534959858314 0.0 0.0 0.0 15.0" Properties=species:S:1:pos:R:3:REF_forces:R:3 REF_energy=-11165.336708919858 config_type=fd_force_conv_snapshot_039 snapshot_index=39 split=validation degauss_Ry=0.0019000869 kgrid=8 lattice_temperature_K=450.0 trajectory_seed=0 pbc="T T T"
C        0.00101552      -0.03168405       7.52349020       0.81469003       0.72965105      -1.25009967
C        2.45712180       0.01474553       7.57968238      -1.66238917      -2.43610919      -0.43069192
C        4.84999859       0.05229050       7.56534611       1.81098325      -0.91142933       0.13715164
C        7.36989598      -0.03898842       7.57601200      -0.04977476       1.65801110       0.40145590
C        9.82456710      -0.01744156       7.41313399       0.41106463       2.10730598       0.77539123
C       12.32375462       0.00601072       7.33910051      -2.18706185      -1.75930665       0.25624077
C       -1.21166690       2.08389291       7.35772234      -0.51018760       0.75395775      -1.59126140
C        1.26175715       2.11250369       7.60156744       0.03266587       0.62880596      -1.44839163
C        3.70895072       2.11587343       7.73163937      -0.74310178       0.95978998      -0.29760313
C        6.15785000       2.09639640       7.69732221       0.87145459       0.88671280       0.57471021
C        8.58670839       2.10713738       7.57833910       0.92592495       0.31085563      -0.15577029
C       11.08173455       2.14405833       7.37060885      -1.90901273      -0.79602022       0.16500440
C       -2.43043947       4.26711338       7.24636956      -0.92501735      -0.97807670      -0.52655987
C        0.02019364       4.22890413       7.37804751      -0.05444954       0.09703318      -0.03169347
C        2.49244435       4.23300800       7.67292220      -0.67150401       2.93060869       0.49413286
C        4.94325190       4.24796325       7.79444821      -0.67087126       0.33373819      -0.64014709
C        7.40376997       4.23874583       7.69303288      -0.22225104      -0.40557841      -1.33091150
C        9.90336936       4.27787857       7.41967740      -2.99376758      -2.13834022      -0.31843061
C       -3.65106928       6.37640974       7.30803164      -0.93103811       1.68111323       0.06130281
C       -1.23620008       6.37176859       7.41780057       0.06529162       1.09805748      -0.39942987
C        1.17888887       6.42136694       7.57986621       1.40117538      -1.29213952       0.09515216
C        3.69653874       6.45702247       7.51270375      -0.28293705      -1.04255045       1.54800568
C        6.16562123       6.38819064       7.63417133       0.54965635       0.70035307       0.13695007
C        8.61577132       6.27110393       7.43068647       1.14631477       5.09063411       0.59206155
C       -4.94534978       8.52827032       7.32053350       1.05093456      -1.12916783      -0.37214636
C       -2.46864514       8.52210101       7.30233264      -1.28415213       0.51197863       0.29223981
C       -0.06403704       8.56566912       7.46917642       1.27571531       0.36562064       0.55579100
C        2.41504568       8.54838813       7.78573052       0.70640185      -0.49986436      -2.14288593
C        4.93155675       8.60294107       7.62410123      -1.46024364      -2.40341453      -0.54323862
C        7.44391046       8.50095703       7.52176718      -3.27204476      -0.16066309      -0.04320867
C       -6.18545652      10.69908900       7.27429190       2.98304865      -2.58801279       1.05063528
C       -3.67387323      10.66527846       7.30215238      -0.51242986       0.07563183       0.69380473
C       -1.29012945      10.70086169       7.62043595       2.03740231      -1.08310729      -1.80467891
C        1.26681753      10.65067971       7.68712868      -2.61529965       1.63227615      -1.33768070
C        3.66322220      10.65018295       7.57250658       0.96956249       0.68374915      -1.04188453
C        6.13697189      10.67510059       7.34975295       0.81465481      -1.79489714       0.04708898
C        1.23919932       0.69203150       7.56156041      -0.95886593       0.34936304       0.65594524
C        3.59836572       0.73715509       7.59839817       4.22924127      -0.19805722       0.43765755
C        6.14741486       0.69860494       7.67741921      -1.26675990      -0.51206193      -0.87009113
C        8.59312282       0.69884376       7.51995089       0.15519333      -0.86151805      -0.14916204
C       11.06914451       0.72088942       7.42977908       0.66042204      -0.67825881      -1.04446309
C       13.54661564       0.65461891       7.38440656       0.06792983       1.88849918       0.52370235
C        0.03450831       2.78973325       7.29656201      -0.21333240       0.68651823       2.05788012
C        2.52312856       2.86030802       7.64946485      -2.00137267      -1.99610499       0.57252091
C        4.93863642       2.78676029       7.78958374       0.04448703       1.93265145      -0.19135847
C        7.40038887       2.82808212       7.66623050      -1.69289428      -0.33164017       0.40464767
C        9.79678192       2.82453327       7.49856183       3.17809434       1.13779620      -0.71465098
C       12.29153379       2.82708980       7.19022343       1.77123734       0.21985169       1.55010910
C       -1.22304513       4.96090662       7.27260992       1.27544149      -0.15478992       0.82533877
C        1.23038179       4.93381753       7.63972620      -0.37503602       1.41276102      -1.44676155
C        3.69139867       5.01457880       7.74539313       1.28781338      -0.64201757      -1.18123858
C        6.18021743       4.95545841       7.65688864      -1.00882092       0.19277874       0.96720119
C        8.60761210       4.91855159       7.42179099       1.60634015      -1.16974807       1.17406469
C       11.09890060       4.99123620       7.29776132       0.75305529      -1.57120860       0.14523133
C       -2.44462439       7.11098005       7.37275241      -0.05818149      -0.73892142      -0.69261971
C       -0.04107212       7.14018686       7.49028430       0.29161452      -0.62453767       0.01256087
C        2.41669155       7.14400663       7.57363179       0.63607601      -0.68428471       0.79626551
C        4.95274654       7.16200259       7.54943535      -0.72043622      -0.94773742       0.72935049
C        7.44917831       7.06373650       7.68801944      -1.35216732       0.20948757      -1.91966841
C        9.86785465       7.06382832       7.33184263      -1.38401455       0.26669333       0.14488038
C       -3.70929604       9.24570348       7.25777403       0.38498799      -0.67582424       0.20534938
C       -1.30205980       9.27513509       7.41312392       1.73804800       0.11809154       0.72881596
C        1.22138217       9.27083864       7.61225277      -1.45484870      -1.54675149       0.98364031
C        3.65376231       9.25344084       7.67652370       0.59101151       0.03054548       0.44148490
C        6.12573083       9.25138475       7.47667662       3.16266206       0.28683433       0.27817871
C        8.59154607       9.23213518       7.32386079       0.92036931       1.11977919       0.05297450
C       -4.89910122      11.35079014       7.45789889      -1.39756735       1.10891885      -1.30698250
C       -2.45559135      11.41856065       7.42465778      -1.98391231       0.05158301       0.77820505
C       -0.01081896      11.36147728       7.61261971       0.32272950      -1.23750460       0.61038478
C        2.45052517      11.38526261       7.51083722       0.52423894      -1.32611356       0.89773281
C        4.91810372      11.32386391       7.34198497      -1.20272015       2.18385234       0.87219867
C        7.38687495      11.36079624       7.33788065      -1.43947041       0.88386891       0.50027163
72
Lattice="14.76 0.0 0.0 -7.38 12.782534959858314 0.0 0.0 0.0 15.0" Properties=species:S:1:pos:R:3:REF_forces:R:3 REF_energy=-11165.527508204621 config_type=fd_force_conv_snapshot_045 snapshot_index=45 split=validation degauss_Ry=0.0019000869 kgrid=8 lattice_temperature_K=450.0 trajectory_seed=0 pbc="T T T"
C       -0.00190559      -0.03874888       7.47161482      -0.11018205       1.68452586       0.87597716
C        2.50120468       0.04827649       7.57373200      -4.13517155      -1.92768357      -0.34669449
C        4.90809255      -0.00612513       7.59212762      -0.49176256       1.02986488      -1.97688625
C        7.32429062       0.06615076       7.34914755       0.87166079      -1.27953417      -0.53340826
C        9.78668730      -0.05786650       7.53704728       0.30844213       1.52377740      -1.79383451
C       12.27662927      -0.03369305       7.63258621      -0.27218264       0.44577889      -2.20971096
C       -1.22239854       2.10419383       7.50067722      -0.78266797       0.20013904       1.55890793
C        1.22042043       2.10110375       7.50611326       0.35443171       1.86006073       0.18808802
C        3.69472217       2.09426988       7.44659630      -2.26041080       1.87434063      -0.25930681
C        6.06652504       2.11961003       7.36824760       3.16380466       1.40982765       0.14902114
C        8.58113210       2.15032612       7.47224079       1.93433193      -1.09043519      -0.70925141
C       11.05225673       2.07890834       7.68122619      -0.02729946       1.73458678      -1.07296917
C       -2.46255508       4.25561150       7.65636664      -0.69014631      -0.42693579       0.02444091
C       -0.01536795       4.24776817       7.46063711      -0.60853975       0.89824189       0.10627501
C        2.48499282       4.25376756       7.44100389      -1.40476541      -1.30233651      -0.32799743
C        4.96913671       4.25197506       7.42346034      -1.53446959      -0.18734909       1.04758647
C        7.44418135       4.19717765       7.40269709      -1.72360920       3.85977940       1.31663339
C        9.86229964       4.29800190       7.56299682      -0.79264025      -0.65898994       0.12412052
C       -3.70687627       6.42387306       7.71208615       3.52332844      -1.67477855       0.38027284
C       -1.27573073       6.39311440       7.61362521       0.93324951       0.21431662      -0.49217522
C        1.21231909       6.42707001       7.42311024       0.86011268      -3.10632174      -0.57388874
C        3.71358677       6.37827147       7.30195829       0.78068256      -0.81177157       0.90923361
C        6.21451954       6.36536988       7.45985472      -0.64948791       0.90033708       0.83003386
C        8.64236420       6.43735815       7.55488632      -0.45277924      -1.10574174       0.59339441
C       -4.89695501       8.53757161       7.70115507       0.07977799      -1.03973715       0.32596934
C       -2.39529772       8.56339907       7.70050951      -2.45282419      -0.70331216       0.11879319
C       -0.02973361       8.49238239       7.40801593       1.54711916       2.26999176       0.53893716
C        2.46850385       8.49324383       7.32818606      -0.88154848       0.41599009       0.63954520
C        4.93601521       8.52472557       7.42990152      -0.57870184      -0.99833262      -0.14510226
C        7.37345031       8.56115618       7.62293115       0.10077850      -0.24880977      -0.78861853
C       -6.16730804      10.69872578       7.59836494       1.72481530      -2.05328401      -0.30523468
C       -3.67435966      10.65719625       7.63295217      -0.54032761       0.67650481       0.44475842
C       -1.20905157      10.66356278       7.44120931      -0.19268593       1.37711602       0.75724670
C        1.23840975      10.62948906       7.34686647      -2.06288683       1.29322375       0.12180447
C        3.73398259      10.63185452       7.32124411      -2.13076961      -0.20311895       0.41677788
C        6.09766915      10.69355690       7.32277106       4.78042023      -2.22388416       0.67594868
C        1.22957593       0.71716546       7.59453644      -0.37121330      -1.34106684      -1.04044215
C        3.65161142       0.72042203       7.45346710       3.89608595      -0.74417290       1.35272114
C        6.08273975       0.74490241       7.32372202       0.42209749      -1.53685763       1.44645404
C        8.57575762       0.73039848       7.37536698       0.55591261      -0.77974823       1.18279641
C       11.03485189       0.66865596       7.55824811      -0.22971007      -0.37844042       1.45807569
C       13.48909933       0.65121802       7.55930668       1.89494340       1.97003606      -0.32571223
C        0.01199090       2.85261192       7.51459982      -1.27648536      -1.77293015      -0.59592283
C        2.45009384       2.81426196       7.44187866       0.74982856       0.23555624       0.36789118
C        4.87929438       2.80838264       7.45130458       1.26682778       2.06044042      -0.48855768
C        7.39064810       2.83642945       7.41557951      -2.35366008      -1.52579597      -0.46196939
C        9.83219371       2.84621931       7.51668351       0.36201158       0.21104643       1.04849715
C       12.30325657       2.82913671       7.67324579      -0.20294411      -1.22432539      -0.73807244
C       -1.29722610       4.98623258       7.51940330       2.94981534      -0.74235539       0.58092996
C        1.22423703       4.91834214       7.41909413       0.17595267       3.14659678       0.31582300
C        3.70239451       4.94732450       7.42154829       1.52111888       0.89165652      -0.61030816
C        6.21308260       4.94860988       7.54830975      -0.58137142      -0.71721077      -2.06280738
C        8.59973622       5.01798288       7.49843536       2.23763494      -1.71092234      -0.17396495
C       11.09535836       4.98724220       7.70188122      -1.26982389       0.25274073      -0.47606238
C       -2.45410842       7.14243273       7.73457911      -0.27715618      -0.31461767      -0.32932952
C       -0.03048784       7.10472147       7.48186059       0.23867911      -0.72418926       0.03138237
C        2.49083051       7.06591125       7.30162886      -1.76524487       1.18369681       0.44671400
C        4.96476271       7.08071732       7.40606550      -0.12228167       0.22002781      -0.18744113
C        7.42326771       7.13441870       7.57981473      -1.21096928       0.16349825      -0.37708647
C        9.88726225       7.08219969       7.68750999      -2.82593599       2.93439567      -0.29945484
C       -3.66732852       9.23244630       7.73508765       0.35128905       1.17273517      -0.58990440
C       -1.21189845       9.26730559       7.52065086       0.59295861      -0.99901165      -0.24042797
C        1.23567880       9.23949998       7.39659756      -0.84054093      -2.45040272      -0.91005122
C        3.66886663       9.19834767       7.42407539       2.05385557       1.23689037      -1.34151164
C        6.12259726       9.28002169       7.43961361       0.95453902      -1.03848451       0.21265723
C        8.62972389       9.22641569       7.66348120      -0.49049681       1.91165145      -0.18571438
C       -4.92638412      11.41323403       7.56885597       1.01512552      -1.43258706       0.78286003
C       -2.42281469      11.37725375       7.62806374      -1.46152739      -0.80847928      -0.63669333
C       -0.02650410      11.42756277       7.34567021       1.35188347      -1.73857764       0.22136530
C        2.43746158      11.30863286       7.36009142       2.24790804       1.16345092       0.49526183
C        4.96220537      11.37605769       7.29657308      -4.48521259       0.47531521       1.48587240
C        7.38232132      11.35577262       7.44502232      -1.26098958       0.12439537       0.03344465
72
Lattice="14.76 0.0 0.0 -7.38 12.782534959858314 0.0 0.0 0.0 15.0" Properties=species:S:1:pos:R:3:REF_forces:R:3 REF_energy=-11164.940671037657 config_type=fd_force_conv_snapshot_051 snapshot_index=51 split=validation degauss_Ry=0.0019000869 kgrid=8 lattice_temperature_K=450.0 trajectory_seed=0 pbc="T T T"
C        0.05936977       0.10415540       7.52483351       1.13036314      -4.49086207      -0.48255493
C        2.54109217      -0.00388008       7.52024331      -2.25349427      -1.05937009       0.40776771
C        4.96353353      -0.01716286       7.59068249      -1.13454092      -0.29218711      -0.81580203
C        7.39923850      -0.02795397       7.58473559       0.05060008      -1.01684379      -0.61064626
C        9.89155988       0.04490481       7.53905676      -0.46145028      -0.11474396       0.05126394
C       12.38395130      -0.02334921       7.54647434      -0.40309935       2.49600252      -1.19642789
C       -1.22647143       2.19354259       7.46630499       0.97596556      -1.91171856      -2.07648950
C        1.26055207       2.16432144       7.54443638       1.09563962      -1.14688016       0.36690285
C        3.77099428       2.10663440       7.60260182      -4.96782948       0.09539204       0.64511729
C        6.16103390       2.06504696       7.82735353       0.18092647       1.47054194      -0.54635942
C        8.58699164       2.18749610       7.60878399       1.36154259      -2.68739081      -0.67393036
C       11.08900182       2.13645715       7.37161103       0.46068204       1.65196978      -1.00374762
C       -2.46957967       4.29563526       7.19311347       0.20800019      -2.87117070      -0.45512820
C        0.00325661       4.30542933       7.34728468      -0.81825204      -1.53304880       0.61414887
C        2.40629816       4.26770858       7.66468444       2.29038009      -0.29985002      -0.78293845
C        4.92991110       4.18871764       7.81624786      -1.69018048       2.12284084       0.05481129
C        7.36609558       4.23538202       7.73360917      -0.11922797       1.51837423      -0.76243133
C        9.81748843       4.26635849       7.16705526      -1.19395629      -1.98322737       1.15583994
C       -3.78545459       6.33406605       7.18851203       1.31797679       1.10757673      -0.45045059
C       -1.30825604       6.39934684       7.29101970       1.72212490      -1.07262104       1.14996137
C        1.16400362       6.43115214       7.48571072       3.05668710      -1.80503012       0.35057737
C        3.64448294       6.37061321       7.66639758       0.96204510       2.02365153       0.04019766
C        6.06641676       6.34943432       7.59860310       2.04276512       1.96410890       1.16372937
C        8.54698242       6.36799439       7.40270036       0.14340816      -0.62588801      -0.39678318
C       -4.97006286       8.49898840       7.24847404      -0.05769273      -0.09336267       1.05252633
C       -2.46222380       8.43587692       7.30524840      -2.03876911       3.66155069      -1.02760874
C       -0.02063131       8.52905200       7.49446037       0.67818502      -0.19963073      -0.20154209
C        2.42585426       8.53885373       7.67635219       1.29936278       1.36286414      -0.32902767
C        4.89693055       8.57164366       7.50512292       0.88642818       0.49167334       1.56332894
C        7.36844184       8.52026016       7.51678857      -0.24925920       0.02539581       1.54596808
C       -6.14267702      10.64291248       7.56132801      -0.52047484       0.98371590      -0.27497897
C       -3.65827799      10.55998308       7.43703199      -0.75254955       3.23940821      -1.19895580
C       -1.20792428      10.61751966       7.32329047      -0.34433088       0.07151755       0.15287728
C        1.26504555      10.66834746       7.59767436      -0.41848483       0.55370995      -0.67092808
C        3.73889396      10.72024881       7.66720991      -1.15378563      -1.72873957      -0.82442963
C        6.16383995      10.70798013       7.49594988       2.17695176      -1.33663349       0.55367318
C        1.31092970       0.72048059       7.59301112      -0.37375021       1.41070363      -0.84179512
C        3.72033799       0.71957191       7.56283269       1.92117019      -1.62269957       0.03952994
C        6.17708995       0.66216907       7.67315971       0.37842705       0.92949647       0.23530762
C        8.59623162       0.71611654       7.53926334       1.74601893       0.84112817       0.74265055
C       11.17050591       0.76674627       7.51605733      -1.90710471      -2.77977878       0.12770901
C       13.60681282       0.70535906       7.39508154      -2.32209799       3.10522156       1.75183888
C        0.03336997       2.87144537       7.45896387      -0.94984213       0.50339166      -0.06321366
C        2.50316521       2.84076404       7.62454617      -0.70242358       0.37851755      -0.40011507
C        4.90409944       2.77767423       7.79470315       4.18182550       1.31118394       0.19848299
C        7.37705020       2.85126811       7.74976445      -1.22362373      -1.53201213       0.36945621
C        9.82953994       2.84389149       7.37756868       0.05444722       0.29594092      -0.21760532
C       12.32080358       2.86631027       7.15662727      -0.48782672      -0.17570996       2.38763824
C       -1.27340823       4.96152638       7.34375390       1.55417401       2.20729438      -1.15256718
C        1.21802373       4.98591056       7.41726536      -0.44291006       1.16868903       0.92789776
C        3.66199309       4.96221755       7.73522543       0.65621649      -0.89868772       0.03940036
C        6.13142947       4.95018541       7.80273133      -0.74524865      -0.69097935      -0.59703818
C        8.54731387       4.93461533       7.39012921       1.57097411       0.70043664       0.21840390
C       11.06235179       4.90961360       7.09469889      -1.91166122       3.12392222       0.47344525
C       -2.54460833       7.08318976       7.29458121       0.49253621      -2.39192658      -0.60917199
C       -0.02715992       7.08533415       7.45012180      -2.51682537       1.83878819      -0.48965580
C        2.43015780       7.12845988       7.63176068      -0.86389041      -0.82698479      -0.22660418
C        4.89040584       7.15771322       7.62096151      -0.95454622      -2.39420895      -0.45579051
C        7.34944340       7.06177140       7.58917393      -1.61820348       1.18072873      -1.12821344
C        9.75951668       7.07592532       7.19023410       0.36571037      -0.57369616       0.67051748
C       -3.74566848       9.18200711       7.22166422       2.86189647      -0.57034910       1.04174801
C       -1.23997835       9.18971073       7.30566923      -0.40609649      -0.01510755       0.75269276
C        1.21526227       9.28674866       7.63202530      -0.02810190      -2.76991268      -0.26307579
C        3.68226250       9.30089516       7.62143923      -0.40123196      -1.38370087       0.14945077
C        6.16216994       9.29821322       7.60877120      -0.41348712      -2.11683088      -1.62193235
C        8.61747563       9.23008947       7.57689930      -1.01772234      -0.98688375      -1.86840061
C       -4.91000969      11.32003521       7.49752229       2.04825802       0.71680531       0.24911367
C       -2.39797594      11.37589952       7.35927296      -2.13984509      -2.35554907       1.02676131
C        0.00789040      11.30095361       7.44530074       1.13764604       2.36281038       0.66403599
C        2.50278010      11.38984723       7.58779107      -0.27801416       1.42871163       0.59345226
C        4.97390947      11.36785773       7.54357112      -1.54418913       1.50017725       0.46246613
C        7.39678500      11.40688414       7.48686945       0.81668392       0.50997548       0.72564913
72
Lattice="14.76 0.0 0.0 -7.38 12.782534959858314 0.0 0.0 0.0 15.0" Properties=species:S:1:pos:R:3:REF_forces:R:3 REF_energy=-11164.260882504544 config_type=fd_force_conv_snapshot_057 snapshot_index=57 split=validation degauss_Ry=0.0019000869 kgrid=8 lattice_temperature_K=450.0 trajectory_seed=0 pbc="T T T"
C       -0.06500252      -0.04056957       7.49007497       1.16655990      -0.58325450      -0.93964796
C        2.37648510       0.06794747       7.62183463       2.58896333      -1.45821067      -0.99605719
C        4.85140167       0.08564842       7.50659673       2.85259885      -2.27054300       0.20889030
C        7.33570443       0.05652048       7.47359757      -0.33959362      -1.65172809      -0.98160425
C        9.85498631      -0.05980778       7.47706816      -3.27236384       1.84494212      -0.59020881
C       12.25342863      -0.01341404       7.37977129      -0.29792735       1.17855409       0.93692748
C       -1.22446306       2.06347228       7.64690231      -1.11511161       2.09955821      -0.19913040
C        1.19759557       2.12224859       7.58170709       0.15121583       0.53797994      -1.02433367
C        3.68498961       2.20587569       7.47233549      -1.68692958      -2.41828682       0.14799193
C        6.10896153       2.24236990       7.35967257       0.31182365      -3.49404229      -0.05150408
C        8.60538409       2.17478726       7.47787661       0.35287388      -2.04793458      -0.45655053
C       11.10574490       2.11593193       7.63925883      -1.92562103       1.85704791      -1.09290551
C       -2.41843403       4.27352168       7.77178690      -0.68534066      -1.51241570      -0.30024880
C        0.00239182       4.20436876       7.73027876      -0.38649877       3.72804739      -0.58966991
C        2.41775485       4.23133850       7.36566651       1.63979020       1.94847376       2.24845003
C        4.94512145       4.28737661       7.29859424      -2.15890724       0.05455778       0.09193571
C        7.39210733       4.28074974       7.33735628       1.42267571      -2.03397837      -0.02438897
C        9.89404454       4.25576065       7.55829393      -0.68417775      -0.84057667      -0.26695224
C       -3.55977193       6.36344668       7.74019532      -2.00982928       0.91482653      -0.82513745
C       -1.18848724       6.41278937       7.66874478      -0.90614083      -0.97399558      -0.08855111
C        1.20091664       6.33764966       7.51194996       1.46526655       2.51796309       0.59265445
C        3.66368095       6.35914328       7.38255805       0.62136184       2.46209070       1.13005203
C        6.15767285       6.35747021       7.36705758       3.24092207      -0.74193398      -0.07774013
C        8.73355237       6.35128123       7.45522724      -1.46068382      -1.72699045       0.06222121
C       -4.91103580       8.45180953       7.47210578       0.94992800       1.79345964       1.84919344
C       -2.46480803       8.57261276       7.58200367      -0.10019846      -0.23920927       0.16694301
C        0.00509570       8.54433228       7.58127266      -1.11361986      -0.72202876      -0.85051270
C        2.48998236       8.58850326       7.48722661      -1.73568361      -3.98660729      -0.18064288
C        4.96436472       8.44028374       7.29952681      -1.25288314       2.79847713       0.39934966
C        7.40732501       8.52238559       7.48284097       1.23449719      -2.62315977      -0.48745982
C       -6.18206309      10.64817304       7.50062156       1.55283909      -0.63137938       1.07308590
C       -3.75038742      10.69426821       7.57795597       1.35974539      -0.28260563       0.67996731
C       -1.25888131      10.76420648       7.56395072       0.82646234      -3.92614523      -1.34360709
C        1.20859817      10.60545827       7.46810864      -1.21647375       2.23537982      -0.67314309
C        3.73480034      10.68207511       7.45788948      -2.40203230      -2.94496624      -0.91535129
C        6.19090835      10.59298012       7.30723897      -3.74047687       1.35855805       0.90405258
C        1.17188461       0.70870963       7.35514627      -0.99511797       0.55573624       3.02117451
C        3.68309340       0.76551065       7.58631720      -3.41515699       1.23403670      -0.32451796
C        6.10379559       0.78386890       7.44344320      -0.10253328       0.72572832       0.04361465
C        8.55942396       0.69838795       7.45147048       2.68558282       1.50248867       0.53735105
C       11.01670857       0.75737645       7.42749072       1.88148341      -3.98896705       0.74378363
C       13.47764954       0.64130998       7.51862716       0.98229999       1.86257166      -0.27417216
C       -0.02151649       2.85723416       7.64558764       0.31551987      -4.26234242       0.25029509
C        2.43784060       2.85450652       7.56200393      -0.53599145      -0.87115994      -1.11803598
C        4.85090833       2.88992405       7.26506139       2.67471450       0.84295031       0.89371494
C        7.36857411       2.87048502       7.39285970       0.26767678       0.25846323      -0.19263065
C        9.88008028       2.84939180       7.51140725      -0.52494522      -0.65609359       0.94386097
C       12.31296933       2.84043225       7.70003995       1.43179490      -1.15229747       0.11124829
C       -1.20527105       4.96536085       7.73430650       0.36156087       0.55189758       0.37240655
C        1.22090328       4.94472112       7.57868184      -0.34847755      -0.93244013      -0.71009627
C        3.68890875       4.99657598       7.42564462      -0.52990488      -2.70300590      -1.54531887
C        6.18857469       4.92417401       7.30474851      -1.64960565       3.01387412       0.13220227
C        8.64371901       4.88575209       7.39499897       1.32567647       3.69363729       0.69826971
C       11.11140431       4.95573388       7.71598076       0.89693474       0.45312376       0.12047058
C       -2.39360404       7.14854586       7.67152378      -0.30354804      -0.88890724       0.22432232
C       -0.00138581       7.08906526       7.54742904       1.07366954       1.35089051       0.55408944
C        2.44604683       7.09724871       7.53164894       0.15225816       0.30019429      -1.23097272
C        4.95288932       7.05428267       7.38415226      -1.21422378       0.05855353      -0.54820625
C        7.49186994       7.02246494       7.41995375      -2.74382550       2.57329631       0.11826766
C        9.96588552       7.03843239       7.59286682      -1.60330419       0.82843823      -0.56169065
C       -3.73468701       9.24883874       7.58364782       0.83159658       0.12418788      -0.69278426
C       -1.25579686       9.28367299       7.53471759       1.29759411       0.45345467       0.80807433
C        1.23232705       9.23123628       7.49650467      -0.37173395      -0.57282610       0.46958551
C        3.68965249       9.22370298       7.33965789       3.36554550       0.75253644       0.73841311
C        6.19425604       9.20623883       7.32812546      -1.35183591      -1.77405861       0.21256261
C        8.63614081       9.21482108       7.56297927      -0.60598253      -0.30756693      -1.29765659
C       -4.98049813      11.40995348       7.66413671       0.26453798       0.02609207      -1.18293423
C       -2.46449603      11.40673729       7.54307568      -3.37824675       1.68202983       0.31116390
C       -0.02822108      11.37353303       7.37003867       0.92120029       1.60021527       1.87787667
C        2.42469643      11.28193685       7.46302417       2.59020517       2.84982823       0.15631279
C        4.91891029      11.38699722       7.40444940       1.12103877      -1.97790775      -0.89778911
C        7.33669858      11.29095942       7.45310433       1.98651298       2.57342332      -0.29862026
72
Lattice="14.76 0.0 0.0 -7.38 12.782534959858314 0.0 0.0 0.0 15.0" Properties=species:S:1:pos:R:3:REF_forces:R:3 REF_energy=-11165.247220066252 config_type=fd_force_conv_snapshot_063 snapshot_index=63 split=validation degauss_Ry=0.0019000869 kgrid=8 lattice_temperature_K=450.0 trajectory_seed=0 pbc="T T T"
C        0.01732493       0.03093968       7.45763579       0.20773537       0.42847537       0.89255846
C        2.46506844      -0.00521080       7.42881065       0.58217232       1.76248993       1.49839290
C        4.97237293       0.03785377       7.43843436      -2.10981949      -1.86043276      -0.11581534
C        7.41507777      -0.05005184       7.49380605      -0.85575698       2.25747614      -0.84718286
C        9.85273149      -0.01145343       7.57029040       1.74926880      -0.22490905      -1.85669387
C       12.29531044       0.01829460       7.55153475       2.52676243      -1.67193671      -0.92604605
C       -1.26457527       2.12973373       7.35137830      -0.43560144       2.59367693       0.41366787
C        1.25313709       2.15282664       7.37596606      -1.32674297       0.75109457       0.20494289
C        3.75142879       2.17395034       7.48746448      -3.56119848      -2.51421030      -0.34515389
C        6.14146865       2.13158907       7.58266060       1.44571074      -0.34056113      -0.72947159
C        8.55755473       2.13465055       7.60366277       3.23637173      -0.88075530      -1.88501585
C       11.02674585       2.12178850       7.48483436       1.70820674       0.43560761      -0.82708866
C       -2.48955094       4.36887205       7.45071377       0.42616292      -4.60236773      -0.73199564
C       -0.02776766       4.25725378       7.28324985       0.51972871       0.98675314       0.06081276
C        2.48424738       4.24038897       7.39831966      -1.30646905       1.74265156      -0.61843798
C        4.95001927       4.26188260       7.60609403      -1.61084652      -0.91059758       0.39497030
C        7.35559797       4.26585007       7.62521148       2.48716847       0.23016593      -0.11837925
C        9.85333671       4.28023189       7.49237663      -1.13462474      -0.60511170      -0.35205139
C       -3.72890387       6.39389959       7.44079567      -0.39177467       1.08491323      -0.36221419
C       -1.27868632       6.39916513       7.20054801       3.08854127      -2.49446732       1.25525627
C        1.22007487       6.40696454       7.40551087       0.56031717      -3.23828283      -0.85544150
C        3.75184198       6.34884728       7.61548547      -2.29339599       1.73344007      -0.36997352
C        6.12493855       6.36749643       7.71715108      -0.20712396       0.43121411       0.73677635
C        8.59626054       6.39778280       7.52430086      -1.63707846       0.77651558       1.05336117
C       -4.91794256       8.51454286       7.60726808      -0.98225988       1.58749422      -1.05180282
C       -2.44932809       8.44627678       7.35605309      -1.32299944       1.02383230       0.97807618
C        0.00517446       8.51024851       7.48113024       0.27497717      -0.90149099      -0.31082837
C        2.48643720       8.48816194       7.49049683      -1.67345957      -2.12682065       0.67862494
C        4.90970948       8.54881118       7.60126109       0.68232141      -0.48857054       1.30883112
C        7.34289873       8.51759246       7.53293679       0.30973283       0.78475648       1.81277660
C       -6.14667119      10.67949927       7.61848710      -1.14341097      -0.56045935      -0.13950240
C       -3.70207500      10.69958973       7.52559700       1.08155126      -2.34760256      -0.34132140
C       -1.23008629      10.63855467       7.51829658      -0.30024211      -1.26622100      -0.50393082
C        1.23588210      10.64171235       7.46260856       1.36134410      -0.46176087       0.38140079
C        3.67595751      10.61414259       7.61917046       2.10373137      -0.06749480      -0.74595133
C        6.17490924      10.62576463       7.66685690       0.12481137       5.60539878      -0.53243381
C        1.24896819       0.74332565       7.49840686       0.29947875      -0.28005895      -1.35043568
C        3.73159341       0.73334755       7.48180539      -0.83059385      -0.24616616      -0.60892259
C        6.15441950       0.71254927       7.41902754       2.77259049       0.61276202       1.27271895
C        8.64889461       0.68334853       7.44905846      -2.12194584       0.70208883       1.68906437
C       11.10845760       0.69522825       7.45534025      -2.48353627       0.73001255       1.38935293
C       13.56079517       0.75161645       7.42767792      -1.92045311      -1.89080983       0.36058411
C       -0.04807731       2.88391493       7.34824632       1.75487407      -2.61481423      -0.28385802
C        2.48272556       2.86689246       7.37427363       0.52365324      -1.87640883       0.53546232
C        4.92959414       2.82534827       7.57991025       1.79403223       2.18164325      -0.10343342
C        7.39111850       2.86424003       7.57252349      -2.22082404      -0.95676868       0.67725814
C        9.82589919       2.82699982       7.46210582      -1.55001422       1.26305546       1.24655437
C       12.22739241       2.88022149       7.41068980       1.53469713      -0.01547753       0.29642428
C       -1.25845674       4.97489191       7.31878162       0.89691443       1.26367278      -0.55261312
C        1.23687511       4.92970527       7.27308164      -0.44309466       1.90780251       1.04856040
C        3.68902676       4.95988821       7.52252322       2.41539921      -0.67976008       0.50827418
C        6.16145588       4.94129348       7.74036342      -1.43320438       1.34558684      -0.81906811
C        8.60143587       4.99961759       7.51637423       0.24418435      -1.45973019       0.39807259
C       11.06346028       5.03434376       7.44996970      -1.85964549      -1.98510401       0.25518070
C       -2.48065821       6.99725110       7.31366903      -1.27887005       4.78580746       0.01403308
C       -0.01800922       7.07514057       7.35422169      -0.05271636       1.73897668      -0.18529298
C        2.48606432       7.02388808       7.49351790      -0.03541772       2.40771470       0.23942370
C        4.93914078       7.14210379       7.72815738      -0.53517512      -1.99353518      -1.02999447
C        7.29746634       7.07962856       7.70821641       3.70834811       1.40104322      -1.91935576
C        9.80392868       7.12260996       7.51661018       0.54503685      -0.70316200       0.03166416
C       -3.68031672       9.20529632       7.49328598       0.24671715       1.22785783       0.24486338
C       -1.24996881       9.17289847       7.49232499       0.91629154       1.53467631      -0.57493209
C        1.26936339       9.21032277       7.50525187      -1.55073876       0.25713808      -0.36772149
C        3.65855715       9.16495306       7.62752339       1.73034934       2.90288860      -0.65104189
C        6.13533438       9.30593033       7.65537358       0.45702567      -5.50636940      -0.79152285
C        8.58980413       9.26358216       7.56982002       0.22350163      -1.88647341       0.41349715
C       -4.96098175      11.37600768       7.58318580       3.04343178       0.45920340      -0.82581880
C       -2.42242793      11.37125160       7.42756376      -1.70535873       0.37981853       0.78422786
C       -0.00004833      11.34434422       7.50255787       0.66511379      -0.96274829      -0.13676675
C        2.51692363      11.34755278       7.45946762      -3.11501798       0.19441602       1.17485865
C        4.94044801      11.33333470       7.58744929      -0.98120959       0.86302986       0.79218054
C        7.41988216      11.41980674       7.61524504      -1.83763685      -1.75370987      -0.27519417
72
Lattice="14.76 0.0 0.0 -7.38 12.782534959858314 0.0 0.0 0.0 15.0" Properties=species:S:1:pos:R:3:REF_forces:R:3 REF_energy=-11164.880202716771 config_type=fd_force_conv_snapshot_069 snapshot_index=69 split=validation degauss_Ry=0.0019000869 kgrid=8 lattice_temperature_K=450.0 trajectory_seed=0 pbc="T T T"
C        0.03531212      -0.00118765       7.47621843      -1.66934658      -2.51909052       1.26465854
C        2.46277373      -0.02617878       7.52434423       0.57382240       0.16561581      -0.82719228
C        4.88111868      -0.02520399       7.35567639       1.48322056       1.03833076       0.30303742
C        7.39143909      -0.00230881       7.31761859      -1.22198671       0.61987986       0.34410256
C        9.84210386      -0.01497918       7.37276240       0.40875887      -0.21529595       0.01681142
C       12.31493799       0.03958818       7.51917964      -0.37013575      -3.12405515      -0.59959154
C       -1.18091000       2.10040565       7.60268492      -1.64474858      -0.38016023       0.36815600
C        1.23757940       2.15950184       7.56063405       1.06625448      -1.59382762      -0.12998521
C        3.68283112       2.15588240       7.29843199       1.53845120      -1.46975852       0.78741500
C        6.10702562       2.12432228       7.33221369       3.26872084      -1.65730559       0.11431793
C        8.59315565       2.11291701       7.38531514       0.84234790       0.03548225      -0.31380751
C       11.10706981       2.10858101       7.63115012      -2.98437920      -0.07099536      -1.09569310
C       -2.52446442       4.22083359       7.76701944       2.09638727       0.46314927      -0.24186445
C       -0.02178111       4.32809468       7.72785150       2.24639237      -2.38231503      -0.02600517
C        2.50370567       4.28023900       7.39399997      -0.53358027       0.38360705       0.82663049
C        4.96195948       4.26403570       7.27605754      -1.46553214       0.11516460       1.15317988
C        7.31934296       4.21687629       7.47940283       2.21560753       2.38019978      -0.65869375
C        9.76406335       4.27494477       7.76362729       1.84255486      -2.25543211      -2.11692550
C       -3.67505475       6.38454806       7.60308869      -0.56049612      -0.32903487       1.26232501
C       -1.27506832       6.38246226       7.73142017       2.91771229      -0.01375155       0.44384671
C        1.21317698       6.45235132       7.54357717       2.15520203      -1.16577340       1.19228944
C        3.72027706       6.40033882       7.36813294      -1.32806837       1.00099988      -0.21462926
C        6.16520583       6.43683707       7.40603579      -0.49837055      -0.67483513      -0.10351544
C        8.60773602       6.37648100       7.60163537      -1.87437149       0.69700653       0.12304091
C       -4.98382607       8.46607914       7.59464663       2.66396755       2.24939851       0.82205599
C       -2.44431713       8.50663572       7.75036025      -0.38673634       0.80110741      -0.84786112
C       -0.01866425       8.49864255       7.70042167       0.83038765       2.32925877      -0.17311829
C        2.46544619       8.59625643       7.43863309      -1.06683606      -2.84383756      -0.51932196
C        4.86550459       8.52262239       7.33342279       2.60729607       0.28109100      -0.15739574
C        7.38508622       8.59989619       7.27752395       0.27784755      -2.57040768       2.04311273
C       -6.14314324      10.71158393       7.43079516      -0.51680048      -2.65317663       1.24891542
C       -3.65422806      10.59648546       7.51026380      -0.46271192       1.48897443       1.00608835
C       -1.21819672      10.64189312       7.55911710       1.56059637       1.98650244       0.06266190
C        1.22754756      10.63241813       7.51585707       1.20559053       2.14410335      -1.86721148
C        3.69385155      10.64328266       7.23247507       1.09328834       0.75328772       0.85308509
C        6.09058152      10.58970346       7.46959503       2.84325572       4.30848781       0.06162729
C        1.24047498       0.66421785       7.59221122       0.65807823       2.98008443      -0.89479249
C        3.66575416       0.71201222       7.32035499       0.06754751       0.05212166       0.95191264
C        6.11660501       0.69298808       7.34365965       0.47497326       0.03074808      -0.52667017
C        8.60720105       0.69057477       7.34714351       0.61126126       0.61577741      -0.09744867
C       11.07574935       0.70868657       7.53396428      -0.31170949      -0.36678843      -0.49033868
C       13.55346077       0.63728696       7.49110368       0.64772568       4.43541366       0.65346567
C        0.01134128       2.84352311       7.67358661       0.04473720       1.48696177      -0.33989701
C        2.49091759       2.85870563       7.39553689      -1.67966724       0.13314046       0.29793378
C        4.96695727       2.83146057       7.40891360      -3.67687395       1.52327321      -1.79121378
C        7.36981701       2.83343540       7.33365506      -0.87587920      -0.78530567       0.74752510
C        9.82848875       2.80501806       7.46923957       0.29034285       1.77988704       2.36858611
C       12.30355863       2.79324558       7.68010726       1.53887132       1.14990198       0.34161528
C       -1.25958329       4.97910634       7.78940176      -1.05898160      -0.81692998      -0.50259693
C        1.29788958       4.99693698       7.63235320      -2.63452636       0.89068156      -0.92996184
C        3.73288437       4.99313285       7.34725346      -0.46350305      -0.75686746      -0.50791937
C        6.13634235       4.99118390       7.36283198       1.13756505       0.16022935       0.34450391
C        8.58238701       4.98019933       7.60257557      -1.89268468      -1.50098226       0.40123839
C       11.02626824       4.95585711       7.73869440       0.27175558       0.42439349      -0.06139614
C       -2.41033595       7.10290558       7.58947970      -3.59671313       0.03581135       1.29319521
C       -0.02002684       7.11355477       7.80680127       0.11017254      -0.86556188      -1.67247715
C        2.48310752       7.16964979       7.39869874      -1.22039340      -1.51311221       0.72315799
C        4.92042178       7.13112838       7.36972716       0.36232577      -0.78356631      -0.17185382
C        7.37700417       7.14484876       7.46531126       0.92716011       0.18252030      -0.75406419
C        9.81368637       7.05275188       7.71433225       1.33519650       1.19364004      -1.53916597
C       -3.67490620       9.21165141       7.71135444      -1.58117702      -1.48498511      -1.14237404
C       -1.24493706       9.25529934       7.69604492       1.11474754      -1.53863041       0.21815502
C        1.23885962       9.25717603       7.53112613      -1.90727826      -1.81340934       0.75753441
C        3.66594857       9.21985361       7.28670614       1.46962251       2.41820737       0.19913400
C        6.14433837       9.24108887       7.35573186      -1.91819594      -1.85196561      -0.61040226
C        8.62260565       9.27132732       7.46111345      -0.67443173      -0.64100430      -0.77266535
C       -4.90557564      11.32626806       7.48714950       1.17099736       1.40947155      -0.08132219
C       -2.41372929      11.36264063       7.53829267      -2.33891198      -1.21162131      -0.91234259
C        0.05289880      11.40247287       7.43002169      -2.38541269      -2.74985242       0.83208689
C        2.47679693      11.32461184       7.27318883      -0.87336723       1.21472257       1.15370747
C        4.94747501      11.38327482       7.40356041      -2.56139468      -0.90428578      -0.28324764
C        7.36067609      11.34816173       7.56758299       0.26445904       0.14528790      -1.60614809
72
Lattice="14.76 0.0 0.0 -7.38 12.782534959858314 0.0 0.0 0.0 15.0" Properties=species:S:1:pos:R:3:REF_forces:R:3 REF_energy=-11165.412568271571 config_type=fd_force_conv_snapshot_075 snapshot_index=75 split=validation degauss_Ry=0.0019000869 kgrid=8 lattice_temperature_K=450.0 trajectory_seed=0 pbc="T T T"
C       -0.02674263       0.00073296       7.32327264       0.08438206      -2.03639212       0.42137681
C        2.43745688      -0.00408466       7.38674640       0.32133827       0.02730074       1.55654791
C        4.88483642       0.01825300       7.62541538       1.28617070      -0.15159070      -0.04752376
C        7.40739472       0.01684172       7.61084420      -1.51532439      -0.23420333      -0.72137210
C        9.85437634      -0.03424613       7.50882773      -0.30010276       1.31182980      -0.26023189
C       12.30326622      -0.07425197       7.51447061       0.39059762       1.97760642      -1.10440451
C       -1.27204695       2.13447523       7.25063249       3.07667229      -1.60995898       0.16120225
C        1.19467000       2.06480100       7.27178898       2.36923094       1.82261338       1.20626416
C        3.67470554       2.13809923       7.53445030       1.50794558      -0.58777012       0.98061000
C        6.10182433       2.15276308       7.77223542       1.44917453      -0.76438563      -1.16583613
C        8.56922184       2.14532798       7.53565405       1.17807433       0.61163407       0.35137261
C       11.08186457       2.11320029       7.36599308      -0.79361521       1.66052049      -0.53920430
C       -2.42823620       4.27460944       7.23025654       0.19373519       1.60237037      -0.75507181
C       -0.01122180       4.27816490       7.30309063       1.18555109      -0.52905024       0.24973511
C        2.43950638       4.21277230       7.48062437      -0.27393793       3.82759999       0.78800172
C        4.88655540       4.24043973       7.76219399       0.48304112       2.79918829      -1.14427615
C        7.38542896       4.22220092       7.61779228       0.72958343       2.88417585       0.21362216
C        9.86387949       4.29600143       7.39015385       1.07381301      -1.40272369       0.00197975
C       -3.64683326       6.44134728       7.44093856       2.39624912      -2.37295364      -1.29251516
C       -1.17454093       6.46360667       7.32731983      -0.85933518      -0.75486740       0.32333705
C        1.19819959       6.45534914       7.53965606       1.03679272      -1.93694622       0.10155652
C        3.70655409       6.41056174       7.60565500      -1.04997271      -1.60565598       1.10243401
C        6.15861507       6.38167919       7.62337822      -0.08234524      -1.60657515      -0.08597075
C        8.62476923       6.41646964       7.52281122       1.66274218      -1.98111906      -0.78533498
C       -4.91733152       8.50639845       7.37126360       2.16783694       0.40300602       0.99434741
C       -2.46787179       8.55459604       7.36263851       1.87025849      -0.21792208       2.38260505
C       -0.00054275       8.62541701       7.58371847       1.23090047      -2.40683872       0.52023727
C        2.51166743       8.50681713       7.65632244      -3.35421876      -1.63639121       0.36360027
C        4.91610353       8.52371518       7.69661326       0.24337985      -1.86742514      -0.88013206
C        7.30813121       8.49426154       7.44839780       4.43838689      -1.56173434       0.02534851
C       -6.15104826      10.64436379       7.39620624      -0.72732755      -1.78948471       0.75993325
C       -3.73011895      10.66930645       7.46976730       1.55615042       0.65703616       1.18358291
C       -1.27702840      10.66931925       7.66798029       1.48343705       0.03559307      -0.82233186
C        1.22995569      10.63864624       7.58915836      -0.23053617       0.16839954       0.14450397
C        3.70644962      10.61441239       7.65127738      -1.32043142      -0.80367003      -0.65744213
C        6.13843814      10.58341714       7.43255698       1.59521705       1.73802768       0.77448158
C        1.19168888       0.65331203       7.31494855       1.24591417       1.89132817      -0.40345751
C        3.67229969       0.71863655       7.62380585      -1.25006933      -0.05501261      -1.74655398
C        6.12929189       0.71316225       7.62381020       0.60277997       0.89490819       1.03583293
C        8.63163040       0.75756056       7.52388640      -0.35588336      -3.02461671       0.37246826
C       11.08771549       0.70379202       7.42760739      -0.13042461      -1.67965336       0.77914556
C       13.51855940       0.68076917       7.33987344      -1.47124282       0.52605208       0.23429255
C        0.01321731       2.79909277       7.31224366      -1.55594653       1.52740883      -0.96153653
C        2.50871154       2.83808508       7.44530356      -4.44177766      -1.78691078      -0.95422946
C        4.89311082       2.87332968       7.69235954      -0.17387728      -2.13846209       0.42605519
C        7.36025878       2.86091445       7.68934767      -0.91118328      -2.19846958      -0.16942593
C        9.79148943       2.84282959       7.44220455       2.86430637       0.39861046      -0.61416533
C       12.34187266       2.86867881       7.19632133      -3.29586089      -0.86740767       1.03035571
C       -1.20194813       5.02088406       7.21120831      -0.21458221      -0.31662158       0.79415129
C        1.20288618       5.01064478       7.47242462       0.08837242      -1.37814086      -0.71600209
C        3.63857281       4.97968304       7.64200123       1.83019248      -0.80571148      -0.22043276
C        6.16415439       4.95001984       7.65736363      -1.21657043       0.07428663       0.62145106
C        8.66112822       4.95601344       7.53195073      -2.22314780       1.75343811      -0.07975742
C       11.12798207       5.01292956       7.25525350      -1.44821911      -0.66712697       1.47690285
C       -2.40529893       7.14406355       7.42020767      -1.15942174      -0.03636980      -0.98854263
C        0.01345442       7.20733697       7.48354438      -0.26360287      -0.87835646      -0.26069829
C        2.44809760       7.06430480       7.66991466       1.32741480       2.39240018      -0.79727955
C        4.95104075       7.10223580       7.68084676      -1.16238597       0.03865422      -0.18480395
C        7.37313185       7.05529749       7.50017389       0.43926243       1.96786065       0.40010402
C        9.93288549       7.09856654       7.40904966      -4.66326251       0.96426293       0.55726707
C       -3.65382398       9.26740161       7.49053431      -2.96629123      -0.61404526      -1.61676597
C       -1.24576478       9.24084126       7.63437840      -0.42996507       1.88680560      -1.39170703
C        1.28839839       9.23946195       7.66584253      -1.66689195       0.26075280      -0.46290810
C        3.67982304       9.17706653       7.65276991       2.31573065       2.50624631       0.50126099
C        6.13593298       9.18049666       7.50419946      -0.91458407       1.61241078       0.33377136
C        8.62668222       9.15766142       7.42979208      -2.61635663       2.50298564      -0.59337796
C       -4.97495033      11.37073254       7.50848127       2.07154604      -0.32326274      -1.35616282
C       -2.46568415      11.39423901       7.56882234      -2.10822386      -0.68944671       0.18773218
C       -0.02260249      11.35848038       7.56205921       0.79798378       0.56263271       1.02952036
C        2.45938937      11.30219681       7.55680766       0.89903661       2.33842090       0.40969320
C        4.93106849      11.29276300       7.57179574      -0.16023243       0.74503833      -0.27219652
C        7.39529100      11.35185000       7.41876348      -2.18604961      -1.05413198      -0.74503396
72
Lattice="14.76 0.0 0.0 -7.38 12.782534959858314 0.0 0.0 0.0 15.0" Properties=species:S:1:pos:R:3:REF_forces:R:3 REF_energy=-11165.161015490621 config_type=fd_force_conv_snapshot_081 snapshot_index=81 split=validation degauss_Ry=0.0019000869 kgrid=8 lattice_temperature_K=450.0 trajectory_seed=0 pbc="T T T"
C        0.05054598       0.01036086       7.65828525      -0.43210268      -0.82112627      -0.52671954
C        2.57072040       0.05486791       7.47177532      -5.07635189      -2.15001174       1.45771239
C        4.90718307       0.01436575       7.54459463       1.20859435      -1.67570234       0.41843598
C        7.29920677      -0.08510692       7.36896116       3.77923497       1.23873976       0.80245107
C        9.82730389      -0.00363607       7.62929942       0.16704740      -1.38095879      -2.27643931
C       12.26686465      -0.01759407       7.66141562       2.08425989       1.56063982      -0.55278744
C       -1.22349539       2.11882767       7.79186485       0.25300864      -0.54158797      -0.50419693
C        1.22462071       2.13877423       7.60650299       1.26842238       0.05317864       0.59842709
C        3.70756652       2.16929363       7.52032850       0.56866348      -1.23783242       0.11797584
C        6.19363845       2.09307528       7.45401431      -1.32944468       0.86601182       0.05229881
C        8.55879529       2.12087605       7.57420842       2.57265739      -0.64000234      -1.79372781
C       11.01991920       2.15591992       7.72809964       3.57332200      -1.18762520      -0.61851538
C       -2.47677919       4.28327063       7.70771035       0.55981015      -1.97054720       0.63692345
C        0.01892034       4.26952671       7.61323179      -0.54022811      -0.54325713       0.15064093
C        2.51070540       4.21806359       7.32053496      -1.72273451       2.75557827       0.83843777
C        4.95192652       4.27276969       7.24939639      -0.43009414       0.33316406      -0.27638022
C        7.28639439       4.28813721       7.42468710       4.03823016      -1.15234890       0.14613276
C        9.79354887       4.27297284       7.71696395      -0.27875232      -2.07248450      -0.92382565
C       -3.72909281       6.34576141       7.86045679       1.55393464       1.57928032      -0.34094936
C       -1.23037679       6.40944816       7.62662534      -0.84277702      -1.08027908       0.55075267
C        1.23321558       6.36409095       7.40297322       1.61845879       1.17647047      -0.31616650
C        3.64371674       6.39469934       7.10486536       4.47402829      -0.28417092       0.23140468
C        6.13400330       6.48942454       7.22180784       1.10594254      -2.09913115       0.00114131
C        8.57331892       6.38255665       7.65203632       0.20040926      -0.05989076      -0.70458691
C       -4.90715045       8.48503138       7.65659525      -1.02280875       1.27015299      -0.11896854
C       -2.49339644       8.53126189       7.63797001       0.90009745      -1.38450846       0.03531719
C       -0.05479362       8.49120345       7.40364629       4.43297549      -1.59286217      -0.63344886
C        2.47350785       8.52783939       7.18919697       0.13118231       0.38741177       0.73607984
C        4.89629132       8.56428123       7.25499913       1.12132365       0.33750537      -0.66898382
C        7.39165713       8.54606743       7.35599405       0.23904343       2.04477186       0.07278433
C       -6.09246733      10.68198641       7.57715146      -1.95746388      -0.52544735      -0.77102087
C       -3.69364985      10.61505796       7.62945168       0.61901905       3.31640349      -0.29046781
C       -1.24069765      10.60520876       7.48418617       0.54168053       0.25042648       0.03895247
C        1.20465856      10.60037764       7.25602247       2.60335354       1.91513710       0.97011168
C        3.71828243      10.66617148       7.39118291      -1.68714915       0.52198125      -0.50803661
C        6.10321436      10.64006391       7.34828744       3.26625952       3.54974370       0.64335969
C        1.29823025       0.74443282       7.60437727      -0.67898104      -1.15482718      -0.30745174
C        3.72021602       0.71087834       7.54752873       1.62875760       3.53672003      -0.28083440
C        6.13737336       0.66434544       7.50291486       0.35484669       1.20475184      -0.60608049
C        8.59442919       0.64404759       7.39922191      -1.82740874       2.06352960       1.77820863
C       11.06142907       0.73548198       7.64623222      -0.96402356      -0.97783707       0.99630685
C       13.55806538       0.68364655       7.71991641      -0.94400906       0.57398413       0.19050769
C        0.01075223       2.82137794       7.69891985      -0.67148447       1.52938009      -0.17366619
C        2.46574842       2.85520017       7.56982001       0.90229986      -0.71578458      -1.23812295
C        4.96811060       2.84178787       7.43153126      -0.89718748       0.33927635      -0.31396435
C        7.37323367       2.86990133       7.45860041      -0.99867920      -1.61533618       0.16433052
C        9.85961901       2.84149177       7.55114111      -3.84299036       0.49546675       1.67736379
C       12.31817842       2.82802668       7.76705926      -1.54437682       1.39513071      -0.16363837
C       -1.22840028       4.98315709       7.64601354      -0.36224735      -0.16356664       0.25397974
C        1.25175461       4.98229029       7.47308894       0.60329059      -1.93517602      -0.54830035
C        3.70266425       4.97888464       7.13680117       0.10214890      -1.54176741       0.79255849
C        6.16864980       5.01931802       7.23245876      -2.88500452       1.39497670       0.21720525
C        8.54767222       4.92238719       7.57894647       0.31562502       3.01022316       0.67401547
C       11.01489944       4.93515634       7.80186330       1.33388009       1.39243825      -0.08263371
C       -2.47498312       7.12810421       7.77438175      -0.63398493      -1.71934476      -0.56374342
C        0.00634500       7.03470919       7.50592828      -0.24092342       2.92910588      -0.42548878
C        2.52475239       7.10331765       7.24127663      -5.07526302       0.68899831      -0.11810594
C        4.91210456       7.16043140       7.15380485      -1.06066696      -0.75711455      -0.11202605
C        7.38380945       7.16252660       7.38970575      -0.27540423      -1.87117021       0.24195623
C        9.83588165       7.08212669       7.78595947      -1.27714870      -0.77491070      -0.43471647
C       -3.70880936       9.23566214       7.62739932       0.21641361      -1.21124593       0.56196653
C       -1.22513863       9.15203697       7.45572663      -2.66713155       3.05959476       0.77524494
C        1.24594898       9.23020230       7.22512262      -2.22714124      -2.52834083       0.49927995
C        3.67752756       9.28217277       7.28544110       0.56632892      -1.78953254      -0.59833581
C        6.16079681       9.29460968       7.23517560      -0.96607633      -3.60754493       0.63867334
C        8.63458752       9.23608889       7.50511293       0.35014208       0.24983024       0.46876944
C       -4.87853361      11.41275216       7.58997111       0.36358201      -1.20399002      -0.27511909
C       -2.44401090      11.37631406       7.61101484      -0.67857120      -2.02828363      -0.70081510
C        0.00530138      11.29878404       7.41485436      -2.17354762      -0.09380233      -0.76763576
C        2.47730466      11.32677150       7.40558052      -1.27575851       1.44933625       0.34366702
C        4.91897365      11.39034073       7.41032059      -0.50743112      -0.62209152       0.77390437
C        7.38768923      11.35705884       7.52146487       0.37707413       0.24210150      -0.01137790
72
Lattice="14.76 0.0 0.0 -7.38 12.782534959858314 0.0 0.0 0.0 15.0" Properties=species:S:1:pos:R:3:REF_forces:R:3 REF_energy=-11165.558876535542 config_type=fd_force_conv_snapshot_087 snapshot_index=87 split=validation degauss_Ry=0.0019000869 kgrid=8 lattice_temperature_K=450.0 trajectory_seed=0 pbc="T T T"
C        0.01858634      -0.05487843       7.29021660      -0.55706447       2.60320981       0.01048676
C        2.46476209       0.00039879       7.36297848      -0.03157803       1.22754904       0.04341976
C        4.85439952       0.00231083       7.62078113       1.89172129       0.79889600       0.11711658
C        7.32975180      -0.03163245       7.72724663       0.68905565       0.62460298      -1.14844056
C        9.87549374      -0.00933898       7.50628319      -1.31544143      -0.06556570       0.55097250
C       12.33135228      -0.04615243       7.38172497      -0.38992965       1.10004674      -0.38072227
C       -1.21530785       2.11939176       7.25721649       0.35208738       0.88080209      -0.29032588
C        1.28363468       2.13212049       7.29986336      -2.21584021      -0.48789948       0.70401021
C        3.70712923       2.20451886       7.58419540      -0.35841075      -3.07352474       0.03778982
C        6.11130675       2.10705670       7.55625602       0.53544740       1.02187312       1.29291985
C        8.57153098       2.13827790       7.56423178       0.09461891      -0.86236060      -1.29035723
C       11.07063086       2.14613241       7.46317571      -0.55235009      -1.79017351      -1.78771065
C       -2.49837202       4.23948374       7.21833168       1.09455847       1.27257137      -0.11912229
C       -0.03242131       4.27623563       7.35085067       2.16383682      -0.32056129      -0.36769835
C        2.44725670       4.26957046       7.51458304       1.41154823       0.20854269       0.98731904
C        4.95724594       4.27480590       7.73032249      -0.15470456      -0.08904682       0.80154912
C        7.36944320       4.27119869       7.78354718       2.26966266      -0.31638556      -2.42380852
C        9.87681301       4.25494544       7.46361583      -3.78684569       0.20708333      -0.89288294
C       -3.72766017       6.37599013       7.33738333       3.11376379       1.56710615      -0.19659272
C       -1.21032773       6.38106983       7.33850324      -0.48352037       1.06913463       0.18702873
C        1.20581788       6.34775480       7.51303657       2.61415963       2.96055844       0.38324015
C        3.70583691       6.39817933       7.84448324      -1.02561434      -1.79318505      -1.02074081
C        6.10117079       6.41784854       7.78486619       3.66024560      -1.45202511      -0.31436081
C        8.60648039       6.39364589       7.47756328      -0.51622455       0.33786172       0.71855211
C       -4.88081098       8.51258468       7.31845812      -0.39820577       0.59241636       0.58196637
C       -2.39440412       8.54583475       7.31988828      -1.80851036       0.02641140       0.70390403
C        0.03135367       8.55342186       7.41613463      -0.03562598      -0.67373290       1.66416066
C        2.43647557       8.50665145       7.71431614       0.28118304      -0.78629477      -0.61439184
C        4.85630357       8.53571326       7.71371374       1.97410483      -1.00678049       0.29028603
C        7.37699124       8.52636129       7.61843642       0.10419833      -0.15939323      -0.81182505
C       -6.16078485      10.61589490       7.35836260       1.82632759       0.50950574       0.07944760
C       -3.67243766      10.66825966       7.46282401      -0.34846161       0.19820660       0.17635145
C       -1.24204336      10.68583118       7.50009420       0.62824083      -0.34672303       2.03085140
C        1.26018314      10.68964588       7.63751401      -1.67325543      -1.80606833      -0.15963054
C        3.67259255      10.67055978       7.55311169       0.13883289      -2.59702708       0.15461380
C        6.12349032      10.64101745       7.47805050       1.48565206      -0.81978107      -1.01359649
C        1.21259964       0.69565197       7.32216483       1.57911834       0.34626049      -0.44071922
C        3.71033727       0.73954209       7.44798547      -2.63930810       0.86453961       0.77095634
C        6.07660617       0.67897529       7.61976687       2.33804577       1.24658086       0.29590286
C        8.58761476       0.65272830       7.58699762       0.30823799       2.44825277       0.31460687
C       11.12175118       0.67536342       7.46895712      -1.39911875       1.59316659      -0.11725002
C       13.54473105       0.71241117       7.28091856       0.28728453      -1.78003025       0.29465099
C        0.04670819       2.86663951       7.29901055      -1.52347195      -1.29129877      -0.36744818
C        2.47011710       2.83744562       7.49824672       0.17725751       1.53296575      -0.59686746
C        4.91839923       2.86260992       7.78151550       0.66322506      -0.17173658      -2.05293511
C        7.33315709       2.88211178       7.53182258       0.63447267      -2.73059563       1.53366355
C        9.80598187       2.84789655       7.36962115       1.09474384      -1.21684425       2.08905011
C       12.27542938       2.82778475       7.20598146       0.97282496       0.13678629       1.38294934
C       -1.23812032       4.96830759       7.24545689      -1.25204162      -0.32368878       0.46453458
C        1.23275815       4.99960215       7.45469378      -1.13959854      -3.17122744      -0.13467001
C        3.71931215       4.96337788       7.73768136      -1.17303908       0.26361238      -0.42187252
C        6.21124048       4.97049755       7.73732499      -3.99061667       2.01769609       0.93073806
C        8.60164407       4.97333751       7.54048273       1.10678432       0.06441565       0.86675359
C       11.03402663       4.97418264       7.32130202       2.12082561      -0.45539328      -0.03261881
C       -2.42968606       7.13589991       7.32411985      -0.84831852      -1.85332418      -0.28419535
C        0.02794769       7.08838614       7.48875375      -1.42676685       1.28563720      -1.21749885
C        2.48356716       7.05123734       7.63697721      -1.68521003       1.72523079       0.93518684
C        4.91411224       7.08736218       7.86064468      -1.19921574       2.49161776      -0.41619861
C        7.35485833       7.12073221       7.65228814       0.49571126      -0.80399090      -0.14292248
C        9.86885613       7.11061594       7.37838349      -2.00585333      -0.77966544      -0.21360699
C       -3.66522228       9.24277678       7.32450427       0.84900423       0.34054930       0.25755023
C       -1.19673872       9.27669202       7.48030626      -0.20254996      -1.03235346      -1.53244948
C        1.25386861       9.26122429       7.59806315      -0.83186886      -0.63584564      -0.21956732
C        3.63602252       9.23084313       7.71378418       1.18761903       0.66992124      -0.35901933
C        6.12153415       9.21744971       7.56120019      -0.09190820       0.63087750       0.86928818
C        8.64035631       9.19378739       7.43962060      -1.04949243       0.91572307      -0.11685895
C       -4.92399721      11.38315574       7.36734795       0.50104296      -1.73476958       0.20965341
C       -2.44949493      11.41133763       7.69361133      -1.77792632      -2.90202574      -2.19713826
C       -0.01269754      11.33835880       7.66917761       0.69145551       1.12544770      -0.40635720
C        2.47288034      11.34827348       7.56184872      -0.04989740       2.16951099       0.09580753
C        4.89678444      11.31033769       7.39439859       1.08577712       1.65585034       0.78129577
C        7.41129163      11.34347270       7.34287900      -2.48489099      -1.40170374       0.49382741
72
Lattice="14.76 0.0 0.0 -7.38 12.782534959858314 0.0 0.0 0.0 15.0" Properties=species:S:1:pos:R:3:REF_forces:R:3 REF_energy=-11165.957692836095 config_type=fd_force_conv_snapshot_093 snapshot_index=93 split=validation degauss_Ry=0.0019000869 kgrid=8 lattice_temperature_K=450.0 trajectory_seed=0 pbc="T T T"
C        0.02017850       0.03937658       7.56391452      -3.66526542      -1.35314331      -0.41067974
C        2.40163391      -0.01175772       7.47707309       2.27677973       0.83902732       0.93803125
C        4.93301010      -0.02053530       7.39480376      -2.38910788      -0.72406662       0.47861960
C        7.31938026      -0.03932314       7.43993972       1.65316431      -0.22561456      -0.78462895
C        9.84603787       0.00907552       7.48080584      -0.32184787      -0.41767545      -0.39166746
C       12.24320970       0.05179216       7.58400337       0.90796503      -1.03592086      -0.85181059
C       -1.21723537       2.12860651       7.62960611      -1.10157989       2.57014234      -0.12780877
C        1.23505269       2.13475941       7.57670552       0.02354488       0.98001377      -0.34100670
C        3.73514688       2.09149364       7.44769408      -2.91041293      -0.16394459      -0.16078831
C        6.12669875       2.07343215       7.33028642       2.31979685       1.81732616       0.04053318
C        8.65463529       2.11973200       7.47160920      -1.79870649      -0.45028501       0.37784109
C       11.10498704       2.17964609       7.70544495      -0.84623644       0.22420071      -1.19409976
C       -2.41891464       4.34458529       7.71908510      -0.22389732      -2.41185880      -0.53271561
C       -0.00120182       4.28830399       7.61498082       2.13890098      -1.71073003      -0.21944134
C        2.50833568       4.26652787       7.42437334      -1.72619701      -1.09645594       0.15488094
C        4.91910606       4.20157330       7.42932586       1.56603014       1.97978209      -0.33769460
C        7.37490143       4.27872440       7.51051606       1.26707281      -1.77913371       0.05249318
C        9.86243937       4.25152300       7.63967563      -0.34657057       1.34298874      -0.23378424
C       -3.72217738       6.39648746       7.75211369       3.69071317       0.60164688      -0.43933905
C       -1.22395942       6.42429214       7.66721104       1.59517411       0.68320099       0.33924369
C        1.26397635       6.35307264       7.42559584      -0.94533344       0.96205590       0.56882778
C        3.68861234       6.36359053       7.26718200      -0.16488665       0.12893131       1.35493280
C        6.12008423       6.36938867       7.38327561       1.77080154       0.95942257       0.39417943
C        8.64518334       6.36881027       7.57423171      -1.94417514       0.91774293      -0.05448142
C       -4.92330164       8.53375430       7.64545077       1.07668544      -0.91208239       0.49790493
C       -2.44947563       8.56684858       7.57849442       0.40365188      -2.19724008       0.67215270
C        0.02760985       8.54839360       7.39790845      -0.93523800      -2.87041685       1.05734278
C        2.46241831       8.54649786       7.27179897       1.17237625      -2.75414488       1.27812675
C        4.88329358       8.49703102       7.27512541       2.27103845       0.26220110       0.50618851
C        7.37637213       8.52554928       7.52096038      -0.22991242       0.36689719       0.34794045
C       -6.16213869      10.65993413       7.53552548      -0.39691765      -0.26035762       0.56011045
C       -3.69948143      10.69806343       7.52555335       0.24901803      -1.68874581       0.30963538
C       -1.25509789      10.62047973       7.34798805       0.08746276       0.66299983       0.88617261
C        1.18535384      10.59634562       7.36527227       1.80707389       2.66962141       0.76060353
C        3.65818788      10.63610461       7.40403145       1.13769284       1.28694100      -0.50013356
C        6.08012166      10.66025960       7.50929903       2.75994477       0.55316950      -0.66764093
C        1.21428639       0.72361310       7.56876040       0.41607545       0.28069530      -0.34245937
C        3.68778022       0.64372031       7.53183160      -0.46374114       2.12717572      -1.36825626
C        6.09615532       0.68817592       7.31847783       2.63441786      -0.29171942       0.63787604
C        8.59469857       0.62856872       7.42668521      -0.51324336       3.13253927       0.57933896
C       11.06312053       0.80061291       7.55979656      -0.94143822      -2.92027465       0.47930788
C       13.44474943       0.77607912       7.57264743       3.71964143      -3.35074340       0.43357438
C        0.01790492       2.83865243       7.62342733      -0.74923797       0.81196338      -0.01911718
C        2.44288338       2.85889381       7.44632574       2.75043606      -1.74839592       0.62750729
C        4.94391400       2.79499134       7.32942414      -1.19992793       0.38480827       0.89176862
C        7.37906588       2.82561877       7.43686456       0.66847654      -0.39804354      -0.09998609
C        9.87786552       2.86773857       7.63572961      -1.30940910      -1.31131249      -0.27645581
C       12.30835096       2.86347913       7.62053919       1.63189563       2.28933211       1.26773872
C       -1.15958009       5.03331826       7.73769060      -2.88228815      -1.09157085      -0.49921285
C        1.25767888       4.93131863       7.45266685      -0.10383246       1.31827504       0.42359619
C        3.72377862       4.95940824       7.44144270      -0.08970887      -0.62297290      -1.04324413
C        6.17502795       4.97078219       7.46268476      -2.29994897      -0.99242397      -0.40918464
C        8.62311106       4.96596198       7.59794288       0.07872666      -0.57967346      -0.29031226
C       11.08378003       4.99770602       7.64264151       0.28259123      -0.39811398       1.19000399
C       -2.41846266       7.14225154       7.77632385      -2.54339644      -0.36967707      -1.09052338
C        0.02879153       7.08533885       7.51770727       0.01821755       1.59995636      -0.49820960
C        2.47347144       7.09156291       7.39592941      -0.07589614       0.45609287      -1.64987716
C        4.89308658       7.05682211       7.27447560       0.82589104       1.52584868      -0.09382290
C        7.38258602       7.10469213       7.49524469      -0.21130457      -0.71577018      -0.21631282
C        9.85873245       7.06991148       7.62887791      -1.41590625       2.64635112       0.49357724
C       -3.66459552       9.24017209       7.63665098      -1.94475029       1.61437151      -0.65015588
C       -1.23070078       9.23446276       7.41860665       0.82613376      -0.38299924      -0.07248300
C        1.26226272       9.20015028       7.43941366      -1.47272095       1.34793271      -1.54771463
C        3.70406843       9.22914430       7.28716205      -1.47697947       0.11912384      -0.05555254
C        6.12534025       9.25537955       7.43179744      -0.39020244      -1.90502263      -0.15467140
C        8.61838258       9.23750717       7.67946268      -0.77712570      -0.03221721      -1.43105494
C       -4.94846066      11.38660106       7.53099213       0.16634832      -1.15585794      -0.33928097
C       -2.45043575      11.36115990       7.43757053      -0.90071477      -0.57530130      -0.32405567
C       -0.04032017      11.30928696       7.44229836       0.53965373       0.87602113      -0.92946948
C        2.44046018      11.36870497       7.37417147      -0.31906465      -1.06242765       0.54093054
C        4.89906069      11.37636780       7.45903731      -2.03432624       0.88958498       0.62683726
C        7.36917801      11.37052418       7.48183785      -0.67194393       0.72795078       0.88131451
72
Lattice="14.76 0.0 0.0 -7.38 12.782534959858314 0.0 0.0 0.0 15.0" Properties=species:S:1:pos:R:3:REF_forces:R:3 REF_energy=-11164.783557813436 config_type=fd_force_conv_snapshot_099 snapshot_index=99 split=validation degauss_Ry=0.0019000869 kgrid=8 lattice_temperature_K=450.0 trajectory_seed=0 pbc="T T T"
C       -0.00439881      -0.00027786       7.40269054      -0.19542184       0.28404056      -0.10035890
C        2.49125589       0.03025644       7.59830443      -0.93124020      -0.83434020      -0.41667915
C        4.93731321      -0.03705472       7.59655213      -0.18810731       1.56232775       0.86054540
C        7.38359964      -0.02572690       7.51274825       0.63490719       0.27585572       0.41877126
C        9.82656964      -0.00789343       7.50678153       1.57217199      -0.05844092      -0.36321177
C       12.31128064       0.02837171       7.35089034      -0.19286796      -1.44921824      -0.05802568
C       -1.22585465       2.13079191       7.38826940       2.32075845      -0.65227807      -0.84076745
C        1.22070166       2.13926198       7.41584465       1.92782189      -2.81660109      -0.14938418
C        3.72953113       2.14949124       7.49370457      -0.63467116      -0.61420569       1.45230999
C        6.16244437       2.16152424       7.58864425      -0.00860651      -2.29613473      -0.92881436
C        8.64233774       2.13674997       7.47676223      -0.14503876      -1.72109928      -0.40426843
C       11.11324804       2.12638696       7.27844105      -1.55014869      -1.30484822       0.90796940
C       -2.47022263       4.22894329       7.42893913      -0.07018469       0.35621914       0.06080453
C       -0.03686920       4.23710829       7.31653516       1.55705930       0.97883929       0.85433747
C        2.42642103       4.23859543       7.52398493      -0.02203821       0.71398326       0.54069940
C        4.89804753       4.27573961       7.67251791       0.04956110       1.82705239      -0.27119842
C        7.38167778       4.26381673       7.45068864       0.59470207       0.61511149       0.20468089
C        9.88843130       4.22773422       7.43569229      -2.94558511       1.39909767      -0.33245109
C       -3.75046668       6.32686193       7.45038531       1.81488002       3.34283109       0.60349653
C       -1.27641697       6.41429674       7.42035451      -1.32523810      -1.41206760       0.54174121
C        1.16646818       6.41954611       7.46969681       1.11677923      -0.59163346       1.13836081
C        3.67925938       6.40417900       7.70522378      -1.92281878      -0.03831561       0.02067475
C        6.13927733       6.40048413       7.70029881       0.03268695       1.74297629      -0.89471973
C        8.64603670       6.46863713       7.40511314      -3.86205200      -5.15803378      -0.27299382
C       -4.85295667       8.52002533       7.47837099      -2.70154551       1.31728079       0.09133407
C       -2.50686727       8.49114916       7.48450097       1.38692221       1.72431882       0.17142907
C       -0.05801850       8.49700618       7.50851470       1.11600430       0.83215245      -0.12456506
C        2.49774253       8.49302084       7.62174486      -1.65231533       1.45636796       0.48865487
C        4.93113660       8.56290435       7.58544364       0.73439448      -0.03990506       0.88752193
C        7.42141979       8.48303901       7.35565644      -1.02495511       3.41152222       1.37379313
C       -6.17095363      10.71319456       7.38924659       2.42694989      -1.84093172       1.22644860
C       -3.64933629      10.68713766       7.40914463      -1.39186515      -1.08749950       2.45556087
C       -1.22390870      10.66345517       7.54390415       0.89985448      -2.04891519      -0.62614564
C        1.20177034      10.60430129       7.60974686       2.94798832      -0.64732639       0.34205519
C        3.65578680      10.60731575       7.61666491       1.88090697       4.76904052      -0.23435271
C        6.14351386      10.71259790       7.55294639       1.14261161      -2.58798708      -0.57288472
C        1.20061989       0.65820443       7.37336469       3.08425344       3.16754253       1.48071605
C        3.74946029       0.73194424       7.69754571      -1.65477742      -0.25048381      -1.83162304
C        6.13935403       0.65012851       7.57183614       1.35492843       3.19950391      -0.06149719
C        8.61935300       0.68010068       7.49452285      -0.85015043       1.63633053      -0.00775650
C       11.07140567       0.70187389       7.27627397      -0.03320837       0.28282958       1.08536240
C       13.55489871       0.74776240       7.35461649      -1.35361459      -1.98994103       0.18010321
C        0.03687475       2.80505807       7.33193507      -2.56496105       2.49125730       0.39760568
C        2.47151986       2.81734389       7.54162209      -0.59591615       0.34567608      -1.10180255
C        4.92953939       2.89552666       7.51759099       0.78249211      -1.46522567       0.75903645
C        7.41613337       2.81568986       7.46941966      -1.24436636       1.56698685       0.62340201
C        9.86716823       2.82470882       7.43487068       0.79733071       0.04433507      -0.62293639
C       12.33930176       2.78486912       7.37111127      -1.81148230       2.95203806      -0.23169265
C       -1.28059624       4.95501531       7.38716126       1.38069731       0.56514082      -0.19387635
C        1.22374606       4.98383996       7.45630729      -2.28505791      -0.57404532      -0.75620592
C        3.60832736       4.97257360       7.68264929       3.33768220       0.33563001      -0.18854388
C        6.16184778       5.01579808       7.67404602      -1.07789746      -2.36924791      -0.53248729
C        8.61832810       4.97530783       7.32873498       0.82086017       0.22646174       1.39748893
C       11.06406530       4.98071104       7.49611509       0.71434862      -3.58429316      -0.75528161
C       -2.53692415       7.10319853       7.48193317       0.98636696      -1.87342069      -0.45536551
C       -0.07618396       7.12502660       7.52053696       0.80710296      -2.21976243      -1.01553433
C        2.41093580       7.12119561       7.63700597       1.50622551      -2.03100926      -0.51851566
C        4.88317257       7.15700860       7.72078428       1.47952872      -1.90672882      -0.47454594
C        7.37499084       7.09391119       7.45410495       0.29993281       0.41107132       0.33001317
C        9.82455336       7.07203668       7.47574311       2.43097984       3.13083849      -0.34746479
C       -3.66835621       9.26661404       7.56269581      -0.40725246      -0.55339190      -1.56333537
C       -1.26680745       9.20621238       7.42389686       0.05729961       1.35429825       1.16137527
C        1.21897598       9.11538216       7.57874769       0.11880785       4.17070522       0.11276884
C        3.72058183       9.27339036       7.66987670      -1.53783594      -3.53245149      -0.46287416
C        6.18012029       9.25100954       7.54414512       0.21292925      -0.01504841      -0.71830966
C        8.65213838       9.28284791       7.38738490      -0.29320063      -2.42751656      -0.22703329
C       -4.90703742      11.37297912       7.55660928       0.58187278       1.14751162      -1.40525520
C       -2.42153368      11.35829568       7.58649533      -1.09136979      -0.22718962      -1.04401264
C        0.04775699      11.34041738       7.54070452      -2.66482116      -0.13108641       0.17381352
C        2.47020669      11.38284575       7.69548143      -1.76245934      -2.45170010      -1.34334792
C        4.91699665      11.35519099       7.45837235      -0.91556675       1.24879663       0.79208284
C        7.39606507      11.39412847       7.50080908      -2.00196197      -0.08364724      -0.68483827
72
Lattice="14.76 0.0 0.0 -7.38 12.782534959858314 0.0 0.0 0.0 15.0" Properties=species:S:1:pos:R:3:REF_forces:R:3 REF_energy=-11165.247045097054 config_type=fd_force_conv_snapshot_105 snapshot_index=105 split=validation degauss_Ry=0.0019000869 kgrid=8 lattice_temperature_K=450.0 trajectory_seed=0 pbc="T T T"
C       -0.05942639       0.01456584       7.62309192       1.47395636      -0.48815839      -0.21084203
C        2.34767430      -0.04565794       7.54916564       4.30305481       0.01713923       0.53929300
C        4.86867143      -0.02046340       7.48771535       1.44372508       0.24094913       0.03166134
C        7.33380384      -0.05415484       7.60837195       1.42165267       2.72802736      -0.20789786
C        9.85504784       0.01642063       7.53077943      -1.43612232       0.76307976      -0.27185199
C       12.33679820       0.07298551       7.47864967      -2.09577741      -1.79463926      -0.04919883
C       -1.21340144       2.15699314       7.54444589       1.10811538       1.53709597      -0.31953542
C        1.24961820       2.09343006       7.47093440      -0.35615178       2.23605859       0.48838542
C        3.65305214       2.03568620       7.44344610       1.31181951       1.54288507       0.64145553
C        6.15167811       2.13255864       7.52490672      -0.04170921      -1.64985042       0.01394592
C        8.62818133       2.08969887       7.73265764       0.11914852       2.19620958      -1.53366149
C       11.13540776       2.13025848       7.59189569      -0.83928006       2.63630017      -1.01088423
C       -2.43572831       4.29460784       7.58304361      -1.59422588       0.06764495      -0.61894809
C       -0.02247239       4.28694307       7.55514625       1.46510277       1.15369667      -0.91547059
C        2.46950826       4.27431594       7.50157634      -1.31326962      -0.87042461      -0.46796032
C        4.90124602       4.16095041       7.42341566       0.33608406       3.63240364       0.34330192
C        7.40309687       4.24030907       7.48468269      -0.49754909      -0.14763069       0.31872526
C        9.86640389       4.22920691       7.58271258      -0.53847102       1.64346894       0.08371589
C       -3.66975488       6.36408332       7.53116109      -1.82748742       0.81088017       0.28442160
C       -1.25620482       6.41880204       7.50815816       1.44227832       0.88235453      -0.08009835
C        1.25277477       6.45822101       7.38476261      -1.81637845      -0.28774630       0.40780447
C        3.68921118       6.42705992       7.43037944      -0.69507563      -1.34985410      -0.66488342
C        6.15138552       6.38052032       7.46981788      -0.33482911      -0.42416954      -0.37512189
C        8.59995297       6.38585477       7.41310236       1.33144217      -2.01164988       1.35049610
C       -4.86634230       8.51922861       7.51071616      -2.15985650      -1.30679044      -0.57807835
C       -2.45767755       8.52321016       7.49727322       0.36667788      -1.58440890       0.64299099
C        0.07687152       8.54243371       7.46424015      -4.16458343      -0.52827814       1.10495215
C        2.47711819       8.61530333       7.30521930      -2.05438702      -2.36885453      -0.08262549
C        4.94623906       8.59369469       7.37867868      -1.96883536      -4.69108262      -0.24306746
C        7.35361847       8.49366408       7.43529691       2.61607201       0.08979732       0.13368759
C       -6.16844493      10.62736267       7.57861171       1.29271853       0.42702347      -0.49691711
C       -3.67588445      10.60611836       7.55763241      -0.55121212       2.58471587      -0.38207184
C       -1.27815056      10.58895322       7.48498077       1.56410104       1.47252323       1.22156814
C        1.21395484      10.70175301       7.56591709       0.28740974      -0.87907560      -0.88568822
C        3.75161817      10.64428256       7.43682365      -3.35229223       2.53212164      -1.10535684
C        6.10805327      10.63049590       7.38774951       2.98975666       1.90702090       1.33040628
C        1.18813080       0.70257208       7.57916354      -1.24293400      -0.67521386      -0.25119344
C        3.62460588       0.64005027       7.54365754      -0.21888521       0.32531783      -0.84480793
C        6.17124514       0.69553270       7.49171102      -3.26326059       0.14159219       0.61256096
C        8.55888514       0.71135831       7.65049276       2.44697210      -1.87533848      -0.00584797
C       11.09086442       0.75503912       7.46191454      -0.00984090      -1.52248928       0.90297323
C       13.51600117       0.76732892       7.57248445       0.83287390      -0.86046570      -0.21808637
C        0.03011881       2.86275943       7.51422750      -0.16192088      -0.40405503       0.28821552
C        2.49943472       2.79922187       7.44474460      -2.65063175       1.17824479       0.23448075
C        4.87156049       2.78293143       7.48439826       1.60384053      -1.19602551      -0.47475086
C        7.39931076       2.80510542       7.59733166      -0.34161682       1.23706289       0.06535950
C        9.90012252       2.86188372       7.58429121      -1.16220239      -3.46068737       1.21948297
C       12.36302572       2.90037400       7.50342777      -1.46906407      -1.82806463       1.07206723
C       -1.25558634       5.01516300       7.49081958       1.47689462      -0.53523554       0.89350771
C        1.21622666       5.05848419       7.49146997       0.84205403      -2.96065717       0.04176783
C        3.69080917       4.93155741       7.47760615       0.32051475       1.93568355      -0.36265462
C        6.14226032       4.96072025       7.40706716       0.24715218      -1.68514009       0.55191506
C        8.64099409       4.93001130       7.53100537      -1.31495703       1.20582681      -0.69777709
C       11.05518336       4.97116625       7.60907697       2.06553223      -0.47388388      -0.51757387
C       -2.47211795       7.11289582       7.51322858      -0.25555557      -0.56823051      -0.05737597
C       -0.00569433       7.15093735       7.48037349       1.03218479      -1.37410320      -0.70066392
C        2.44430556       7.17939232       7.28864181       1.88680483      -0.50200172       0.86792961
C        4.91169223       7.09693800       7.42368274       0.96887832       1.92568145       0.06577653
C        7.40666530       7.08095681       7.48078144      -2.37828791       0.36999229      -0.65997878
C        9.82215791       7.05265301       7.51544982       2.00582582       2.35086426      -0.57669047
C       -3.64421167       9.23955703       7.50515066      -1.69920814      -1.60075057       0.31058283
C       -1.23686283       9.15402762       7.61606969       1.66353126       3.32376944      -1.84647476
C        1.21970199       9.28868951       7.43757774       2.42548436       0.50996983      -0.08331171
C        3.69110340       9.24145494       7.29208873       2.46055524       2.21500666       0.99580857
C        6.15921240       9.21661812       7.42088731      -0.34178780       1.50231486      -0.41679331
C        8.61690772       9.20451505       7.42814330      -0.11403202       0.27459896       1.08676211
C       -4.87472143      11.34370932       7.60335753      -4.13845948      -1.45839939      -0.14502616
C       -2.50089536      11.35507044       7.46954186       1.94824622      -1.23513559       0.42672805
C       -0.00839220      11.36313133       7.59627858      -2.35440030      -2.30533286      -0.52487374
C        2.42399423      11.39919135       7.42113401       3.13817436      -0.87263884       1.22015120
C        4.94157140      11.41523655       7.43973426      -0.54443624      -1.17679469      -0.25051235
C        7.36489270      11.36518841       7.57582975      -0.93965850      -0.64406366      -0.65832865
72
Lattice="14.76 0.0 0.0 -7.38 12.782534959858314 0.0 0.0 0.0 15.0" Properties=species:S:1:pos:R:3:REF_forces:R:3 REF_energy=-11165.319485066271 config_type=fd_force_conv_snapshot_111 snapshot_index=111 split=validation degauss_Ry=0.0019000869 kgrid=8 lattice_temperature_K=450.0 trajectory_seed=0 pbc="T T T"
C       -0.03920572       0.00784365       7.45300729       0.79647222       0.14022385      -0.91218164
C        2.47718363       0.04218616       7.43502171      -2.23475427      -2.31240442       0.30665110
C        4.88851145      -0.05403249       7.34804058       1.71594294       3.71053252       0.71006310
C        7.39428185      -0.07346374       7.46656374      -1.23103982       2.39568142      -0.14787211
C        9.78476911      -0.05736604       7.45638098       2.08585449       1.12336922      -0.02253958
C       12.32618081      -0.02856285       7.55625644      -1.73511874      -0.00209879      -1.88300602
C       -1.30331758       2.14750791       7.37751275       2.20088230      -1.53391603      -0.28497208
C        1.19453445       2.14107745       7.33213145      -0.41780426      -0.80830984       0.32664040
C        3.68332005       2.10241757       7.53953174       0.34698914       0.34562311      -1.38540346
C        6.16884770       2.18842528       7.46024118      -1.64971852      -3.24523304       0.43576728
C        8.60428026       2.11375722       7.51427029       1.21339537       1.74496452      -0.13901646
C       11.09542357       2.11724812       7.51476495      -2.54996509      -1.21751145      -0.49973015
C       -2.48918432       4.25505673       7.49551858       0.53143520      -0.73605593      -0.71058529
C       -0.00786474       4.28379979       7.48299146       1.30180250      -1.57962613      -0.18267482
C        2.47842624       4.23555200       7.53209586       0.18030812      -1.06449173      -0.29435866
C        4.95134841       4.26354713       7.54045193      -2.90229519       1.08617024       0.77189531
C        7.38521723       4.26773241       7.47185867       0.29956360       2.48111686      -0.46700181
C        9.78933608       4.25076085       7.53292047       2.20218688       1.76642166      -0.85315965
C       -3.72514479       6.37619020       7.47537587       0.83944873       1.17994506      -0.04936415
C       -1.26979465       6.32810891       7.41865366       2.50158362       1.54733333      -0.16944110
C        1.27357325       6.37842816       7.42135441      -0.86795660       1.51229100       0.80479154
C        3.69173375       6.42511876       7.65527488      -0.74236773      -1.59078086       0.21792670
C        6.11078888       6.39567526       7.60725145       2.17467942       2.12636171       0.01294165
C        8.65586985       6.47264770       7.62575290      -1.96295936      -0.64752745      -0.71343022
C       -4.85667560       8.61671995       7.63199068      -1.89983441      -0.36356684       0.95328123
C       -2.37951125       8.47768162       7.50082727      -1.98838011       0.26395099      -0.63985810
C        0.02842446       8.49790728       7.48114106      -0.42547798      -0.90829953      -1.09326083
C        2.49206486       8.53739338       7.54595946      -0.86490342       0.05559111      -0.46777931
C        4.91634236       8.53886755       7.68783040       0.37650695       0.19246995      -0.81227345
C        7.40771930       8.56470865       7.68049749      -1.47841234       0.21842267      -0.55028730
C       -6.15808101      10.71224017       7.64214385      -0.13541923       0.74650078      -1.00615983
C       -3.65108396      10.65220697       7.46506150      -2.73133817       0.12123214       0.58224662
C       -1.26594752      10.58183023       7.37424184       1.86239117       3.14103626       0.44880380
C        1.24449300      10.59629150       7.47357710      -1.62151249      -1.08091799       0.20466650
C        3.69427576      10.63919388       7.52557339       0.58874071       1.39640855       0.51902422
C        6.16107964      10.63716045       7.50629009      -0.77411211       0.78993699      -0.37920892
C        1.20666614       0.72014833       7.43875177       0.09586384       0.11633470      -0.51716506
C        3.67809541       0.69871255       7.41004019       1.55563748       0.27485736       0.25464231
C        6.15881042       0.69929760       7.45557898      -0.46528123      -0.45196677      -0.57901397
C        8.59668674       0.72967372       7.43131550      -0.09931015      -2.90644495       0.66432549
C       11.05780686       0.64858207       7.42032384      -0.24858634       0.94246100       1.45890513
C       13.50087438       0.70829582       7.35171931       0.18879790       0.71976825       1.43491236
C       -0.08521637       2.84706702       7.38220721       2.72115146       0.81116968       0.00848901
C        2.47225420       2.77325214       7.33772527      -1.16441431       2.69110657       1.88597719
C        4.89318587       2.85392720       7.55614643       1.85409191      -0.19622942      -0.57393450
C        7.39152587       2.85466850       7.46614137       0.30007422       0.47029462       0.17367468
C        9.86939918       2.87158448       7.58784804      -1.94291298      -2.94273041      -0.73107956
C       12.27078788       2.82655572       7.43598429      -0.27019312       1.40322583       0.58720268
C       -1.23510278       4.93189728       7.49170539      -0.80896547       0.90191162      -0.29768515
C        1.30411864       4.97492220       7.52660004      -3.41415760      -0.57834420      -0.80616991
C        3.64790034       4.97567166       7.68335507       3.20690972       0.10412248      -1.29211561
C        6.14355641       5.02109749       7.47606251       0.59769921      -2.69984858       0.58768193
C        8.61818124       5.04202673       7.43902304      -0.73973749      -1.36140761       1.49611979
C       11.05422885       4.94996511       7.41626729      -1.26099266       0.81537934       1.29810911
C       -2.46016059       7.03873727       7.39840061      -0.81186413       1.50816875       0.93509325
C       -0.00817408       7.09918328       7.39342296       0.39071409      -2.45069172       0.56673002
C        2.49239060       7.14258631       7.52360114      -0.72145360      -1.28886522       0.21892146
C        4.90397054       7.11482840       7.69654652       0.55822789       0.39977337      -0.13907174
C        7.38272853       7.14276998       7.63823873       0.07284527      -0.33127970       0.24579566
C        9.85983250       7.21049755       7.64313376       0.54159131      -2.26881419      -0.77795462
C       -3.61575661       9.25386437       7.57996432       0.55716448      -0.83901884      -0.57557975
C       -1.17096622       9.21113881       7.42081043      -2.09617387      -1.26545352       0.44626895
C        1.22426852       9.17358946       7.44108323       2.24301343       1.48721297       0.73141431
C        3.70807564       9.27060837       7.60842957      -0.43558730      -2.09673180      -0.04948397
C        6.12869684       9.26028667       7.54270848       1.70640980      -2.21228566       1.38222892
C        8.60621949       9.33463544       7.71853322       1.57762556      -2.64764567      -0.52893403
C       -4.90181824      11.37389893       7.54910906      -0.05899319       0.86536056      -0.49531942
C       -2.50251505      11.36558572       7.33634946       3.19029242      -1.97494250       0.16721606
C        0.01354759      11.29003282       7.48768750      -1.45499576       0.52922970      -0.91696877
C        2.42965207      11.28944658       7.51874599       1.37910143       2.17874408      -0.52261143
C        4.95536629      11.33496288       7.54119303      -1.80569578       0.80010751      -0.02234032
C        7.33866805      11.37526247       7.42688906       2.05729031       0.49862792       1.65058447
72
Lattice="14.76 0.0 0.0 -7.38 12.782534959858314 0.0 0.0 0.0 15.0" Properties=species:S:1:pos:R:3:REF_forces:R:3 REF_energy=-11165.3232757481 config_type=fd_force_conv_snapshot_117 snapshot_index=117 split=validation degauss_Ry=0.0019000869 kgrid=8 lattice_temperature_K=450.0 trajectory_seed=0 pbc="T T T"
C        0.01342284      -0.04101902       7.68727052      -0.96889374       0.64596884      -0.47394533
C        2.48083332      -0.01406132       7.55392383      -1.66354257      -0.64495197       0.15295981
C        4.93554257       0.02079314       7.38128615      -0.98496185      -1.27393714       0.90159229
C        7.30724508      -0.02065746       7.43095882       2.21728183       2.01555025      -1.01721660
C        9.90790423       0.00791755       7.36170249      -3.55493527      -1.03543055      -0.43478820
C       12.28427369      -0.03871546       7.57575240       1.94439599       3.74030538      -0.96253283
C       -1.15890606       2.17558403       7.65382375      -3.53303127      -2.00566410      -1.11129378
C        1.28613230       2.12075531       7.65874133      -0.75895700       0.64089734      -0.33878912
C        3.69076925       2.10460470       7.49957622       1.10309247       0.96067933       0.78602917
C        6.14069488       2.19826470       7.58068297       1.97139078      -2.23028621      -1.34480934
C        8.60352195       2.12222604       7.31779849       0.49663943      -0.79880601       0.96347052
C       11.06074565       2.07566540       7.45566970       0.11162522       3.74846966       0.57803978
C       -2.45873294       4.26639836       7.53778144      -1.51013847      -0.81429485      -0.67650404
C       -0.00709020       4.28023564       7.51660619      -0.50439953       0.85758297      -1.03153764
C        2.40512224       4.31158371       7.46361100       1.49479490      -1.52414018       0.81117996
C        4.90445271       4.22238186       7.57425461      -0.11364482       2.72906325       0.33225903
C        7.40007678       4.28351316       7.49766063       0.68188433      -1.24722132       0.46852776
C        9.80806640       4.22557593       7.43052874       3.61235906       1.21838820       0.80762310
C       -3.67726075       6.36257155       7.54603295      -0.81054876       2.35779904      -0.82289596
C       -1.25315206       6.39106304       7.36708146       1.29650577       1.24130212      -0.11452156
C        1.28268443       6.46035517       7.28140958      -4.01818327      -0.65284397       0.34661762
C        3.62921701       6.38145001       7.41739759       1.37371805       0.73137138       0.74607217
C        6.06777060       6.37821245       7.48971031       1.57512542      -1.70443571       0.78875660
C        8.58273250       6.33372502       7.56165078       1.32636604       2.91962365      -0.73030797
C       -4.90327988       8.52511427       7.61871411      -2.74751889      -0.82431727      -0.82769699
C       -2.49198705       8.52990177       7.56636582       1.34470829       0.16520983      -0.68382962
C        0.00681367       8.54733669       7.38730314       0.70099456      -0.24749490       0.65899842
C        2.50642467       8.59669102       7.43846463      -1.45740000      -2.10178556       0.01501241
C        4.97837888       8.51625166       7.55916754      -3.63354984      -1.58170076      -0.50516701
C        7.35795801       8.52056192       7.61086732       0.62911989      -3.13787946      -1.30089027
C       -6.18025941      10.63050089       7.54930940       1.27818846      -0.78476085       0.49206569
C       -3.71596143      10.67988385       7.47975541       2.16279835      -1.10480817       0.57594948
C       -1.20980276      10.56792932       7.43840122      -0.82757332       4.53230389       1.02578969
C        1.23172977      10.72387752       7.51753527       0.72979735      -2.39995125      -0.84856817
C        3.73432616      10.62717451       7.50991985      -0.53290664       1.66153531      -0.70145633
C        6.17235043      10.63202841       7.59815612      -2.05751322      -0.05439349      -0.93010505
C        1.23520752       0.68331448       7.68231920       0.89503135       0.65024664      -0.32889192
C        3.67613338       0.68029116       7.46042760       0.81628000       1.09098669       0.03178269
C        6.10727845       0.75655725       7.42619150       1.67945204       0.30162845       0.49030037
C        8.60489826       0.68168163       7.27823490      -0.17798179       0.16822188       1.18276222
C       11.07964116       0.71536856       7.43728536       0.96821420      -1.80367386       0.29306154
C       13.55235695       0.70848553       7.59842725       0.08292708       0.00276008       1.07953911
C        0.04179184       2.86888046       7.57180725       0.85783417      -0.54279124       1.02044462
C        2.52687562       2.86896201       7.61375785      -3.03656796      -0.74431868      -0.91281387
C        4.92967043       2.85344103       7.57439383      -1.53537359      -1.20612506      -0.22248218
C        7.41853926       2.85892892       7.47862794      -2.02450951       0.08299341      -0.03925046
C        9.82891361       2.83584962       7.47003366       0.20849924      -1.83326109      -1.47663597
C       12.25564527       2.83585492       7.55395910       3.05270138      -0.11411019       0.26987944
C       -1.25819511       4.97015967       7.42031457       1.26720162       0.11910121       0.74677100
C        1.17914155       5.02195771       7.38792529       1.76461263       0.28887424       0.16304316
C        3.64259833       4.98052951       7.52698163       0.75997053      -0.56556068      -0.85559783
C        6.16811163       4.93148527       7.59537225      -2.29044720       1.25167421      -0.96089299
C        8.66270274       4.96265650       7.48970936      -3.16718566      -0.52492182      -0.16293286
C       11.07535737       4.98337888       7.48206183      -0.86886086      -1.97805945       0.20343134
C       -2.45272254       7.12753261       7.44904449      -1.15102375      -1.15849306       0.86865235
C       -0.01976905       7.16208806       7.30459094       1.36015008      -2.49608686       0.07681016
C        2.47446237       7.15738565       7.34319791      -0.32088190       0.19532671       0.10791126
C        4.84127693       7.07625790       7.53227844       2.28409529       1.17902101      -0.50053465
C        7.32500807       7.01819345       7.48749117       0.63724406       2.81397728       1.17271023
C        9.84414526       7.10826861       7.54307551      -0.59452364      -1.32474059       0.82967648
C       -3.73198622       9.24010907       7.55690168       2.15300425       0.97482991       0.12366749
C       -1.20601162       9.21672085       7.53239122      -2.06152620      -1.23383538      -0.67724091
C        1.25081807       9.25189925       7.47701008      -0.03479962       1.90111996      -0.36026143
C        3.73286914       9.23176081       7.53898227       1.05614824       0.60126276      -0.17468923
C        6.15958548       9.20792096       7.51796060       0.40952068       1.12271590       1.04374730
C        8.56577635       9.20977236       7.57412704       2.02007847       0.28575395       0.36127496
C       -4.92751681      11.34022003       7.52015788      -0.96894028       0.94075739      -0.04141044
C       -2.41174547      11.37291680       7.49102585      -1.83817087      -1.13694002      -1.12151597
C       -0.02757135      11.36716087       7.45728771       0.46544321      -0.79658124      -0.01631082
C        2.50562218      11.35773224       7.40874919      -0.31889187       0.49331474       0.88225888
C        4.94688308      11.39510834       7.46521389      -0.02770364      -3.57599235       1.42234892
C        7.36145041      11.29661241       7.63781200       1.30589286       2.57397868      -0.11269968
72
Lattice="14.76 0.0 0.0 -7.38 12.782534959858314 0.0 0.0 0.0 15.0" Properties=species:S:1:pos:R:3:REF_forces:R:3 REF_energy=-11165.600663833233 config_type=fd_force_conv_snapshot_003 snapshot_index=3 split=validation degauss_Ry=0.0019000869 kgrid=8 lattice_temperature_K=450.0 trajectory_seed=1 pbc="T T T"
C        0.03804084      -0.00661988       7.50975502       1.53696022       0.08510249       0.45793610
C        2.47029267       0.02801093       7.55287577       0.62933201      -0.69646711       0.72689226
C        4.92822469      -0.01806277       7.61040178      -0.47582763      -1.12808797      -1.69239523
C        7.40888825       0.00453487       7.39050723      -1.14595199      -1.24826724       1.15027967
C        9.84128537       0.01934332       7.56072876       0.78121401      -1.33926321      -0.13289209
C       12.29913251       0.03250534       7.49031645       1.45711127      -0.10423638      -0.26103202
C       -1.23835167       2.07068717       7.64361992       1.39043562       2.90924205      -0.85589967
C        1.22348786       2.16968550       7.57729420      -0.24032847      -1.80009000       0.50806130
C        3.71681294       2.11578130       7.66447689      -1.41171921       0.49351785      -1.18498391
C        6.15483855       2.12158610       7.36641342      -0.16754619       0.10054016       2.04502486
C        8.63535455       2.13178821       7.54442275       0.79171131       0.29690585       1.09153228
C       11.09528641       2.15676771       7.66638498      -1.55534618       0.41391933       0.27252922
C       -2.44057077       4.26503817       7.55041212      -0.43242047      -1.31052625       0.60356595
C       -0.00526347       4.22019620       7.71936709       0.30316494       1.41717586      -0.76621291
C        2.48972706       4.26572284       7.63141426      -1.10713708      -0.86738248       0.41717846
C        4.91051840       4.28036399       7.41178780       0.16961542       0.44834383       2.04039944
C        7.39474146       4.25308477       7.54956429       0.57927623       0.91141056      -0.00678026
C        9.82158234       4.29118174       7.66099647       0.98609391       1.10557847      -0.28259843
C       -3.70079537       6.37641264       7.38354730      -1.28157948       0.61446872      -0.36735639
C       -1.29912099       6.34647776       7.51583597       1.21272508       1.91112463      -0.66226989
C        1.19976549       6.38121445       7.68563209       0.22986794       0.03045600      -0.10329947
C        3.66712030       6.37829964       7.72213913      -0.30478063       2.69634802      -1.11077133
C        6.14499618       6.44710720       7.43654293      -1.10415048      -1.94061262       0.10276596
C        8.55816936       6.46227422       7.41397589       0.98821944      -0.75481752      -0.07347827
C       -4.92773816       8.48431210       7.39942606       2.22018743       1.33328437      -0.12888554
C       -2.46428702       8.53518455       7.29758962      -0.54734467      -1.36900548       0.13737970
C       -0.02044388       8.47304209       7.36488527       0.49532482       0.07611879       0.71542720
C        2.49475038       8.53040505       7.36969656      -2.37899368      -1.34191170       0.04508455
C        4.93519093       8.51429119       7.34722367      -0.11276087       0.57045683      -0.09086587
C        7.40179884       8.56395988       7.51860542      -0.33331293      -0.23724160      -1.16726849
C       -6.19143798      10.63163047       7.57967442       2.61770672      -0.14363031       0.00758913
C       -3.75777890      10.62173356       7.45997477       1.71470109       1.64561530       0.19578025
C       -1.27160349      10.60431279       7.36038873       1.93672074       0.65715828       0.86497824
C        1.23590089      10.64094907       7.29245493      -0.29498138      -0.76529760       0.77784484
C        3.70824106      10.62857301       7.31191100       0.79090784       2.05849718      -0.57191413
C        6.17508514      10.66602858       7.37377305      -1.03551823       0.46843674      -0.05481463
C        1.29961303       0.74729722       7.61502509      -3.43816734      -0.64523068      -1.00922895
C        3.70653558       0.71226093       7.58075829       0.70968335      -0.54215387       0.76558890
C        6.12850388       0.67580628       7.45634692       1.88427795       1.46017448      -0.19466105
C        8.63972249       0.73593764       7.52454351      -1.00688925      -1.63195862      -0.66824540
C       11.06080107       0.73883542       7.65018209       0.97129233      -0.42606316      -0.79502366
C       13.60995504       0.71441662       7.48945699      -3.28724435      -1.72362642       0.68176554
C       -0.03358715       2.82806790       7.62578307       0.90072403      -0.29450084       0.45015388
C        2.44595534       2.80140325       7.60065136       2.08785584       2.89505933       0.38388396
C        4.90365233       2.86767352       7.52671994       1.60133653      -0.97481782      -0.95103435
C        7.43277516       2.79647127       7.55273453      -2.92912285       2.19865701      -1.36559234
C        9.82186596       2.88602517       7.71489136       1.41603070      -1.14558047      -0.80874076
C       12.33196219       2.82928366       7.60019620      -1.11090580       0.19529483       0.50097688
C       -1.22449900       4.95074076       7.61278791      -0.52663675       0.07357880      -0.03257048
C        1.23896372       4.94735467       7.69060520      -0.14957573       0.02815769       0.31106003
C        3.69698918       5.01562066       7.65378798      -0.05412841      -2.86390065      -0.80169439
C        6.15242431       4.96838973       7.49130231       0.63310073       0.95634676      -0.75021345
C        8.63488601       5.06922761       7.55945110      -2.37404662      -3.01689671      -0.00037101
C       11.08487077       4.96905857       7.56672967      -0.43701040       0.07851558      -0.44501553
C       -2.51384136       7.11395641       7.24747555       1.56417149      -1.54992218       1.75912770
C       -0.04810437       7.05319577       7.56988070       0.01674585       0.67997965      -0.64768068
C        2.42915269       7.12300129       7.66261571       0.66775946      -0.55841995      -0.50144688
C        4.87303204       7.09959430       7.49172623       1.71540815       0.44685336       0.19114712
C        7.34213743       7.18312287       7.35635384       0.28921697      -1.60808285       1.14117437
C        9.80057429       7.11243224       7.35305938       1.10176373      -1.52052958       0.34373567
C       -3.67856874       9.22039983       7.36542675      -1.98664642       0.16096674       0.05452898
C       -1.24631774       9.19024549       7.41169066       0.66507368       0.60957179      -1.31326730
C        1.22004730       9.19355237       7.26839103       0.56477778       0.58912407       0.58023139
C        3.70035675       9.22078097       7.21534216       1.11202629       0.34285661       1.29463657
C        6.18214962       9.26199603       7.39365410      -1.30726840      -0.81863745       0.17331189
C        8.66734402       9.18691283       7.53220116      -2.72324331       2.63518457       0.05576080
C       -4.98164191      11.39302211       7.58633962       1.32391578      -1.75469666      -0.66640937
C       -2.45932038      11.32548963       7.43504493      -2.31363726       0.63364889       0.74842988
C       -0.00846679      11.31645391       7.43665538       0.27925240       1.66137436      -1.36872188
C        2.48314734      11.34857238       7.40670059      -0.53918399       0.61968934      -0.29944456
C        4.97322128      11.42029230       7.30847855      -2.33533557      -1.97158695       0.74507176
C        7.38186784      11.33642335       7.51299411       0.11305243       1.58470766      -0.20775413
72
Lattice="14.76 0.0 0.0 -7.38 12.782534959858314 0.0 0.0 0.0 15.0" Properties=species:S:1:pos:R:3:REF_forces:R:3 REF_energy=-11165.52038929843 config_type=fd_force_conv_snapshot_009 snapshot_index=9 split=validation degauss_Ry=0.0019000869 kgrid=8 lattice_temperature_K=450.0 trajectory_seed=1 pbc="T T T"
C       -0.03009734      -0.07972680       7.58578154       1.98428795       1.06454932      -1.38869010
C        2.39038321       0.00127236       7.38764585       3.05157781      -0.54130335       0.84760529
C        4.89386550       0.05998281       7.38529430      -1.00356970      -1.81325174       1.59429685
C        7.37718251      -0.00789917       7.47759034      -0.67497654       1.31897669      -0.02172659
C        9.80452214       0.01830330       7.63156822       1.04044832       1.28955119      -0.88079078
C       12.35941298      -0.03091415       7.57268996      -1.85896004       0.76356596       0.19629704
C       -1.24437310       2.14019327       7.42087664       1.20086818      -1.85586828       0.19557225
C        1.23949306       2.15189095       7.44642328      -0.59085905      -1.35293351      -0.07591979
C        3.69858510       2.17695730       7.56224000       0.22338824      -0.18841790      -0.82602371
C        6.17592244       2.11617254       7.40985694       0.24763606       0.52114538       0.57045503
C        8.62915174       2.18950930       7.33194177       0.00768246      -2.26755512       0.96161264
C       11.10242224       2.13195374       7.46387053      -2.18703409      -1.00929657      -0.43697209
C       -2.46416471       4.23529620       7.61284306       0.79288271      -0.22394643      -2.08022789
C        0.00779195       4.21508390       7.38790977      -0.26290044       2.09166518      -0.37193013
C        2.40754239       4.31419977       7.23474223       2.84675447      -0.60625301       0.87109361
C        4.86286731       4.28719245       7.52401281       1.82127512       0.98372670      -1.13976617
C        7.34540843       4.24408771       7.55416790       0.67674263       1.39063411       0.34615456
C        9.84243730       4.27116807       7.48318539      -0.27193247      -0.25239208       0.41795005
C       -3.63633596       6.39025658       7.53176102      -2.12972754      -0.23527985      -0.30736844
C       -1.20135620       6.36038552       7.62293268      -0.97377884      -0.04042417      -0.85073664
C        1.19876097       6.42670593       7.31020863       1.44310621      -0.40052234       0.81337106
C        3.70051320       6.42534593       7.32889373       0.17769408       1.37028588       0.41596850
C        6.19054375       6.42659638       7.50933028      -1.36108494      -2.14371331       0.39319058
C        8.67586993       6.39023448       7.49380892      -1.96689520      -0.58040468       0.44564108
C       -4.95908787       8.51425730       7.41216175       1.02936969      -0.21434336       0.04601863
C       -2.47614266       8.48533779       7.65071117       0.17572025       1.26870983      -0.71467283
C        0.01476972       8.51177292       7.59311564      -0.56165646       2.35198861      -0.17952445
C        2.46683221       8.53297554       7.45747297       0.95948788       1.39916066       0.12091255
C        4.93137896       8.56496191       7.55768074       0.37509336      -2.69835528      -0.00052836
C        7.37713147       8.44572469       7.54525868       0.29443785       1.74972518       0.42842163
C       -6.14195378      10.61678972       7.45829159      -1.05033935      -1.12231995      -0.18736889
C       -3.75096187      10.59388215       7.43540117       2.72402981       2.07492910       0.17847673
C       -1.28741972      10.65640708       7.60512955       1.08219326       0.73011976      -0.34793145
C        1.21598251      10.68755644       7.61946015       1.35964743      -0.23785430       0.12761773
C        3.70429182      10.66198012       7.61460252       1.00000409       0.61870229       0.70276348
C        6.20507554      10.60888263       7.82172284      -2.06283849      -2.20563627      -1.20839843
C        1.19550908       0.66716160       7.41404965      -0.68693680       1.68292843       0.89204553
C        3.63598087       0.75411935       7.55159794       0.46682415      -0.39207395      -1.66854234
C        6.13949297       0.69815334       7.45013755       0.15589627       0.85795347      -0.71074059
C        8.58308216       0.73878765       7.40054477       1.00578368      -0.21142078       0.93442322
C       11.04982886       0.71870076       7.54426941       1.95101093      -0.98943634       0.06160749
C       13.58538766       0.69162376       7.50163056      -2.70384330       0.29812275       0.45687218
C       -0.02406847       2.83519577       7.43843889       1.60982400      -0.74411016      -0.35780603
C        2.47134983       2.90300779       7.45856263      -0.90320283      -0.94175164      -0.51564579
C        4.98930416       2.85856105       7.45449961      -3.29267786       0.13556810       0.82837833
C        7.39848017       2.83971395       7.45770603      -0.68745128       0.57003594      -0.58524093
C        9.86244641       2.85915221       7.43055978       0.16236079      -0.06630361      -0.14108877
C       12.29785338       2.81364026       7.39808532       0.73957191       1.36652513       1.36825446
C       -1.21257734       4.92034860       7.49180092      -0.51118107       1.25625797       1.05893866
C        1.22130731       4.97687755       7.21825206      -2.29244829       1.35279776       0.67882703
C        3.64381017       5.06134160       7.31132931       0.67672541      -3.80295751       0.47084509
C        6.12405668       4.99840361       7.57907733      -0.21901737      -0.78747645      -0.46442351
C        8.59725910       4.96571831       7.59133529       0.83925615      -0.01723539      -1.20703420
C       11.08446036       4.95355379       7.52275205      -0.07966357       1.30181278       0.59698316
C       -2.43284710       7.08460799       7.60286718       0.40005208      -0.76101517       0.47475677
C       -0.02331071       7.12516926       7.54277914       1.47347480      -1.49490931      -0.50226552
C        2.47201940       7.14455084       7.41387193      -1.40628930      -1.41244658      -1.22960798
C        4.95550851       7.09606638       7.43163415      -0.70833712       2.22556592       0.29977572
C        7.41922369       7.07352401       7.54464906       0.60962142      -0.45518142      -0.50962710
C        9.85868641       7.14051938       7.42902041       1.23636098      -3.26416742       0.58907239
C       -3.72872803       9.18542033       7.51131484       0.90009951       0.83217739      -0.06436320
C       -1.25225304       9.22303374       7.63906002       0.29884575       0.11037797       0.22956300
C        1.27078038       9.26354949       7.50498455      -2.24592649      -0.45855522       0.71463555
C        3.70960629       9.26033535       7.49988955      -0.71840428      -0.22554668       0.56366629
C        6.18073480       9.16362462       7.75123618      -0.63898290       1.62585354      -0.81010421
C        8.57573113       9.16428431       7.41423001       0.54982116       2.42928908       0.56806365
C       -4.92622310      11.34203530       7.38182387      -1.56155025       0.00804730       0.06080042
C       -2.49346706      11.39663908       7.47216617      -0.90028488      -1.46237714      -0.13429566
C       -0.02529954      11.39068466       7.61010983       0.02367112      -1.72501662      -0.23542332
C        2.49171342      11.40640545       7.71717661      -1.88900543      -1.50112315      -1.13889354
C        4.99880579      11.32536874       7.68564581      -2.02064052       0.89060160       0.23796871
C        7.36011023      11.26646220       7.59232703       2.80886798       2.77182636       0.53478200
72
Lattice="14.76 0.0 0.0 -7.38 12.782534959858314 0.0 0.0 0.0 15.0" Properties=species:S:1:pos:R:3:REF_forces:R:3 REF_energy=-11165.617576660705 config_type=fd_force_conv_snapshot_015 snapshot_index=15 split=validation degauss_Ry=0.0019000869 kgrid=8 lattice_temperature_K=450.0 trajectory_seed=1 pbc="T T T"
C        0.01430251       0.00209595       7.63074718       0.32876079       1.19156002      -0.30240673
C        2.48356117      -0.01172923       7.58653828       0.34680685       0.33856621       0.13655617
C        5.04562689      -0.01456808       7.43782847      -5.55801001      -1.53394277       0.48809000
C        7.42621664       0.00956193       7.45999566      -0.67295900      -0.09914971      -0.28074055
C        9.83365366      -0.01032366       7.56398025       2.33491494       0.78055787      -0.23381406
C       12.34342616      -0.03424946       7.61216207      -1.60381430       3.28138404      -1.59601692
C       -1.24493015       2.15000491       7.50834489      -0.36962668       1.21947089      -0.23768409
C        1.23746432       2.14383372       7.64227145      -1.08575912       1.69172649      -0.86262671
C        3.69082595       2.11224730       7.50406410      -0.20734610       1.16082917       0.71792091
C        6.12528010       2.12215496       7.34938826       0.42771047       0.47096851       0.24697554
C        8.56449673       2.06888223       7.42736690       1.80205201       3.24652579       0.13008136
C       11.03705690       2.14300512       7.66421499       1.75746265       0.89133205      -1.42835271
C       -2.51514260       4.30209670       7.43443973       3.09286484      -1.10123305       0.09853624
C       -0.01317556       4.33454143       7.56522821      -1.50191583      -2.59620253      -0.13618928
C        2.44801439       4.27723064       7.63382906       0.82683515      -0.76962142       0.21195506
C        4.97803905       4.26705484       7.54713585      -2.07717316       0.12042944       0.58124698
C        7.41597740       4.24296718       7.42454184      -1.25266331      -0.30328604      -0.60383232
C        9.80880633       4.26097860       7.46360954       1.78474489      -1.30814926      -1.08115376
C       -3.75584165       6.40637820       7.22609132       1.62258772      -1.61780650       0.27852992
C       -1.26565799       6.40591404       7.42932805       1.12631545       0.44783269       0.19074243
C        1.26460346       6.36813558       7.68311670      -0.59399682       1.52052727      -1.20949141
C        3.70420597       6.33261586       7.43127292       0.05571581       2.61422802       1.51417202
C        6.12253028       6.37051332       7.46926501       1.24361637       2.17837178       0.94626418
C        8.55465113       6.37597977       7.36375381       0.22573412       1.09081674      -0.19241982
C       -4.92845495       8.51804966       7.43816774      -0.96329954      -1.17318974      -0.17073205
C       -2.54241904       8.54730619       7.41894947       3.11237900      -2.02548962       0.29848836
C       -0.01259885       8.51853443       7.49229971      -0.60695287      -1.57515087       0.29183744
C        2.48069733       8.53282934       7.47947064      -0.53580324      -1.27970155       0.43397573
C        4.93853756       8.56201004       7.43984675      -0.09212057      -2.01368800       0.42894922
C        7.40062087       8.51987650       7.52416247      -0.83716533       1.03725552      -0.24903062
C       -6.15752815      10.60774508       7.60140579       0.38094956       3.31338244       0.90381604
C       -3.73141997      10.61536894       7.67900811       2.72050251       1.09416663      -0.65033046
C       -1.19887140      10.66530483       7.48323436      -0.68830411      -1.45423857       0.00859134
C        1.24112028      10.63017308       7.39815930       0.57630043       0.83983079       1.75473240
C        3.69727547      10.64794503       7.35008214       1.36430807       0.98313251       1.36756977
C        6.13531323      10.66064548       7.59409577       1.59268734       0.09703549      -0.01328129
C        1.26905016       0.75958969       7.61276068      -0.93030843      -2.83659347       0.17019597
C        3.72335347       0.68736316       7.47434399       1.04324516      -0.04323310       0.27729142
C        6.19340079       0.70003348       7.38854800       0.93815749       0.90176044       0.01174403
C        8.62702154       0.72487928       7.51398389      -0.05411658      -3.09117871      -0.16885514
C       11.09497278       0.75656377       7.54913276      -0.73864529      -3.37649917       1.19088690
C       13.53280618       0.74078498       7.48964070       0.89016451      -2.00046893       1.71494175
C       -0.03794085       2.87409819       7.51806691       1.84097003       0.36402450       0.83558719
C        2.45776980       2.86252091       7.63389563       0.40404680      -0.92898842      -0.37534327
C        4.91109194       2.86981991       7.52413338       0.86040425      -1.99895917      -1.01007176
C        7.36461297       2.79470866       7.26725154      -0.24495903       1.69306449       1.56901082
C        9.79746188       2.79344017       7.56805381      -0.52876073       2.12374227      -0.40619316
C       12.29651581       2.90145757       7.52046441      -1.47886203      -1.89117107       0.61662999
C       -1.27248720       5.01483535       7.49401036       0.49113753      -0.66919876      -0.42685506
C        1.21769130       4.98191204       7.63623635       1.02350269      -0.29080000       0.25850514
C        3.70444771       4.95697604       7.61604876       0.36936545      -0.61567688      -0.99418851
C        6.18764319       4.98758693       7.53688000       0.16022806      -2.03106634      -0.88136388
C        8.62204608       4.97773775       7.35987298      -1.32292976      -0.95179591       0.62764228
C       11.06759816       4.95749356       7.29081615      -3.48513393       1.60701738       0.86116144
C       -2.50102421       7.09687930       7.32183644      -0.74915801       1.51753039      -0.03075734
C        0.03485553       7.05813357       7.53522862      -1.90018330       2.12654554       0.15433124
C        2.49418133       7.07937642       7.53806053      -0.29737328       0.73578493       0.00816505
C        4.92693174       7.09350258       7.49073136      -0.85991728       0.61912036      -0.97329136
C        7.33732209       7.12674588       7.49611109       0.94782587      -1.60299283      -0.70190036
C        9.76927863       7.06796632       7.25306376       0.85107037       2.16871446       0.90990107
C       -3.72728536       9.20805015       7.60844456      -0.70748840       0.61876580      -0.99976755
C       -1.27897187       9.22090433       7.45086106       1.56463197       0.39448127       0.16932797
C        1.21551924       9.21635128       7.56368554       0.78908313       0.51808346      -1.58561886
C        3.70247684       9.25995682       7.40349739      -0.04690052      -1.32378286      -0.23506619
C        6.17228098       9.25154404       7.54908147      -0.37691292      -0.59886186      -0.40752962
C        8.63256674       9.25649775       7.47306489      -0.99816164      -2.82726320       0.59741279
C       -4.91022280      11.33226955       7.66269342      -1.45118205       0.89504549      -0.39306999
C       -2.43179740      11.31990394       7.53823284      -0.67243038       1.50877887       0.19320760
C        0.03164799      11.39574921       7.45616244       0.08422188      -1.71905603      -0.23704800
C        2.50971711      11.33671909       7.51023453      -2.65876390       1.04520023      -1.24679709
C        4.93945664      11.36816202       7.48319995      -0.81771288      -0.87078019       0.29167880
C        7.37974759      11.35949454       7.71427300      -0.01449434       0.07162631      -1.16483237
72
Lattice="14.76 0.0 0.0 -7.38 12.782534959858314 0.0 0.0 0.0 15.0" Properties=species:S:1:pos:R:3:REF_forces:R:3 REF_energy=-11165.298414747516 config_type=fd_force_conv_snapshot_021 snapshot_index=21 split=validation degauss_Ry=0.0019000869 kgrid=8 lattice_temperature_K=450.0 trajectory_seed=1 pbc="T T T"
C       -0.05144090      -0.01069862       7.27919692       1.21343497       1.32546539       1.05203139
C        2.45720597      -0.01997755       7.43425307       0.15277186       0.45475410      -0.89671902
C        4.95506285      -0.02156794       7.40695916      -1.52424560       0.26594411       1.42341567
C        7.35324359      -0.00892274       7.60554808       1.72195263       0.37143236      -0.31445054
C        9.81721853      -0.00032893       7.60897718      -0.73223038      -0.06784756      -0.26553916
C       12.29658085       0.02231675       7.36455925      -2.34535593      -0.05935597       1.41203700
C       -1.23768178       2.18633482       7.38353325      -2.17185172      -0.23794377      -0.25600706
C        1.17898142       2.15261434       7.43978631       2.09437821      -0.35158190      -0.56013256
C        3.69734615       2.09424714       7.52889685       1.88928208       0.62870594       0.23864131
C        6.21856043       2.14014767       7.57044478      -1.41842105      -0.80500057       0.21160153
C        8.60140116       2.11987530       7.70248758      -0.02805742      -0.02545135      -0.38584468
C       11.01774500       2.12672128       7.58750824       1.40711874      -0.49533742       0.33804762
C       -2.47429334       4.31452784       7.66911534      -0.74341957      -0.97058939      -1.69860007
C        0.06553221       4.31916086       7.48613814      -3.04231644      -2.13665563      -0.36391831
C        2.49633711       4.21415590       7.49540284       2.30625768       1.23231972      -0.83348145
C        4.96210512       4.24038163       7.49607927       0.12961085       0.85164321       0.46276849
C        7.37820259       4.28059148       7.54242772      -0.07569071      -0.38287737       0.90428218
C        9.85860660       4.25735929       7.76926651      -2.85392991      -0.82749850      -0.60865854
C       -3.74120117       6.39877084       7.58844711       0.90785216      -0.32313599      -0.26084767
C       -1.22560245       6.36443154       7.50406364      -0.12952395       2.06423923      -0.08866449
C        1.22610335       6.34950258       7.42292878       3.93463682       0.27037772       0.31248802
C        3.74393805       6.40115693       7.22674757       1.60546726      -1.68367405       1.99157599
C        6.17627913       6.40410590       7.74567922      -0.39888969       1.15851620      -1.56527295
C        8.62331661       6.36833323       7.55399684      -1.19660221       0.67577076       1.19604557
C       -4.94496477       8.49834098       7.44399536       0.44425166       1.55462421       0.25590344
C       -2.50070118       8.44513646       7.39914481       2.27449684       3.46703774      -0.02620957
C        0.05254434       8.48509104       7.41811338      -0.98585583       1.79328506       0.62952715
C        2.44000012       8.45509816       7.39617307       2.33780795       3.57748410       1.44807255
C        4.86396849       8.52507593       7.59054201       2.34100640       0.79730757      -0.10711576
C        7.36670704       8.54118924       7.55714362      -0.34134146       0.86318412      -0.00234973
C       -6.14297665      10.67312298       7.43100065      -0.59804219      -1.06086725      -0.66298260
C       -3.74113595      10.65078429       7.38933887       3.71663246      -1.91782416       0.05207949
C       -1.18006813      10.65898039       7.34468546      -3.28857644      -1.23464631       1.17577319
C        1.22803110      10.66205029       7.50088852      -0.14364111      -0.12164275      -0.13474457
C        3.67346738      10.68513659       7.48777604      -0.15707049      -0.53728137       0.81817156
C        6.11375115      10.66421509       7.48313965       1.22831291      -0.07073079       0.23636871
C        1.21228041       0.73683198       7.35415782      -0.62788165      -1.44744418       0.29133324
C        3.71104374       0.67165006       7.49808586      -0.72639629       0.70194073      -0.57717281
C        6.16955262       0.69738115       7.55090885      -0.48843350       0.91533895      -0.33189137
C        8.58961578       0.69733194       7.67123874      -0.22768841       0.59309488       0.09985419
C       11.02732907       0.67318493       7.56645450       1.65985098       2.28010673      -0.88942223
C       13.47289300       0.74013565       7.33352673       2.47145774       0.81160779      -0.47785058
C       -0.02570265       2.90239548       7.38617223       0.90687385      -0.66908743       0.68002182
C        2.48906667       2.81708359       7.47209534      -1.39712023      -0.60443319       0.54980393
C        4.99444235       2.84036266       7.61839792      -2.24396217      -1.29579100      -1.23400019
C        7.41906470       2.86654696       7.55216514      -0.74219238      -0.74881683       0.67552187
C        9.81678286       2.81383864       7.74793816       0.76273009       1.26592069      -0.26176556
C       12.23878935       2.90055598       7.48132693       1.28988029      -1.16472027       0.97906760
C       -1.23053255       4.99150795       7.45253758       1.00925775      -0.65219323       1.49850140
C        1.30205862       4.92594920       7.52719030      -1.20118057       2.13777175      -0.74938427
C        3.76654981       4.94828929       7.35796369      -2.27113538       0.18112959       0.33000623
C        6.15544688       5.00037199       7.61326829       0.82515365      -0.62431707      -0.42890372
C        8.59097312       4.94671765       7.64496682       1.74083919       1.07364331      -0.08008678
C       11.00929589       5.00853806       7.71122778       2.69004188      -0.94425101       0.12289616
C       -2.50604373       7.06134897       7.46321372       1.54345817      -0.21846406       0.52925336
C        0.05869761       7.07896550       7.53947596      -2.26425923      -0.57234350      -1.22664684
C        2.54755575       7.07698609       7.30611060      -4.39268141      -0.71832226      -0.01509777
C        4.94310752       7.12848741       7.53068104      -0.22481597      -1.50276172      -0.12573440
C        7.42114029       7.14081740       7.68293756      -1.13405318      -1.71178675      -0.51530847
C        9.82119696       7.09077620       7.53236919      -0.27656380       0.60447561      -0.26204401
C       -3.68934993       9.22191131       7.42318961      -1.26638606      -1.23093929      -0.27154655
C       -1.18187244       9.21611279       7.36556958      -1.36748878      -1.05177171      -0.03901392
C        1.25908237       9.24664363       7.49747462      -0.81037109      -1.86759663      -1.04575327
C        3.68031162       9.23834260       7.60329238      -1.99670560       0.21015246      -1.90161747
C        6.09964706       9.25328445       7.52608786       0.87410180      -0.68095821       0.75519728
C        8.59381815       9.25754974       7.46294879       0.16392942      -0.84138425       0.11278658
C       -4.89713645      11.31744920       7.31037649      -3.34230144       3.34535360       1.20665265
C       -2.51678944      11.35662933       7.45366439       3.38784802      -0.64895595      -1.36589984
C        0.00069395      11.38020796       7.48943902       0.21840339      -1.02705801      -0.12699398
C        2.41791077      11.39121823       7.47248083       1.73025627      -1.23083696       0.68780738
C        4.91652901      11.40726685       7.51093888      -0.75799952      -1.17234565      -1.04418413
C        7.38038125      11.36098692       7.43574169      -1.04467572       0.46389283      -0.67567717
72
Lattice="14.76 0.0 0.0 -7.38 12.782534959858314 0.0 0.0 0.0 15.0" Properties=species:S:1:pos:R:3:REF_forces:R:3 REF_energy=-11165.712404523882 config_type=fd_force_conv_snapshot_027 snapshot_index=27 split=validation degauss_Ry=0.0019000869 kgrid=8 lattice_temperature_K=450.0 trajectory_seed=1 pbc="T T T"
C        0.00558627      -0.02836275       7.57487031      -1.87783630       1.51432294      -0.30097848
C        2.44768774       0.01275249       7.52854575      -0.44070071      -0.19009091       0.44172298
C        4.93894633      -0.02055641       7.39579808      -1.05698437       1.94183878      -0.55611573
C        7.38537563       0.03757530       7.26952326       0.67065323      -1.40800757       0.64694123
C        9.82434859      -0.00410126       7.37211188       0.27114854       1.51525214       0.53049597
C       12.26223400      -0.00324155       7.63410870       0.05267239      -1.01296168      -1.15442018
C       -1.23429269       2.09632661       7.46997543       0.03925740       1.20467213      -0.11997590
C        1.16935235       2.09129590       7.64918327       2.33255210       2.81247781       1.13636332
C        3.68492403       2.12751704       7.70660440      -0.23373230       0.50963173      -0.52277726
C        6.17377520       2.11662601       7.45668530      -2.56133914       1.78191513       0.63184295
C        8.56413597       2.11170385       7.44701284       1.96923568       1.37661080      -0.48357411
C       11.03282357       2.08277728       7.59276162       1.14321120       2.39902308      -1.37188305
C       -2.45941098       4.24874204       7.41172034       0.25356656       0.44597327       0.20059927
C       -0.03542313       4.30580707       7.61776794       1.45014024      -2.54399808      -0.09064193
C        2.41213246       4.21567208       7.84571159       1.68408491       4.01959481      -1.07205514
C        4.92855308       4.24116885       7.63708079      -0.39619208       1.76135942       0.85196203
C        7.42312746       4.26677760       7.51529590      -1.76821758      -0.11353040       0.18067965
C        9.86436821       4.19320319       7.43842910      -1.16421711       2.34067678      -0.95783929
C       -3.69337459       6.35135349       7.34559843       2.08392205       0.73063990       0.62856839
C       -1.19440272       6.38269958       7.56314774      -1.59930536       1.45195852       0.24586123
C        1.20096902       6.39411479       7.70950911       2.49353195       0.59320004      -0.99480995
C        3.64880002       6.40404470       7.57493021       0.84409034      -1.28236984       0.93655518
C        6.11220253       6.38629042       7.67058038       0.85540654       0.35944459       0.05358976
C        8.61474456       6.36655932       7.46338679       0.65677930       0.83983234      -0.59062019
C       -4.90163737       8.52492500       7.30986222       0.43781336       0.98460421       0.19158678
C       -2.46661500       8.56152159       7.42254070       1.49125320      -1.02233258       0.58049210
C        0.02530257       8.54365382       7.65570167      -0.53716567      -0.77836266      -0.36427981
C        2.44725639       8.54981975       7.48219974       2.29795610      -0.27496431       0.41946031
C        4.94524799       8.49966077       7.45763796      -1.32999181       0.92241694       0.99052906
C        7.42036321       8.50475614       7.40452138      -1.77351071      -1.00701395       0.25392472
C       -6.16723192      10.65581469       7.37776128       0.87040070      -0.55123732      -0.03715887
C       -3.69648802      10.71520965       7.35162924       0.76531560      -0.74870935      -0.72465694
C       -1.15901395      10.66014173       7.39436209      -2.15354212      -0.20040489      -0.47889213
C        1.24565253      10.70251611       7.31831062       1.76459129      -2.88131524       1.50370274
C        3.69614991      10.68416864       7.45248620      -0.27934110      -0.56404450       0.14868561
C        6.17719549      10.60365235       7.48408463      -0.87106404       1.55060455      -0.07288795
C        1.20204903       0.70372543       7.70414574       0.23176464      -0.72342178      -1.55208782
C        3.67584213       0.70908527       7.52129620       0.99728104      -0.34501736       0.32503552
C        6.15086492       0.73156783       7.36928195       0.52718722      -1.21554096      -0.13706577
C        8.63128034       0.73488764       7.31295523      -2.22051653      -1.24480217       0.16695510
C       11.01345508       0.68439642       7.61343949       1.60977103       0.44061972      -0.49640263
C       13.46638538       0.68789560       7.44168819       2.53412196      -0.33694718       1.93550563
C       -0.00949806       2.84154841       7.56094172      -0.69766216      -0.14993774       0.04193238
C        2.46027791       2.87246350       7.80374317      -1.77650784      -4.42844957      -0.64965143
C        4.89062675       2.85869523       7.60451401       1.87023844      -2.32666324      -0.07719789
C        7.37216010       2.83296921       7.49443677       0.05469508       0.46435511      -0.39035414
C        9.80764408       2.83144372       7.43971104       0.91096782      -2.59655348       1.04225632
C       12.33151612       2.84527766       7.45232409      -2.58677301      -1.76397911       0.77725348
C       -1.22302798       4.98616537       7.50358905      -1.49889606      -0.16045226      -0.07686364
C        1.18919956       4.98660313       7.72303053       0.83054397      -0.81102235       0.52765028
C        3.70024510       4.95558548       7.73397072      -1.86514817       0.30461685      -0.23754833
C        6.16438860       4.98192387       7.65740629       0.37827072      -1.01762155      -0.71754990
C        8.64592055       4.94284328       7.38695464      -0.50295920       0.56196422       1.23472267
C       11.05030431       4.92444908       7.38266096       1.59605188       0.44459953       0.18196931
C       -2.44427643       7.10269015       7.48295259      -0.52294336       0.02349525      -0.81403363
C        0.01948586       7.09588101       7.70157052      -1.17870939       1.28124858      -0.34146075
C        2.45839170       7.13825537       7.49533025      -1.60474530      -1.20573245       1.43490182
C        4.86816336       7.09633836       7.66815116       1.32637684       0.22994970      -1.49458818
C        7.36452405       7.09055313       7.57428387       1.23485097      -0.67190562      -0.74673089
C        9.90387243       7.10088505       7.34101713      -3.29125862       0.08558688       0.23308696
C       -3.65688746       9.30372674       7.36469059      -1.96608196      -1.70616940      -0.39333739
C       -1.19987098       9.25563848       7.50527890      -0.27514326      -0.45657650      -0.00883431
C        1.24685057       9.23104640       7.57542257      -0.71287203       2.47958706      -1.26616521
C        3.72113100       9.27722579       7.48962313      -0.91421306      -1.78582552      -0.78980021
C        6.18680864       9.18662930       7.40792293      -0.56152585       1.00835015       0.34863028
C        8.58268482       9.22752894       7.29077186       2.83825929       0.06518338       0.56022924
C       -4.95599739      11.38213572       7.38453687       1.29993048       0.21976247       0.20165728
C       -2.42840065      11.37656346       7.24668622       0.05310845      -0.44569122       1.66015283
C        0.05570126      11.35032471       7.37333139      -1.81613446       3.06965266      -0.96709191
C        2.47625060      11.41830066       7.33338573      -0.55160139      -2.64581736       0.06428812
C        4.90880204      11.34336913       7.55830775       1.85538389       0.53897213      -0.13732596
C        7.40976794      11.36991431       7.49920984      -1.98955511      -1.65652294      -0.12213280
72
Lattice="14.76 0.0 0.0 -7.38 12.782534959858314 0.0 0.0 0.0 15.0" Properties=species:S:1:pos:R:3:REF_forces:R:3 REF_energy=-11165.220641347061 config_type=fd_force_conv_snapshot_033 snapshot_index=33 split=validation degauss_Ry=0.0019000869 kgrid=8 lattice_temperature_K=450.0 trajectory_seed=1 pbc="T T T"
C        0.03795252       0.00236040       7.45025850      -3.40914267       0.07730382      -0.24301373
C        2.46664627       0.05633672       7.57379780      -0.12367366      -1.62992180       0.04848535
C        4.90340107       0.02334882       7.51557408       2.43176248      -1.75620770       0.21854120
C        7.36833053      -0.04294152       7.48153569       1.20792792       0.45574166      -0.03185648
C        9.78515977      -0.00117698       7.56441380       1.30741110       1.07025743       0.14568050
C       12.30080102      -0.00507136       7.53341750      -1.88141811      -1.08496311       0.06038210
C       -1.22949583       2.12795978       7.52854398       1.02985023      -1.11215227       1.33005249
C        1.23991647       2.10319909       7.73700173       0.64670804       0.57633051      -1.45870175
C        3.73848742       2.12390500       7.62708782      -1.36438520      -0.29506340       0.17891047
C        6.20011623       2.08487984       7.51351722       0.66827779       1.31453203      -0.74588371
C        8.63749135       2.14363392       7.63630289      -0.54427169      -1.37122922      -0.61271779
C       11.09138252       2.10841201       7.78426233       0.19640863       0.00757190      -1.08627540
C       -2.38477714       4.24187875       7.65741405      -2.58876844       0.70185280      -0.02738251
C        0.07105936       4.26838495       7.63048579      -2.25629009      -1.43626245      -0.23345642
C        2.49588377       4.24931167       7.56446726       0.14699305      -0.25545015       0.81431697
C        4.89586542       4.21448435       7.41321059       1.80460434       0.56463662      -0.16621513
C        7.38411260       4.27141406       7.38393159       0.42959689      -0.15213166       0.66711745
C        9.85790935       4.22224773       7.58153979       0.64802624       0.86695722       0.29461217
C       -3.73409330       6.42916625       7.58907040       1.83823669      -1.76095550      -0.77195136
C       -1.20282390       6.39505720       7.56241912      -1.95693861       0.91995511      -0.20499483
C        1.21558792       6.32315179       7.23201609       0.53460280       2.74665963       1.74737313
C        3.66490535       6.41946566       7.31503118       2.41615229      -2.74556511       0.32098218
C        6.16918812       6.42824256       7.46662985      -1.45016929      -1.33786427      -0.05949764
C        8.55826554       6.37684263       7.57780303       3.62036419       0.74024425       0.28676208
C       -4.99293908       8.53107785       7.54446630       2.14692385       2.39486818      -0.81341708
C       -2.46733965       8.52761281       7.52805406      -1.04764766       1.00262405      -0.29735502
C        0.02046380       8.54292268       7.31170981      -1.30652098      -0.69526820       1.06554717
C        2.44580880       8.47265486       7.21585171       0.03389434       2.52257462      -0.11487997
C        4.85850048       8.55243008       7.45485028       1.51563086      -0.98861796       0.28413415
C        7.37579434       8.54508503       7.62492189      -1.88226014       0.95137039      -0.23901901
C       -6.18604942      10.68048490       7.42944184       1.17819054       2.33203119      -0.17429020
C       -3.73604573      10.68211395       7.46924857       2.66395032       1.23657104       0.66671019
C       -1.20558309      10.59189074       7.46772283      -1.13090358       2.27452513      -0.28227165
C        1.20187536      10.66322160       7.29118070       2.45236756      -0.60530145       0.36943976
C        3.65565883      10.63330183       7.31245756      -0.73684860       2.74222730       1.43253512
C        6.12140296      10.66294279       7.33341914       0.95050830      -0.08104143       1.10901475
C        1.21209612       0.69037415       7.54024591       2.04742704       2.06275801       1.04472355
C        3.71265792       0.72721616       7.63004894      -0.93237688      -0.38074233      -0.43911819
C        6.18571337       0.69876170       7.50470461      -1.55236010      -1.06416211       0.21746211
C        8.58886468       0.71708078       7.58675844      -0.82425531      -0.52756697      -0.06260713
C       11.03143135       0.70032105       7.64407901       1.80849108      -0.45589593       0.13754656
C       13.50553961       0.69636874       7.56112863       1.80463545       0.44426117      -0.88938521
C        0.03421247       2.80351535       7.57868925      -0.32574103       1.93878790       0.92726784
C        2.50116095       2.83952712       7.72276264      -0.59492730      -0.48933210      -0.51778290
C        4.95587972       2.74377685       7.46236200       0.29919259       3.69997377       0.51732550
C        7.43930999       2.84049545       7.47072570      -1.92509472       0.53314395       0.25387587
C        9.86836158       2.79583350       7.65682654       0.11911870       1.73090316       0.49483374
C       12.34416415       2.82603566       7.71472888      -1.04626055       0.09585227      -0.55344384
C       -1.20576865       4.98272461       7.61799626       2.16744151      -0.45612681      -0.02223387
C        1.27924507       4.95833418       7.55283452      -0.70712022       0.00801850      -0.99560905
C        3.70853884       4.97171313       7.50806546      -0.48132208      -0.09824108      -1.29431056
C        6.12212976       4.97796867       7.30547993       1.16047333      -0.12067113       1.24079433
C        8.63860525       4.98294547       7.55463068      -1.56103757      -1.68208691      -0.90363092
C       11.09914261       4.93724660       7.58854688      -0.25729749       1.46589081       0.52478812
C       -2.47386430       7.12995023       7.51316140      -0.18245936      -1.60711123       0.90973780
C       -0.00732956       7.12371939       7.44543205       1.90051421      -1.43154936      -1.60572180
C        2.47142772       7.07051932       7.15817839      -2.61279668       0.27416187       0.60695544
C        4.90003028       7.09635453       7.38338420       0.65425834       1.76932521       0.55612704
C        7.41651317       7.11314568       7.67595130      -3.26614125       0.78752067      -1.27451075
C        9.79839373       7.13264657       7.53814244      -0.44818390      -0.87548325       0.69610638
C       -3.69443890       9.30061411       7.48228185      -1.86634450      -3.36324848       0.47984421
C       -1.24912560       9.21112053       7.50942922       1.78811946      -0.40947492      -1.04531002
C        1.23583672       9.25535399       7.23021747       0.09039973      -1.87475869      -0.12741025
C        3.66337358       9.25771492       7.35655893      -1.45920800      -2.40630008      -0.89167195
C        6.07595528       9.27593083       7.59241386       2.32232013      -1.77501583      -1.51824387
C        8.55236377       9.31047716       7.47397066       1.01554975      -3.34411253       0.96079400
C       -4.93435800      11.43117751       7.53847782      -0.57094894      -1.40931395      -0.86928664
C       -2.41419193      11.35834075       7.49229741      -2.36021562       0.35062879      -0.06472084
C        0.01975358      11.30632868       7.36407229      -2.49034070       2.01020312       0.72486546
C        2.39685497      11.41221142       7.42516442       1.88111960      -2.83598181      -1.07025640
C        4.89965565      11.31651568       7.41222643      -0.82482455       2.48496761      -0.58149817
C        7.37904505      11.39852581       7.30496879      -0.95895360      -1.24005977       0.95628685
72
Lattice="14.76 0.0 0.0 -7.38 12.782534959858314 0.0 0.0 0.0 15.0" Properties=species:S:1:pos:R:3:REF_forces:R:3 REF_energy=-11165.83474296009 config_type=fd_force_conv_snapshot_039 snapshot_index=39 split=validation degauss_Ry=0.0019000869 kgrid=8 lattice_temperature_K=450.0 trajectory_seed=1 pbc="T T T"
C        0.01525604      -0.01617925       7.44886594      -0.73303977      -0.37516098       0.56985056
C        2.45625713       0.06887763       7.53572044      -0.34137334      -3.04168883       0.45858170
C        4.87668530       0.01161921       7.44455030       1.40673102      -0.84082530       0.22420200
C        7.36192917      -0.01261738       7.31458824      -0.30516346       1.51677989       0.93887586
C        9.77743071      -0.02296901       7.44419066       2.42630403      -0.03307339      -0.32228084
C       12.25799010      -0.00214498       7.46573741       2.13326615      -0.53573537      -0.89300095
C       -1.25040050       2.09840531       7.40109629       2.58117572      -0.69937400      -0.38547624
C        1.23373336       2.11709419       7.52933682      -0.03971917       0.65765116       0.71437124
C        3.66171547       2.10571967       7.50243777       1.81339263       2.66502196      -0.08115044
C        6.10896425       2.06185707       7.35521419       0.39495410       4.67162914       0.72799063
C        8.59458125       2.11937211       7.48522002      -1.13258508      -0.47267186      -0.42886361
C       11.06161166       2.18446962       7.33988463       0.31651308      -3.05288933       0.19941836
C       -2.42908916       4.21621171       7.25376951      -0.95475036       2.93088380       0.84285158
C       -0.01024885       4.22843942       7.28977726       1.22922102       1.73952175       1.15991642
C        2.45165855       4.24928978       7.49565382       0.09465233      -0.11154782       0.22601488
C        4.91892905       4.29185241       7.49246683      -0.47263252       0.24167676       0.22910637
C        7.38113401       4.21163096       7.49841939      -0.85612233       4.10665493       0.34487107
C        9.82250754       4.22252739       7.47349848       0.23968106       2.16205453      -0.82585325
C       -3.73400748       6.41485649       7.45934857       2.60050553      -1.52908956      -0.75781697
C       -1.22303574       6.43096744       7.50015865      -0.60365388      -0.76475175      -0.85366513
C        1.25997830       6.42351244       7.41702042      -1.70918222      -1.44531505       0.47809406
C        3.66880584       6.40238071       7.60566253       0.33206054      -1.43633778      -0.08590596
C        6.18565716       6.43839712       7.65768197      -2.74103765      -1.01162496      -0.17291826
C        8.58006303       6.35408836       7.54315412       1.36061648       2.57614741      -0.53585749
C       -4.89781031       8.49411486       7.45797384      -0.31749987       1.63778063      -0.04749496
C       -2.44219320       8.55253679       7.50915882      -1.12406805       0.52680001       0.02143194
C        0.01662409       8.50318611       7.63215802      -1.16557285       1.78195138      -0.66423807
C        2.51614833       8.52613371       7.55607833      -0.85778352      -0.75422334       1.88953919
C        4.96929285       8.57077958       7.76244819      -1.50315355      -2.81815892      -0.20437776
C        7.46832791       8.52157851       7.80179379      -2.48239650      -0.04091088      -1.31988224
C       -6.14946593      10.66362558       7.56667911       1.94911371      -0.59984197      -0.10318274
C       -3.70905139      10.67334913       7.47704538       1.93585633      -0.44736449       0.64394230
C       -1.18281643      10.66086790       7.58520967      -2.20276487       0.73247027      -0.78820458
C        1.19889211      10.60191953       7.48397737       1.36775463       0.79217771       0.43330185
C        3.69122333      10.66143610       7.58090007       0.71665644      -0.24895349       0.37313726
C        6.15056298      10.65650944       7.58600659       1.74449092      -1.40690791       0.09936414
C        1.21437581       0.70309410       7.59352642       0.21739526       1.01929379      -1.07690604
C        3.66633267       0.72623504       7.47325653       0.65674896      -0.17331421       0.16400347
C        6.12450941       0.69210507       7.37290353      -0.41815985      -0.80755496      -0.32132105
C        8.57763008       0.68257505       7.42631869       0.03842205       1.40892545      -0.44314454
C       11.05683991       0.71657938       7.38398236      -1.60821011       0.51315748       0.52478350
C       13.53385197       0.65961973       7.39570862      -0.97794454       1.52536866       0.60732619
C        0.00849631       2.82746763       7.44709614      -0.92309623      -0.63668433      -0.78069979
C        2.48469815       2.82727946       7.60224182      -2.31905638       0.00776216      -1.10313413
C        4.88856903       2.87689626       7.42104070       0.85249862      -2.41343283       0.10184705
C        7.34904915       2.85672354       7.45871341       0.20128164      -3.90489558      -0.40817934
C        9.80243352       2.82150024       7.45128890       1.15417232       0.34172146      -0.20854681
C       12.34513513       2.82590514       7.28358169      -2.51071772      -0.12744624       0.21627400
C       -1.22322017       4.97786890       7.33259306      -0.16408369       0.27670392      -0.15444540
C        1.24794123       4.96509944       7.38659365      -1.47200284       0.49690271      -0.12321935
C        3.64539543       4.97315661       7.52638418       2.18290129       0.42971927       0.16081376
C        6.16535485       5.01329791       7.56242686      -0.07828932      -1.26265179      -0.40340274
C        8.60356169       4.98646268       7.48834240      -0.10627809      -3.08449693       0.42091633
C       11.05728040       4.94010331       7.35110724       0.57998637       0.53764133       0.59715259
C       -2.46519341       7.16656957       7.53598569      -0.25036374      -3.04608747      -0.54918661
C        0.00397982       7.16148877       7.46805835       0.37533684      -3.84015520       0.42018922
C        2.46373576       7.08796218       7.60176158       0.25043239       1.86329260      -0.93640117
C        4.86711590       7.10497213       7.65907705       3.50537906       1.37241630       0.72469988
C        7.40002846       7.12388800       7.68414024       0.45644794      -0.77097382       0.19558793
C        9.82860996       7.10482873       7.39258723      -1.07354638      -1.36594303       1.35752139
C       -3.68756732       9.23685185       7.42717058      -0.08987728       0.58228699       0.41293999
C       -1.23439877       9.23880452       7.57835319       2.08479777       0.77077250       0.47853835
C        1.24697283       9.15967812       7.61829337       0.36610555       2.97433416      -0.84391679
C        3.73173722       9.25976988       7.75391438      -0.67282119      -0.03244449      -1.64623622
C        6.20293533       9.20436662       7.73630517       0.36188534       2.11684631       0.23913445
C        8.64298957       9.21086794       7.59748725       1.00050237       1.79117059       0.20535375
C       -4.88498368      11.41003314       7.54998200      -2.45899432      -0.42123746      -0.50927614
C       -2.44349459      11.38359650       7.55942429      -0.65363922      -0.95630202      -0.74694044
C        0.00779000      11.41241632       7.42470320       0.13720435      -4.09425398       0.57123022
C        2.43872194      11.31813250       7.48017290      -0.27562149       0.88225965       0.01513248
C        4.95610991      11.35348517       7.52049174      -2.74698127       0.59897216       0.34438487
C        7.39883598      11.34774166       7.50210215      -0.72226170       0.35557225       0.39243442
72
Lattice="14.76 0.0 0.0 -7.38 12.782534959858314 0.0 0.0 0.0 15.0" Properties=species:S:1:pos:R:3:REF_forces:R:3 REF_energy=-11165.335728221584 config_type=fd_force_conv_snapshot_045 snapshot_index=45 split=validation degauss_Ry=0.0019000869 kgrid=8 lattice_temperature_K=450.0 trajectory_seed=1 pbc="T T T"
C        0.03137376       0.02352966       7.27792508      -2.15112452      -0.71072413       0.54377032
C        2.42357618       0.04996667       7.23976690       2.25240721      -2.83397738       0.26319689
C        4.92928306       0.02496509       7.44437178      -0.48289431       0.15416129       0.16224818
C        7.43032164      -0.02723566       7.55083307      -1.45820424       1.66187109       0.70017001
C        9.82914016       0.00730147       7.77504469       1.41381955      -1.21906671      -0.11760277
C       12.27254999      -0.03712046       7.41742986       1.54588272       0.51611168       1.45902777
C       -1.21149307       2.12816339       7.66824522      -1.44297611      -0.39262519      -1.08008958
C        1.23023101       2.14120512       7.38378443       0.21229804       0.75575880       0.47841108
C        3.67124126       2.11174793       7.34894743       3.13815714       0.21372089       1.52208613
C        6.20438050       2.09820776       7.61416278      -0.09361747       2.16332723       0.08911315
C        8.60711614       2.12700741       7.97179639       1.11792491       0.73561858      -1.34075805
C       11.06738116       2.13288810       7.81936164       0.55839064      -1.40234806       0.29599722
C       -2.49736159       4.23674590       7.71311993       1.36192697       1.88390591       0.18293605
C       -0.04116748       4.28962890       7.57819400       1.16963777      -0.72995676      -0.10616239
C        2.44997138       4.23551324       7.46580205      -1.10341952       0.95206433       0.31481204
C        4.93224381       4.22334720       7.55891919      -1.47735768       0.61310577       0.17025459
C        7.34506815       4.29176397       7.67939281       1.52724273      -0.66149548      -0.77934199
C        9.84357654       4.27859648       7.75493909      -0.72761242      -1.17732871      -0.76583547
C       -3.65163537       6.41327740       7.52452196      -1.67318858      -1.19789290       0.31178688
C       -1.22598170       6.44800023       7.69040334      -0.44366288       0.01572230      -0.04101218
C        1.13470703       6.42197764       7.40150373       2.39171755      -1.21599398       1.01248243
C        3.63606959       6.36807335       7.49041427      -0.04172283       0.32970696      -0.37561349
C        6.14259143       6.39208130       7.31975924      -1.85088960      -0.03078279       0.89213372
C        8.60046396       6.35431679       7.34036092       1.03569152       0.40746380       0.53729757
C       -4.89938465       8.53378154       7.38034493       0.14017552      -1.38277656      -0.16371808
C       -2.42291098       8.56280467       7.60910940      -0.86787304       0.68195195      -1.14314563
C        0.03643346       8.55950239       7.52781524      -1.45064211       1.64648947       0.13424527
C        2.42576165       8.45537407       7.33560376      -0.07227602       2.17541141      -0.30720389
C        4.92222854       8.48055676       7.33777952      -1.09450447       3.03758226      -1.13554005
C        7.40231720       8.52075179       7.40798149      -1.27326094      -2.41781039      -0.90248883
C       -6.14468547      10.62442656       7.28717174       0.60765195       0.68991465       0.08232955
C       -3.70127473      10.70026845       7.50922162       1.00272663      -1.45644484      -2.03969882
C       -1.24321995      10.71934310       7.44910510       0.27199315      -2.20802483       1.03103628
C        1.25077034      10.65483193       7.37874782      -0.10947732       0.69266625       1.13988599
C        3.68739399      10.57538808       7.40073218       0.46047995       2.61263291      -0.31466909
C        6.20874619      10.58872054       7.33820551      -1.89619398       2.25617028      -0.17889453
C        1.24227050       0.76710796       7.28090445      -1.40661326      -1.92460930      -0.27507898
C        3.66750797       0.70260783       7.36300633       0.65892823       0.43096754      -0.50856523
C        6.17573507       0.72787144       7.52513116       0.76957180      -2.39263106      -0.00331672
C        8.62449078       0.72700312       7.79956289      -0.93692002      -1.27778351      -0.03294457
C       11.07726754       0.66292837       7.78669330       0.04244403       1.29747764      -1.16214788
C       13.52321131       0.74159828       7.42409298       0.41529924      -2.33505121       0.10485859
C       -0.00968230       2.80142465       7.53937128       0.67410134       3.22652621       0.31873169
C        2.49271367       2.80289767       7.46809286      -2.43348255       1.98043026      -1.12597272
C        4.97731047       2.80850148       7.53430493      -1.90571580       0.08650168      -0.52898802
C        7.42906977       2.85452610       7.77538577      -2.29877346       0.08784842       0.24218018
C        9.85162261       2.83643381       7.90172328      -0.27696026       0.60590000       0.19519327
C       12.29388656       2.83946212       7.73975210       0.34050559      -0.33257477       0.18474482
C       -1.24521837       5.02328384       7.72598568      -0.50928000      -1.33946659      -0.75144938
C        1.19723233       5.02577162       7.42466523      -0.69138018      -3.10030021       0.63317118
C        3.64937363       4.92999851       7.56071984       1.67607233       0.69928710      -0.77334901
C        6.10644248       4.99769947       7.53125733       1.49473962      -1.15573555      -0.14072110
C        8.62059105       4.96269245       7.52735515      -1.40158984      -0.29144663       1.01483010
C       11.05042630       4.96179801       7.62776932       1.34324225       0.90428758       0.43284136
C       -2.46600239       7.15737021       7.62568398       1.32986840      -0.70579121       0.18306614
C        0.00809991       7.17247858       7.59255883      -2.53300250      -1.20970198      -0.38265960
C        2.36662050       7.06528660       7.44613573       2.76445603       0.15188021      -0.66344437
C        4.87521718       7.13120074       7.36872960       0.59834610      -3.59569266       0.24887173
C        7.36395110       7.04769547       7.29161529       1.10052163       2.22515352       0.53673064
C        9.85792751       7.05892978       7.42456376      -0.39371997       2.23261820      -0.51367839
C       -3.65651056       9.25584449       7.35700193      -0.75771850       0.18901131       2.24443988
C       -1.19551730       9.29399972       7.59070644      -0.51122838      -0.65404545      -0.53087495
C        1.24061628       9.26131145       7.37213162       0.45588770      -1.56043002      -0.02720047
C        3.63037899       9.18471962       7.20375245       2.19051330      -0.76883466       1.88669633
C        6.17893947       9.21286768       7.34318048      -0.68444077      -1.81430435       0.30934973
C        8.59725800       9.21331666       7.39514843       2.04609907       0.45669451      -0.44453191
C       -4.89264661      11.35038473       7.22491273      -2.32518974       1.84354602       1.32853040
C       -2.46851126      11.40420357       7.52284294       0.04592170       0.34561823      -0.49884826
C       -0.00460343      11.34302570       7.46119755       1.62357966       1.63239545      -0.45072415
C        2.48254937      11.36470179       7.57878312      -0.44951085      -0.76621882      -1.12665818
C        4.97376422      11.31306919       7.35276323      -2.06916983      -0.28563851       0.27917064
C        7.38839455      11.32740727       7.32169989       1.51737227       1.95600375      -0.73369797
72
Lattice="14.76 0.0 0.0 -7.38 12.782534959858314 0.0 0.0 0.0 15.0" Properties=species:S:1:pos:R:3:REF_forces:R:3 REF_energy=-11164.901401609315 config_type=fd_force_conv_snapshot_051 snapshot_index=51 split=validation degauss_Ry=0.0019000869 kgrid=8 lattice_temperature_K=450.0 trajectory_seed=1 pbc="T T T"
C        0.02861076      -0.03381867       7.76521581      -1.91242947       2.16411964      -0.92192072
C        2.43450750       0.04013143       7.84417380       0.49155790      -0.26399624      -1.21643081
C        4.89417641      -0.05319341       7.54696387      -0.16012471       2.16928730      -0.62991308
C        7.37479570       0.03325636       7.40348936      -0.22144346      -0.66937925      -0.73287084
C        9.81690835       0.04090296       7.51374042      -1.52985909      -2.00089213      -1.29327183
C       12.28254721      -0.01102655       7.33502591       0.34404780       1.05339819       1.68578390
C       -1.18520475       2.09136758       7.50370596      -1.15202134       1.09515959       0.53985016
C        1.23762907       2.13521682       7.58831469       0.37526253       1.41245995       1.30414220
C        3.73262285       2.12318837       7.60102103       0.52136419       0.32381939      -0.84039052
C        6.19896335       2.11128095       7.15322328      -1.51300911       0.26524452       1.06223584
C        8.64379655       2.13332888       7.06067170       0.26546769       0.40786438       1.01437990
C       11.08023319       2.13083426       7.27360555       0.58918192      -0.22124651      -0.78472948
C       -2.41183179       4.25303451       7.46612814      -1.61120391       0.25847017      -1.55754396
C       -0.00101327       4.29945371       7.51045183       0.06710631      -0.61062286       0.27191858
C        2.48217408       4.21738981       7.43795664      -0.34976619       2.20632353       0.24809140
C        4.98992067       4.25963642       7.42936355      -2.75542246      -0.07236910      -0.07290286
C        7.42488114       4.26811428       7.20572310      -0.87500991      -1.42368050       1.01630489
C        9.84506529       4.26452451       7.24490731       2.11728263      -0.80579761      -0.06003037
C       -3.66172937       6.36625908       7.50975012      -0.81438510      -0.64698931      -1.07368420
C       -1.18702811       6.45933986       7.46762750      -2.11311744      -1.54681371      -0.42086696
C        1.24625176       6.39715694       7.44986513       1.21222038       0.97599899      -0.37176840
C        3.63420720       6.46477312       7.51097263       2.63318450      -2.69629223      -0.45407944
C        6.13948054       6.37266418       7.52234748       0.10876718       0.81219015      -0.64464652
C        8.60010135       6.36251997       7.55743589       0.88542956      -0.06794294      -1.17380604
C       -4.93421403       8.48535656       7.56167325       0.52143361       0.50093523       0.53203863
C       -2.47915247       8.50450161       7.55578177       0.47536381       2.14577019       0.01287788
C        0.02067503       8.48807984       7.50857386       0.91045720       1.59445677      -0.32795166
C        2.47950573       8.51902823       7.61753268      -0.53091892       3.47480684      -0.68196763
C        4.94735722       8.51691667       7.48909664      -0.41137573       1.98036393       1.59835636
C        7.36903192       8.53521710       7.73897450       0.97725446      -3.51144146      -1.25698148
C       -6.15885783      10.64610785       7.68774210      -1.57223627      -0.75762157       0.40771371
C       -3.77258952      10.66544097       7.58947137       0.97019909      -0.80492832       0.63029540
C       -1.25450568      10.68008370       7.53276651      -1.01626658      -2.31426641      -0.83157858
C        1.16024365      10.62110772       7.58516438       1.38491263       1.69919940      -0.67605692
C        3.63700613      10.64941066       7.62076846      -0.25756386       1.28697880      -0.21904822
C        6.07811667      10.63114679       7.81264831       1.56610856       1.31456108      -1.12138227
C        1.20516613       0.77424269       7.75430368       1.21529876      -3.33805089       0.38867341
C        3.69131938       0.70578811       7.72614291       0.25961200      -0.07634120      -0.46018401
C        6.13417735       0.68854460       7.28651683      -0.08269799      -0.06063793       0.74751096
C        8.59793180       0.75882229       7.32281214       0.24667781      -1.15070776       0.07872049
C       11.00929155       0.68867839       7.31156239       3.17335220       1.37135366       0.26780276
C       13.57144305       0.68115362       7.52586382      -1.41121630      -0.33274600      -0.29898793
C        0.00947516       2.82701990       7.72759227      -0.03124199       2.03490397      -2.70842012
C        2.50975581       2.82068828       7.51905938      -1.11287809      -0.29617232       0.40193207
C        4.97401063       2.84399140       7.35585472      -0.35978526      -0.64912487       0.34479676
C        7.42283297       2.82963175       7.10655066      -0.50748203       0.61939264      -0.60732105
C        9.89320289       2.84690408       7.12286454      -1.53273101       0.09913505       0.36710211
C       12.32365551       2.83979921       7.33845398       1.13393723      -1.09378997       1.02193406
C       -1.23600799       5.03880443       7.44944244       1.82527781      -1.29298335       0.71363514
C        1.24111752       5.00821713       7.39482060       0.26832135      -2.39645789       0.81309621
C        3.67272820       4.96548602       7.50959849       1.77054545       1.11799176      -0.54676566
C        6.20143929       4.94906177       7.41376767      -0.37620613       1.18267120      -0.47452768
C        8.63439131       4.92960450       7.38690833      -0.48402380       2.13549118      -0.65937869
C       11.10366518       4.94069246       7.32642760      -0.36258417       0.75691374       1.36545375
C       -2.48721277       7.12121178       7.50401896       2.19464249      -0.71210404       0.19824825
C        0.05392248       7.10082831       7.43768309      -1.53073583      -0.08868326       0.50053054
C        2.46759556       7.18800658       7.50136968      -1.48087777      -4.47564011       0.11286911
C        4.89457927       7.15445442       7.45962209       0.60072514      -3.30039940       0.59244953
C        7.36469907       7.08297125       7.54025670       0.21064457       0.17166304       1.19450907
C        9.86889799       7.06070765       7.47975426      -1.43361216       0.42461974       1.18036132
C       -3.71007552       9.25779464       7.65538857      -0.83664648      -1.91626890      -1.36458549
C       -1.19012592       9.18489823       7.49048213      -2.12327381       2.18727577       0.71905991
C        1.24725787       9.22680656       7.55037974      -1.20683674      -0.34578406       0.54847518
C        3.68939461       9.23440363       7.60291329       1.01147378       0.17763726      -0.17849858
C        6.20243360       9.19889344       7.73789466      -4.70335192       2.39902026      -0.52900396
C        8.56773478       9.17304906       7.64033122       2.91689185       2.98364463       0.37931665
C       -4.94922835      11.39360025       7.69793885      -1.54854535       0.02420308       0.33785041
C       -2.56854021      11.33628048       7.51185698       3.74766388       0.31791305       0.57571345
C       -0.04033819      11.38340849       7.47649447       0.01788999      -0.28687546       0.79607833
C        2.38755231      11.36559979       7.55988177       0.93792429      -0.02069481       0.65751284
C        4.85808980      11.41410502       7.61400389       0.71399740      -3.07028078      -0.01967794
C        7.33108539      11.35823542       7.75931271       1.25940295      -1.82721488       0.58355249
72
Lattice="14.76 0.0 0.0 -7.38 12.782534959858314 0.0 0.0 0.0 15.0" Properties=species:S:1:pos:R:3:REF_forces:R:3 REF_energy=-11165.440203200626 config_type=fd_force_conv_snapshot_057 snapshot_index=57 split=validation degauss_Ry=0.0019000869 kgrid=8 lattice_temperature_K=450.0 trajectory_seed=1 pbc="T T T"
C        0.06517306       0.02273152       7.41301170      -1.89918135       0.56639166       0.53758270
C        2.50229094       0.00376302       7.46929051      -1.44858857       0.72123146       0.49972501
C        4.95282011      -0.01273847       7.53255718       0.57497220       1.74959019       0.20123819
C        7.38569339      -0.01759686       7.76476137       0.94734224      -0.98511920      -0.18666826
C        9.87130158       0.05896427       7.78607353      -1.50569098      -2.50511400      -0.54603006
C       12.29206031       0.00786710       7.47602374       1.52261860       0.16177355       0.45619598
C       -1.22835502       2.15399407       7.48901823       1.09248307      -0.89807836       0.37912382
C        1.20840332       2.16074887       7.35186331       1.15147884      -1.80593540       0.16989464
C        3.69247693       2.13863200       7.33196337      -2.85145188      -0.63217436       0.66480166
C        6.15119775       2.14546580       7.56558632      -1.01923774      -0.80427192      -0.69367746
C        8.64403947       2.13672214       7.67859184      -1.17947429       0.18468208      -0.13673924
C       11.09261939       2.11324972       7.67015192       0.24240823       3.07438581       0.73774771
C       -2.45338274       4.29823323       7.61255065      -2.17827999      -1.69824989       0.73486422
C       -0.02766232       4.28023494       7.47265787      -0.31473568      -1.08934530      -0.80441719
C        2.36248202       4.28440855       7.31691152       1.86420740       0.32385693       1.04002203
C        4.88999494       4.25932663       7.45324327      -1.54363403      -0.52398774      -0.78927648
C        7.30345718       4.22992236       7.54731701       1.57726997      -0.11648126      -0.73611326
C        9.81353999       4.28205593       7.65491840       0.11025919      -1.69946911      -0.13941344
C       -3.74030355       6.40155126       7.51934586       0.09642280      -1.46245119       0.05035891
C       -1.19930799       6.35647799       7.55306835      -3.74743119       0.88213855      -0.00179977
C        1.20057083       6.38941221       7.58283659       1.24227400       0.53227209       0.75394181
C        3.71349325       6.42988651       7.47808548      -1.14626978      -2.38930303      -0.16059187
C        6.10563336       6.38595330       7.33997504       1.48956167       1.94279240      -0.30953125
C        8.55663619       6.32643683       7.45361655       0.21175503       1.06795783      -0.62848354
C       -4.89500016       8.49009077       7.45478265      -0.77204649       1.63604076      -1.12466146
C       -2.46085011       8.47125112       7.64178729      -0.56633355       2.50603085      -2.13827029
C        0.02203038       8.47584769       7.61954358      -0.37668281       0.69747987       0.02471293
C        2.48792674       8.48005158       7.46979138      -0.89952127      -0.44160754       0.25930604
C        4.88132339       8.56204348       7.22905556       1.84378976       0.38619666       0.13939030
C        7.43286399       8.54315453       7.12425398      -0.55649522      -1.16811927       1.24236913
C       -6.12348915      10.66298250       7.40301842       0.41898003       0.19592552      -0.52770375
C       -3.66384664      10.68457735       7.50444444      -0.51064371      -0.26074303      -0.44061535
C       -1.21796810      10.61437352       7.58809873      -0.15928858      -0.58988640       0.10220032
C        1.26232810      10.58668416       7.66268331      -0.00584052       1.50174433       0.24115636
C        3.64917065      10.67056160       7.52075476       3.20188810      -0.67512541      -1.47184215
C        6.20110005      10.66099790       7.36377946      -0.39099846       0.65315533      -1.01523608
C        1.25145505       0.72089056       7.49402834       1.28865696       1.27351779      -1.21522754
C        3.70619784       0.71740479       7.49386170       1.01913696      -0.35026010      -0.80212094
C        6.22073447       0.74462618       7.62233804      -2.79487424      -2.11500283      -0.04629477
C        8.60701941       0.71790303       7.78114765       0.95286163      -0.05959380       0.01837130
C       11.06361609       0.73897286       7.65196734       1.50597405      -1.20198353      -0.17872638
C       13.56703139       0.69271691       7.47574594      -1.25847478       1.87001038      -0.43621722
C        0.02278971       2.86478240       7.32541503      -2.56997702       0.05012237       1.39391252
C        2.41294676       2.86223067       7.30657985       1.35053313       0.15882193      -0.14511126
C        4.85466723       2.82501081       7.38046442       3.92773315       1.54122028       0.98862799
C        7.36599570       2.81017242       7.56891496       0.58540959       1.22333294       0.64997694
C        9.88426310       2.86634946       7.66016773      -1.29454401      -1.31323156       0.41788808
C       12.32335521       2.86327822       7.73382955      -0.25672954      -0.26474855      -1.95401732
C       -1.23913652       4.96053329       7.51129577      -0.18211664       0.66562313       0.39512482
C        1.12979832       5.02609957       7.47029944       3.01720601      -2.08212716      -0.54154683
C        3.64038905       4.95723503       7.44614172       0.56611886       1.19889589      -0.48485529
C        6.11372863       4.97391387       7.42385399      -0.59524226      -0.15683266       0.57140968
C        8.54654745       4.88812319       7.53195550       0.22743079       2.61478286       0.42267342
C       11.02231725       4.97348842       7.66672490       1.71032816       1.17233048      -0.93193594
C       -2.51492632       7.08938447       7.47310186       2.39535900      -0.79679644       1.47089624
C       -0.02473883       7.04785858       7.70138512       1.21417441       2.34053486      -1.21968994
C        2.48612593       7.06437230       7.57856997      -1.38138971       1.00032908      -0.85103566
C        4.90392250       7.17154242       7.32488311       0.26829847      -2.17863326       0.03761498
C        7.37934814       7.11014875       7.27819085      -0.81930259      -1.31233091      -0.01326021
C        9.78451284       7.06579734       7.44259025       0.82268951       0.28231098       0.51106949
C       -3.69250799       9.28274173       7.47568877       1.20857995      -3.27170692       1.34404649
C       -1.21207179       9.19070816       7.56175041      -0.12293781      -0.62179482       0.95320899
C        1.28640200       9.18013073       7.54330065      -2.09356343       0.13380458       0.64001957
C        3.63099679       9.23367298       7.31882597       2.36626903       1.28049448       0.89488403
C        6.19479327       9.21943922       7.20156469      -1.29733083       1.86652242       0.12143012
C        8.67300417       9.23878056       7.27151578      -1.27552531       0.11817484       0.51968654
C       -4.90724954      11.37836795       7.47289294       0.91545491      -0.19328808       0.04023442
C       -2.41803979      11.36972514       7.51600868      -0.61893832      -0.29679735       0.41490432
C       -0.00138991      11.25696425       7.74313740       1.42386022       3.09556373      -0.56022255
C        2.50237401      11.38181303       7.69407569      -2.57285408       0.47810049       0.12587093
C        4.95009983      11.38732722       7.38349756      -1.27545280      -1.47192339       1.04626595
C        7.43516700      11.43029310       7.37887529      -0.87270697      -3.71562613       0.01858445
72
Lattice="14.76 0.0 0.0 -7.38 12.782534959858314 0.0 0.0 0.0 15.0" Properties=species:S:1:pos:R:3:REF_forces:R:3 REF_energy=-11164.864720119638 config_type=fd_force_conv_snapshot_063 snapshot_index=63 split=validation degauss_Ry=0.0019000869 kgrid=8 lattice_temperature_K=450.0 trajectory_seed=1 pbc="T T T"
C        0.04214000       0.00762282       7.50699269      -3.27331617       1.37382552       0.59197671
C        2.45351660       0.00441983       7.66353256      -0.56208095       2.15359329      -0.82691203
C        4.89032970      -0.00454530       7.58027374       1.69429219      -0.27858520      -1.15144695
C        7.36667557       0.07019822       7.38100121       2.38399910      -2.43366073      -0.17512118
C        9.88317422       0.00785870       7.24784646      -2.87867112      -1.11007893       0.20051596
C       12.26172572       0.03215276       7.42459644       1.76676259      -1.17979774      -0.37537515
C       -1.18773897       2.21204192       7.52751904      -2.46111960      -3.89766229      -0.18669140
C        1.23052278       2.13847634       7.52303372       0.74426160      -0.44575653       0.02598125
C        3.77315036       2.11252492       7.48133052      -2.81175662       1.18591619       0.60780853
C        6.17072993       2.08727135       7.40735542       0.23972040       2.07559887       0.65111671
C        8.59351309       2.20376866       7.22143479       0.86024741      -2.29567553       0.30273583
C       11.06517759       2.14597040       7.30369383       0.79607525       1.68462921       1.06571198
C       -2.40114709       4.28375752       7.47051662      -3.47971225      -0.89770221       0.73968607
C        0.01792890       4.26180107       7.39415394      -0.92785380      -0.16472775       2.24599951
C        2.45074886       4.21386253       7.58423052       1.71294657       1.29227939       1.08176209
C        4.90686425       4.26726131       7.70300108       3.40137408      -2.40160756      -1.08149161
C        7.43690156       4.34576955       7.43994536      -2.41057222      -3.59571580       0.14147855
C        9.86569538       4.26041892       7.38113983      -0.38374563       0.01727550      -0.16913565
C       -3.66070230       6.35856861       7.53059735      -0.87871667       1.72344644       0.10160460
C       -1.24619675       6.43043085       7.44631487      -0.48262795      -1.82615430       0.26053554
C        1.22301312       6.28843189       7.59455541       0.20961613       2.86291900      -0.39798132
C        3.68978537       6.35506723       7.68595703       1.26888723       0.16141051       0.53290535
C        6.19797052       6.34739452       7.81953292      -0.54884465       2.60435781      -0.87962658
C        8.70271109       6.39614460       7.65104048      -3.15904529      -0.14314385      -0.24978396
C       -4.94030653       8.53559511       7.66609713       0.04187941      -0.95753204      -0.01621646
C       -2.49600875       8.58360317       7.42036371       0.49194691      -0.97948643       0.74825504
C       -0.00053830       8.48170616       7.30895113      -0.76871434       0.17537263      -0.04820021
C        2.43742955       8.48841861       7.50675276      -0.60350579      -2.50763728      -0.85220371
C        4.90271999       8.49928454       7.67876190       0.20692675      -1.70243256      -0.26683886
C        7.36934591       8.52456800       7.63709338       0.85802726      -0.03890696       0.69324192
C       -6.23748302      10.72151913       7.61827323       3.37227588      -3.32127882       1.05918060
C       -3.76421347      10.66436641       7.55631613       1.81772983       0.12318952       0.03310655
C       -1.17807415      10.67159476       7.38014711      -2.37938217       0.38598069      -0.37096673
C        1.18787753      10.62024852       7.27642921       0.42178536       0.94922480      -0.32430173
C        3.62332448      10.56586454       7.30161015       0.61676060       0.93749800       1.06001364
C        6.11563072      10.66521678       7.50611730      -0.86221019      -0.43995226       1.03292630
C        1.21605374       0.72507798       7.57324358       1.73820201       0.28488877       0.06636454
C        3.68799978       0.72871150       7.53134237       0.04403246      -1.75188979       0.78440989
C        6.14622017       0.71177575       7.52650605      -0.61514389      -0.78165367      -0.83741807
C        8.65123974       0.74998539       7.28041008      -1.35684287       0.13592008      -0.30311969
C       11.06733022       0.74641672       7.30619193       0.39715471      -0.50524131      -0.01640107
C       13.54027553       0.72914393       7.45178781      -0.20234273       0.52818018       0.54744031
C        0.01906390       2.85099422       7.49331367       0.78802435       1.16176093      -0.44937484
C        2.47353104       2.82796307       7.54091245       1.12833196      -0.78911270      -0.36021232
C        4.99127304       2.80191680       7.51251795      -2.32618425       2.19559149       0.36694116
C        7.35133121       2.84286788       7.31491293       1.94768238       2.33319899       0.11004244
C        9.83801240       2.87348522       7.24482737       0.44520297      -0.69049187       0.18203976
C       12.31881013       2.88796202       7.56926458      -0.30792097      -1.50965485      -1.97041144
C       -1.22721908       4.96811671       7.51047511       1.53768835       2.00113099      -1.10222987
C        1.22255955       4.92186068       7.65367686       0.59689368      -1.01418553      -1.70581973
C        3.73588923       4.95575874       7.70612729      -3.44455807      -0.97815409      -0.38618818
C        6.16488596       4.96667891       7.67519943       0.89335962      -0.11674660       0.10466267
C        8.67407217       4.99250298       7.45576876      -0.94405946       0.36246744       0.44175178
C       11.05993503       4.93587603       7.46724958       3.00503416       1.91186280       0.01045051
C       -2.47652875       7.16692138       7.47853514       0.63332159      -1.99817936      -0.33317229
C       -0.00278437       7.02508732       7.40744891       0.94347685       2.42092734       0.37707979
C        2.46010404       7.00074838       7.60571183      -1.43604545       2.66163505      -0.03096380
C        4.92834429       7.06423928       7.75780948       0.63716590       0.37514401       0.19505520
C        7.44841274       7.11869689       7.72215425      -1.30687605      -1.65012424       0.12642654
C        9.86175917       7.09093071       7.63764762       1.91818257       1.17264159      -0.18777435
C       -3.72986109       9.22309101       7.60244827       0.09674238       2.61722952      -0.77340891
C       -1.25532747       9.26664050       7.34891864       1.76577734      -1.58218952      -0.19161403
C        1.22140258       9.20683800       7.25099321      -0.50154612      -1.09297261       1.36248901
C        3.66269966       9.12948033       7.49709482       0.09448161       2.65713947      -0.24503153
C        6.11637101       9.19820780       7.63103901       0.71110594       2.28326893      -0.42804420
C        8.60894389       9.25431645       7.65192564      -1.62008244       0.80321237      -0.24635128
C       -5.00740050      11.40997292       7.68010126       2.45751774      -1.53918885      -0.66755351
C       -2.43855916      11.36608670       7.41435798      -2.41733602      -0.26518281       1.60416886
C        0.01325245      11.39816751       7.32206665      -0.33932391       0.27307430       0.29569640
C        2.39827906      11.30300479       7.27781163       2.29727785       1.70521989      -0.31586182
C        4.82440224      11.34494715       7.42100914       2.12119379       0.17416241      -0.26556333
C        7.36903301      11.40799213       7.65268974      -3.41322712      -0.88271139      -1.56275353
72
Lattice="14.76 0.0 0.0 -7.38 12.782534959858314 0.0 0.0 0.0 15.0" Properties=species:S:1:pos:R:3:REF_forces:R:3 REF_energy=-11165.645103968736 config_type=fd_force_conv_snapshot_069 snapshot_index=69 split=validation degauss_Ry=0.0019000869 kgrid=8 lattice_temperature_K=450.0 trajectory_seed=1 pbc="T T T"
C        0.05422410       0.00559711       7.61566507      -1.22372503       0.88323024       0.85357283
C        2.49644462      -0.02027426       7.42794484      -1.52997427       1.60114935       0.70196670
C        4.96957714       0.01104013       7.39625629      -2.03971116      -1.70487691       0.15919859
C        7.36197825       0.03006766       7.74800292       0.52700467      -1.17513041      -1.59121435
C        9.82785288       0.03021400       7.62770499       0.63308376      -0.83673133       0.41569673
C       12.27519831      -0.01512283       7.69786405       1.68407334       0.39590104       0.42582585
C       -1.27691924       2.17985145       7.61846037       2.22457245      -2.13462420       0.67172436
C        1.24268297       2.17204856       7.51669892      -0.75322755      -2.23351680       0.75445808
C        3.66887838       2.10711377       7.42602635       0.83301223       0.52584690       0.25647962
C        6.06554049       2.11663182       7.61831745       1.64129944       0.62176191      -0.14643975
C        8.58587313       2.15199990       7.53470074      -0.07390610      -0.29290187       0.48277990
C       11.07333577       2.18177973       7.61804438       0.09893116      -0.52265565       0.19544138
C       -2.45912241       4.26884129       7.45977327      -1.47773460       1.80117398       0.27046154
C        0.00309248       4.25196243       7.49718274      -0.55760260      -0.74130946      -0.03996831
C        2.45772233       4.24518738       7.43611832       0.24610265       0.68709441      -0.22211400
C        4.89638383       4.27316677       7.49293784      -1.18463475      -0.48088679      -0.14493334
C        7.30993451       4.24947083       7.54578805       1.31614257      -0.33516567      -0.18709918
C        9.84122008       4.26774525       7.47336294      -0.63075563       0.64919352       0.40290344
C       -3.69056834       6.39348701       7.46324473       1.70318692      -0.69686229       0.35363081
C       -1.20173382       6.38005122       7.59439205       0.39410383      -1.62013515      -0.43774317
C        1.27716234       6.34194208       7.46433100      -3.43869261       1.56365727       1.23427736
C        3.69195185       6.40270096       7.41697706      -1.51541746      -1.03564395      -0.07160008
C        6.15939444       6.38840874       7.33266601      -2.00594075       1.31718129      -0.23095243
C        8.62591674       6.35978122       7.31483934      -1.12195691       0.41392138       0.73073477
C       -4.92636544       8.45030187       7.35339921       2.42064478       2.09893601      -0.26247055
C       -2.40399683       8.49327443       7.41875228      -2.31234194       0.28584317      -0.01441155
C        0.00663521       8.54743388       7.56641619      -0.26727312      -0.10726874       0.48443543
C        2.42837243       8.50609587       7.65938421       0.79233995      -1.05064325      -0.53277731
C        4.88789782       8.57298904       7.40883231       0.95605880      -2.44608481      -0.35090802
C        7.41011677       8.49659490       7.27038693      -0.30889259       2.22430300      -0.15664755
C       -6.15681365      10.67350859       7.35927970       0.19488602      -3.42443687       0.06756936
C       -3.72220080      10.67892366       7.24510551       1.02951701      -3.14772267       0.76810601
C       -1.21054242      10.69437817       7.44001699      -0.25442454      -2.12113260       0.13068763
C        1.27870543      10.69039545       7.72858155      -2.21025192      -1.52989791      -0.77674055
C        3.72014543      10.65551751       7.62923666      -1.66614170      -1.34395213      -0.03539535
C        6.21740667      10.64598282       7.45900523      -2.07782545       0.21638893       0.03543700
C        1.26713801       0.73883066       7.69066881       0.78101964      -0.53853093      -2.35406375
C        3.72708787       0.70839122       7.36145213      -0.62082860      -1.13787693       0.32653602
C        6.13399342       0.71462424       7.60522030       0.38449099      -0.08016597       0.07817208
C        8.59204232       0.71439617       7.62028103       0.30625978       1.27754028       0.50915659
C       11.06118304       0.75510964       7.72737029       0.09517761      -0.74510261      -1.05846121
C       13.54882980       0.68903645       7.75205927      -1.36710029       1.46875965      -1.33549989
C       -0.00633751       2.84237495       7.54052250      -0.16884794       0.10048077      -0.05031803
C        2.46957506       2.81754435       7.39876931      -0.59674867       1.53065279       0.54068268
C        4.87231608       2.84032832       7.56995544      -0.12968310       0.35802971      -0.69993218
C        7.29765617       2.81721646       7.56745311       1.60656615       0.97739381       0.28912184
C        9.85422180       2.87374394       7.51994102      -1.70223099      -1.27727263       0.11034763
C       12.29341753       2.93314606       7.58734097      -0.64138251      -4.75395175      -0.01974916
C       -1.24658423       4.88601987       7.48840315       2.16731552       4.70693990       0.42076232
C        1.22234041       4.95948384       7.49272526       0.75291182      -1.33405210      -0.54559040
C        3.67917148       5.00149748       7.40457820      -0.08878096      -1.92357623       0.32506277
C        6.09733227       4.97182513       7.46563531       1.62876814       0.71780341      -0.02259537
C        8.58045849       4.94698119       7.52122427      -0.17643784       0.39420385      -1.18170524
C       11.06204352       4.98489168       7.46414574       0.09899210       0.10163211      -0.13845750
C       -2.40594824       7.06400155       7.56875734      -1.65035512       1.11127655      -0.85219934
C        0.02053252       7.12095300       7.60517025       0.54314914      -1.15633102      -0.86336924
C        2.44393858       7.02835748       7.50610603       1.24540895       3.84174286       0.15408673
C        4.85213489       7.10705438       7.34567369       4.39799846       1.55406705       0.26620662
C        7.38864905       7.13961108       7.23070156       0.15275464      -4.16395839       0.72688660
C        9.85440360       7.06649698       7.38086749      -0.84133669      -0.77573242      -0.23606712
C       -3.66995109       9.18146521       7.31314707      -0.48036177       1.48772128       0.06788998
C       -1.24895750       9.25264743       7.42088076       2.72344257       0.05797658       0.69437655
C        1.24370362       9.25555059       7.71448611      -0.64687130      -0.28866752      -0.57845759
C        3.65828738       9.21964537       7.58877959       0.52101092       0.98968137      -0.04030024
C        6.16865342       9.22570591       7.30875758      -0.14767002       0.62284820       0.71305510
C        8.67044185       9.18095739       7.33376642      -2.90244560       2.23873177      -0.33914676
C       -4.98842994      11.35171893       7.35545823       4.20490681       1.30744504      -0.46310916
C       -2.44903848      11.33248398       7.34265055      -0.79656838       2.59085052      -0.10080216
C        0.01628427      11.37994779       7.62975611       0.04694989       0.85263694       0.56574708
C        2.47623036      11.34972897       7.63325571       1.27554433       2.61312604       0.74623981
C        4.93199113      11.32414864       7.61811598       1.44554927       1.41112015      -0.25237974
C        7.42580757      11.38611399       7.45022692      -1.46509557      -0.44144556       0.40390231
72
Lattice="14.76 0.0 0.0 -7.38 12.782534959858314 0.0 0.0 0.0 15.0" Properties=species:S:1:pos:R:3:REF_forces:R:3 REF_energy=-11165.471400780114 config_type=fd_force_conv_snapshot_075 snapshot_index=75 split=validation degauss_Ry=0.0019000869 kgrid=8 lattice_temperature_K=450.0 trajectory_seed=1 pbc="T T T"
C        0.03116395       0.01248768       7.55752493      -0.65447868      -0.37457502      -0.10277188
C        2.49413026       0.04866589       7.62553358       0.54438096      -1.92950057       0.04020048
C        4.93341673      -0.07211529       7.55903262      -0.31900371       2.31695990      -0.56345649
C        7.42399094      -0.02739781       7.50349529      -1.28857803      -0.52574637      -0.28199294
C        9.88547782       0.00727969       7.42210092      -2.32325756       0.04988557      -0.09973001
C       12.30983078      -0.03291257       7.36162614       0.23461316       0.30349507       0.30338117
C       -1.33176478       2.13606342       7.47963863       3.18480980      -0.60222872      -0.36520181
C        1.27647290       2.12960657       7.42739101      -2.09381848      -1.08062052       1.33884412
C        3.70143866       2.13728155       7.43228765       0.96045924      -0.89955109       0.37879137
C        6.14904662       2.01918714       7.49343030      -0.47091426       4.23273206      -0.86004583
C        8.60756073       2.11035139       7.55989099      -0.50765841       1.46428027      -0.85534149
C       11.07637370       2.15204745       7.48369315      -2.39379217      -0.08076915      -0.71531072
C       -2.48045174       4.31586080       7.43680357      -1.30843697      -1.28943497      -0.73162360
C       -0.02255016       4.25492650       7.41413270      -0.12236008      -0.27711401      -0.78348224
C        2.49464474       4.28875855       7.55411282      -0.89763048      -2.20528635      -1.38536001
C        4.87516177       4.24004656       7.36926462       1.10151716      -0.50743626       0.47930119
C        7.34429057       4.26823613       7.55416030       0.07911979      -1.98265298      -1.16157119
C        9.83194323       4.31945853       7.40169113      -1.25635799      -2.96886516       1.08990529
C       -3.68949326       6.42499054       7.54260099      -0.81392513      -0.60485305      -0.69307737
C       -1.24387045       6.40290107       7.42715734       1.01030625      -0.16532733      -1.14605432
C        1.29862235       6.35403757       7.40942166      -1.68882808       1.31850104      -0.79847923
C        3.72236446       6.40554310       7.56565250      -1.59956504       0.26550702      -1.01091791
C        6.19128466       6.39113430       7.59265681      -3.72050172      -0.75056003      -0.54305324
C        8.61047944       6.40695589       7.60734669      -0.13774300       0.11993296       0.29864212
C       -4.95848507       8.54654086       7.70027543      -0.80409143       0.40839840      -0.43552688
C       -2.48319043       8.50316650       7.36230022      -0.45331120       2.01258859       0.77477777
C        0.02959928       8.47105710       7.31650433      -0.38424005       1.84107904       0.49964916
C        2.47447562       8.54854725       7.55277323       0.45716220      -1.34095114      -0.89256695
C        4.91077705       8.59140335       7.61295403       0.63435491      -3.09880692      -0.47526893
C        7.38306790       8.52047093       7.61956758      -0.98583603       1.62318782       0.47783489
C       -6.09531517      10.69821284       7.73129250      -2.98494587      -0.46128188      -0.44448460
C       -3.66848425      10.64168524       7.69431597      -1.01618584      -0.76784453      -0.47279168
C       -1.23597745      10.63784057       7.50014034       1.27414822      -1.07546520      -0.49836541
C        1.20904243      10.65854550       7.45079066       0.31316576      -0.89813878      -0.15644751
C        3.67322857      10.64177507       7.56205525      -1.09769419       1.93777412      -1.68670641
C        6.16770686      10.62303140       7.43302284      -0.30994032       2.38655092       0.65001679
C        1.26798371       0.68381316       7.57505759      -0.50689762       2.43160796      -0.58817816
C        3.70901415       0.75854912       7.47934065       0.83605847      -3.74441580       0.90944778
C        6.16704045       0.64370177       7.44946183      -0.09987836      -1.12342913       1.01665841
C        8.62136871       0.70119925       7.50263195       1.10944541      -0.14433222       0.01744031
C       11.08480217       0.72408870       7.35725292       1.08769928      -0.32763696       0.88182102
C       13.55418523       0.67993555       7.46095988      -2.22914516       1.54748760      -0.19367323
C       -0.03908471       2.79842447       7.44685747       0.64791183       1.82189476      -0.10013084
C        2.50919425       2.79651679       7.53577374      -2.16979741       3.73084089      -0.87447512
C        4.91453515       2.79750579       7.42008504       1.12158693       0.84884225      -0.08242494
C        7.34832286       2.82280313       7.49469327       0.85414130      -0.75593775       0.76689785
C        9.82300600       2.85601945       7.47894729       0.25524652       0.15590630      -0.00625755
C       12.22869413       2.90722513       7.46211245       2.42910550      -1.40661583       0.06885594
C       -1.29683739       5.00449624       7.31502511       3.33711398      -0.77905763       1.62065528
C        1.25801918       4.95319217       7.38003690      -0.85145424      -0.80241970       1.35280084
C        3.68730353       5.01630236       7.43720700       0.38948742      -2.05586000       0.79638609
C        6.10026037       4.91457807       7.40614595       1.71935145       3.09335181       1.49199368
C        8.58637199       4.97242363       7.54243963       0.11169952       1.37718441      -0.18538117
C       11.04787747       4.97726178       7.41104329       0.18203822       2.88188757       0.69105288
C       -2.45744204       7.11372437       7.44845048      -0.37844299      -0.15470199      -0.03466181
C        0.03369352       7.05450504       7.35272982      -0.17990574       0.73720444       0.20421244
C        2.49536245       7.10873634       7.43417793      -0.31854631       0.42916391       1.26946265
C        4.89145393       7.10273768       7.63144807       3.80416464       1.93345287      -0.22034997
C        7.37238278       7.12771689       7.65931592       1.21773822      -1.46838170      -0.43084490
C        9.83420651       7.15767532       7.63081776      -0.13183409      -2.49298456      -0.24921112
C       -3.76683351       9.22204469       7.53670883       3.37054090       0.70169031       0.57028765
C       -1.24179991       9.23945249       7.31966760       0.62042596      -2.06500130       0.54419044
C        1.27318631       9.23536646       7.44149647      -2.16942409      -0.66742958      -0.13966644
C        3.69917625       9.26867780       7.55880413      -0.75713820      -1.16043399       0.77025340
C        6.15665461       9.24632068       7.51245618       0.08234626      -1.19672639       0.61038143
C        8.56359469       9.27449905       7.73177887       1.88187448      -0.47661362      -0.19600265
C       -4.87953296      11.38378290       7.74104247       0.54798333       0.80076519      -0.15416643
C       -2.42939798      11.30243270       7.64726916      -1.65758815       1.47361029      -0.44691944
C       -0.00897469      11.33181178       7.46704239       0.18021376       1.00377667       0.12437249
C        2.40058825      11.37669362       7.42666960       3.22865251      -0.33209268       0.79656144
C        4.89587168      11.31820195       7.40264268       1.14288209       1.08660887       0.42360596
C        7.37974357      11.39303109       7.58577098       1.13140058      -1.29506903      -0.19671022
72
Lattice="14.76 0.0 0.0 -7.38 12.782534959858314 0.0 0.0 0.0 15.0" Properties=species:S:1:pos:R:3:REF_forces:R:3 REF_energy=-11165.719755407119 config_type=fd_force_conv_snapshot_081 snapshot_index=81 split=validation degauss_Ry=0.0019000869 kgrid=8 lattice_temperature_K=450.0 trajectory_seed=1 pbc="T T T"
C        0.01916752      -0.02800337       7.44009948      -0.99542162       0.15399134      -0.07202586
C        2.52493596      -0.01790136       7.38506953      -2.60403822       0.77489553      -0.19415197
C        4.93287539      -0.03028751       7.42359782       0.41289037       3.14616047       0.74175478
C        7.41521961       0.02859993       7.61353789      -1.59405825      -1.37366817      -1.22707904
C        9.83909321      -0.01234531       7.40938507      -0.09766824      -0.02899047       0.07765271
C       12.25718844      -0.06491876       7.44007060       1.28061712       1.01155632      -0.12776660
C       -1.21090756       2.05332208       7.58755271      -1.75138225       1.07263030      -0.14378046
C        1.26506411       2.13076072       7.67236269      -0.82012792      -2.47095124      -1.49662989
C        3.69594593       2.12126897       7.47318464       0.48382402      -0.08076992      -0.32951130
C        6.14136454       2.13414901       7.46219226      -1.30583167      -0.05234406       0.05518744
C        8.63304535       2.10221498       7.51909056      -0.53787684       3.04861898      -0.46586615
C       11.06591187       2.10376853       7.45421839       0.07672120       1.70319258      -0.19100057
C       -2.51762741       4.27174509       7.68224614       3.13100355      -1.21859568      -0.27174504
C        0.00864905       4.20178173       7.74682395      -0.35296104       1.93034774       0.32763233
C        2.55606367       4.26019015       7.56623392      -2.73302404       0.31313054      -0.65664304
C        4.95863700       4.27105846       7.37337758      -1.06453364       0.61043954      -0.36555790
C        7.36939869       4.24692740       7.41503299       1.85637196      -0.91340368       0.17784243
C        9.89685873       4.33583582       7.51735397      -1.97246730      -2.67338396      -0.76671788
C       -3.68964549       6.44818864       7.58436816       0.21828512      -0.20860260       0.49297946
C       -1.25101001       6.38918609       7.70147682       0.65535697      -0.47023523       0.74973831
C        1.24227883       6.39890464       7.54337326       0.89062139      -1.24493586      -0.00711604
C        3.74288277       6.38736690       7.37942839      -1.18265912       2.45947897      -0.74849030
C        6.19289612       6.43553690       7.34057113      -1.53479458      -1.30011482       0.58646477
C        8.60340680       6.37135358       7.54911447       0.33652295       0.15433304      -1.43298866
C       -4.95383215       8.54221643       7.47284674      -0.31750707       0.65102209       0.44990629
C       -2.48642122       8.57616105       7.67897516      -0.62190923      -0.62278084       0.15677533
C       -0.02704265       8.50886421       7.66114393      -1.04864859      -0.43790721      -1.05240780
C        2.42361080       8.46869340       7.53008966      -0.56431035       2.46181636      -0.85140256
C        4.89982698       8.54379028       7.36012064      -0.32623314       0.20668404       0.59245570
C        7.35472774       8.55499133       7.45281192       0.33103287       0.12639826      -0.71081129
C       -6.16504749      10.67952008       7.36581494      -2.09034415      -0.21888238      -0.19334670
C       -3.67773177      10.70524256       7.48548033      -2.89006265      -2.52297622      -0.00334475
C       -1.25860118      10.72400993       7.62622938       1.64832678      -2.91860344      -0.63635729
C        1.25739282      10.63307924       7.46499933      -1.44585241       0.16501623       0.16570040
C        3.70928527      10.59480619       7.51045092      -2.39854460       0.52502107      -0.72001096
C        6.12129698      10.67403420       7.33397691      -0.22168848      -2.07253849       0.56489399
C        1.25545315       0.67704245       7.39523436       0.76286225       1.42392552       1.62993079
C        3.73496490       0.70856817       7.44238381      -0.58881605      -0.55263703      -0.44552641
C        6.14480562       0.71603670       7.55251853       0.91386057      -0.46119343      -0.39816695
C        8.62458252       0.71099979       7.48302491       0.44104704      -0.23382306       0.44755347
C       11.05155620       0.67643932       7.38602443       0.63639714       0.78447520       0.54225208
C       13.52491484       0.62985650       7.53825273      -0.51721725       1.19419026      -0.66275995
C       -0.00505446       2.76242375       7.70318880       1.19639601       1.68904534       0.09005006
C        2.49485789       2.80801272       7.57814033      -0.50854492       2.04971686       0.35328449
C        4.87381994       2.88174035       7.38392640       2.76356746      -1.87209117       0.55646720
C        7.36438556       2.80894926       7.46881541       1.00518101       0.63205480       0.08706398
C        9.84642414       2.91230962       7.50465619       0.83787290      -3.04320090      -0.14325724
C       12.30497770       2.83435200       7.48206619      -0.24200637      -0.87127641       1.36060980
C       -1.26162823       4.96027649       7.83639910       0.89292125      -0.63346505      -1.54656097
C        1.26781390       4.98712774       7.64945064      -0.00079447      -2.40872566      -0.20995886
C        3.73696957       5.00298601       7.30840126       0.03556170      -1.44642782       1.58658174
C        6.17534384       4.96414545       7.43481360       0.04856840       1.85012367      -1.03869919
C        8.63957809       4.92554140       7.39173464      -1.51784458       2.80982083       1.45398378
C       11.09077507       5.02303490       7.57283286      -0.47054942       0.87405963       0.30882857
C       -2.46595400       7.15700197       7.70858892      -0.08954587      -0.64763055      -0.64005351
C        0.01409100       7.03699718       7.60726729      -1.70114727       2.87207341       0.67199741
C        2.48291573       7.12292146       7.42596619      -0.22680935      -3.47698637       0.68806294
C        4.94179559       7.16823081       7.30837556       0.56877147      -3.09811657       0.30871390
C        7.39398879       7.12169551       7.45733622       0.24317391       0.10048591       0.06418476
C        9.81787400       7.11880016       7.52769677       0.19858635      -0.03560901       0.26763898
C       -3.74298266       9.26579991       7.60040342       1.41326573       0.40143636      -0.69026432
C       -1.26901993       9.26156708       7.67949703       1.07705183       0.81081332       0.04214835
C        1.16293366       9.20323954       7.47936808       2.34971087       0.41841053       1.08311037
C        3.63091925       9.16589961       7.51087715       1.65362402       2.16759063      -0.53579090
C        6.12239059       9.25733816       7.38274001       0.40963535      -0.32019979      -0.19149885
C        8.57612756       9.29132215       7.38591218       0.47201237      -2.03140521       0.60058990
C       -4.95651087      11.35486272       7.37196988       2.81284805       1.21039052       0.23996851
C       -2.48060070      11.39178182       7.48965831       0.92803429      -0.84028896       0.39524258
C        0.01726444      11.35306942       7.52107643      -0.17430588       1.52027402       0.81082052
C        2.48309610      11.37499798       7.44196558      -0.11976250      -2.36656779       0.37376847
C        4.89885053      11.30807304       7.39903231      -0.62999047       1.09451784       0.25928855
C        7.29912341      11.35356535       7.36770222       4.27675551       0.75119073      -0.19383572
72
Lattice="14.76 0.0 0.0 -7.38 12.782534959858314 0.0 0.0 0.0 15.0" Properties=species:S:1:pos:R:3:REF_forces:R:3 REF_energy=-11165.47649094158 config_type=fd_force_conv_snapshot_087 snapshot_index=87 split=validation degauss_Ry=0.0019000869 kgrid=8 lattice_temperature_K=450.0 trajectory_seed=1 pbc="T T T"
C       -0.03135867       0.02795353       7.53842859       1.72281704      -0.78269574       0.72107154
C        2.46554029      -0.06957797       7.50943200      -1.33303163       0.55674025       0.15823674
C        4.88406666      -0.00868967       7.51901465       1.64974680      -0.52851725      -0.86321163
C        7.38916805       0.01613445       7.38390197       1.02241588      -1.22675045       0.43678106
C        9.89257583      -0.04453531       7.58777757      -1.74146216       2.21773666      -1.16038976
C       12.30057234      -0.00377601       7.71304094       1.32458041      -0.83827579      -1.13835927
C       -1.19626679       2.12532641       7.49572220      -2.94137724       2.09445200       0.14039560
C        1.23144352       2.15635997       7.68558892      -0.42396746      -1.89094687      -1.21316654
C        3.63809589       2.12087451       7.59326145       2.02897552      -0.59853122       0.26477966
C        6.10711101       2.08180329       7.63846754      -1.76030475       1.55239866       0.03597230
C        8.62759884       2.10471494       7.52552578      -4.10697735      -0.47021852       1.01531758
C       11.03225490       2.08248922       7.50026902       0.81214438       1.35868610       0.75632316
C       -2.47045696       4.32232613       7.37321788      -0.91157280      -2.16075895       1.30587024
C       -0.01950694       4.25977738       7.42235537      -0.61419824       2.04576045      -0.24148084
C        2.41742160       4.27894964       7.51045701       1.17524946       1.03853850       0.51650171
C        4.86918200       4.30283507       7.65908309      -0.01714977      -1.18871201      -0.13736787
C        7.32002531       4.24400574       7.69764505       0.98498114      -1.47243993      -0.43331264
C        9.83935093       4.19159537       7.48674954      -2.08444758       1.97551714       1.22361988
C       -3.70228534       6.37725119       7.36939747       0.06867982      -0.65660704       0.89475470
C       -1.19116678       6.43831748       7.30845869      -2.18061070      -0.33928329       0.16988718
C        1.20961171       6.43933186       7.38023451       2.21305493      -1.59089219       0.00995017
C        3.70501064       6.44803153       7.50582271       1.57636623      -0.14492974       0.62182773
C        6.14397454       6.44677753       7.56019940       0.38009518      -2.62447438       0.15287497
C        8.61624648       6.36084777       7.50147026      -0.44377009      -0.32431175       0.27495017
C       -4.92087847       8.46950168       7.42573456      -0.28569301       2.08335461       0.59222816
C       -2.48427031       8.50989349       7.44676450       2.77559405       0.59323192      -1.25134871
C        0.04627222       8.55243686       7.31295961      -0.99629579      -0.32047695      -0.10623953
C        2.51596514       8.51718644       7.51671144      -1.42725587       0.17873872      -0.32409938
C        4.91938157       8.57178768       7.56218453       1.60481420       0.44259433       0.35615744
C        7.29386897       8.50165025       7.49634401       3.22878055       1.99229050       0.32165220
C       -6.10850215      10.59636951       7.47231216      -2.75146091       0.74631591       0.38261306
C       -3.63961064      10.65946214       7.45913685      -1.07563875      -2.59990543      -0.50810912
C       -1.20072526      10.69015357       7.24402088       1.04325442      -1.46343901       0.87634791
C        1.30928411      10.64523481       7.34903586      -0.75762363       0.11154911       0.16509413
C        3.73546114      10.63520211       7.58222591      -0.72014337       0.68135108      -0.34028216
C        6.17183149      10.74055674       7.53138554       1.15004107      -4.27400212       0.74458145
C        1.22776325       0.67730257       7.61292605       0.12710840       1.46115458      -0.38341447
C        3.66195557       0.67019931       7.51619313      -0.07789054       0.98825698       0.62016731
C        6.13498791       0.69145897       7.54353036      -0.35316030      -0.97828316      -0.60205594
C        8.64961157       0.69834606       7.45297386      -0.45682255      -0.49145583       0.50306410
C       11.09790359       0.65957409       7.62145513      -0.79677896       1.67385809       0.17987129
C       13.51743889       0.75256879       7.60935214       0.05321644      -1.96909530      -0.01270511
C        0.00235128       2.86875834       7.49188602       0.40132966      -1.34946509       0.74092714
C        2.46303816       2.82565730       7.64878178      -1.90314290       2.36155028      -0.51368327
C        4.85070052       2.87058830       7.63402799       0.86217599      -1.53657918       0.15091553
C        7.29060914       2.76373511       7.68148030       3.61976307       2.40393569      -0.72218560
C        9.77763901       2.82037659       7.57987750       3.50950825      -1.28998956      -1.06588424
C       12.25087186       2.84012283       7.45630614       1.92589176       0.52820846      -0.25794567
C       -1.22664771       5.04740294       7.41903237      -0.45571492      -2.46782863      -0.97069557
C        1.17248440       5.00671813       7.37903905       2.02272260      -0.82307543       0.79044247
C        3.67507001       5.05779753       7.59001199      -1.32388236      -2.58937573      -0.61795925
C        6.10453875       4.95260981       7.64650042       0.83591989       2.60466094       0.09628627
C        8.60583621       4.91421546       7.60135965      -1.21552501       1.08597715      -0.56253886
C       11.00362040       4.94573315       7.48732255       3.07356691       0.94961433      -1.55100487
C       -2.47946371       7.10318772       7.33797366       1.04530539      -0.29000321       0.31915721
C        0.01887730       7.11583253       7.27753876      -0.06060090       2.18869450       0.62725687
C        2.50730617       7.10778751       7.50020105      -2.61232540       0.96671422      -0.57467627
C        4.96439826       7.18993102       7.54399922      -1.75831883      -2.20909672      -0.05379288
C        7.38181896       7.10812233       7.50015322      -0.33561664      -1.20487782       0.30826370
C        9.85128068       7.07426383       7.45150222      -0.85269736      -0.16233251      -0.41929782
C       -3.66493908       9.21612113       7.46800249      -1.68395918       0.32816944      -0.27985378
C       -1.18689016       9.26687061       7.30904818      -1.38962958      -0.93295872       0.21140716
C        1.27581693       9.22324012       7.40019055       0.85022808       0.54338723      -0.26410449
C        3.71534448       9.23311951       7.57184954      -0.97134066       0.68596955      -0.17535129
C        6.13891837       9.29625583       7.59664753       0.05032523      -0.73889443      -1.03946667
C        8.57988133       9.19461639       7.48460419       0.43107733      -0.77351613      -0.43380475
C       -4.89960950      11.26903567       7.45001618       0.62083040       2.77639315       0.39236371
C       -2.44372992      11.35569912       7.36436855       0.42031572       1.30456232       0.48309486
C        0.08481999      11.34201636       7.29538704      -1.98704417       1.74298194      -0.10545225
C        2.51691844      11.38878557       7.45899607       0.31252479      -3.17518359       0.82105428
C        4.95855105      11.31738681       7.61671461      -1.98085089       4.02986225       0.47009407
C        7.38464073      11.38712204       7.53641304       1.86488129       0.18497262      -0.52891320
72
Lattice="14.76 0.0 0.0 -7.38 12.782534959858314 0.0 0.0 0.0 15.0" Properties=species:S:1:pos:R:3:REF_forces:R:3 REF_energy=-11164.989953983146 config_type=fd_force_conv_snapshot_093 snapshot_index=93 split=validation degauss_Ry=0.0019000869 kgrid=8 lattice_temperature_K=450.0 trajectory_seed=1 pbc="T T T"
C       -0.01587694       0.03202466       7.22665156       0.55650577      -0.64998619       1.01826612
C        2.47906260       0.06464301       7.54898829      -0.27790617      -2.34365129      -0.73792512
C        4.98477754       0.00241871       7.49053939      -2.91558548       1.47201621      -0.03310681
C        7.40149581       0.08005626       7.46590377       0.21161722      -3.71871094      -0.61622864
C        9.86433883      -0.05231117       7.46552235      -1.81538807      -0.11592821       1.19953584
C       12.26326869      -0.03090921       7.33067216       1.01336252      -0.74823087      -0.13075731
C       -1.30713085       2.07268768       7.58395090       2.49170235       1.47154930       0.79392143
C        1.21866576       2.14037163       7.73983667      -0.87414191      -0.83542469      -0.38949873
C        3.65630977       2.11992907       7.58801132       2.45037213       0.85182448      -0.12949361
C        6.18522731       2.09299611       7.47159211      -0.78606517       2.77718865      -1.12715697
C        8.71159996       2.13681939       7.48359515      -2.61898790       0.60351299      -0.73584767
C       11.06662379       2.07521388       7.48172113      -0.03234628       1.34116197       0.91578787
C       -2.43602316       4.25575822       7.65605354       0.53249269      -0.74104850      -0.48271665
C        0.03596304       4.22259714       7.83054186      -1.88971017       0.27829389      -0.21874817
C        2.48785764       4.25021473       7.72346323       0.17448123       0.57440527      -0.30025574
C        4.95949476       4.25307227       7.40747895      -1.69167378      -1.59052992       1.15940015
C        7.39554813       4.24993781       7.31848101       0.59029418       0.62863961       1.00214968
C        9.84728715       4.30757548       7.41387402       3.05663234       0.20421373       1.04420650
C       -3.64742983       6.45961814       7.47316298       0.59818052      -1.91700809       0.62692340
C       -1.17491491       6.37172838       7.60540197       0.09791506      -0.62774589       0.27708676
C        1.24181582       6.37873634       7.75968223       0.69544227      -0.63766109      -0.69944573
C        3.70466385       6.40032084       7.57857643      -1.16395408      -0.98901571       0.09079825
C        6.10574124       6.40984191       7.40077461      -0.11367027      -0.39021144      -0.00882043
C        8.54945410       6.41618951       7.37190902       1.37290404      -0.10892530       1.17093412
C       -4.94703501       8.51737880       7.41087562       0.51793099       0.33206389       1.28240506
C       -2.48680733       8.51302618       7.54591225       3.35400047      -0.38780335      -0.22203995
C       -0.00153087       8.51185785       7.55548424      -0.42607062      -0.46805313       0.37554124
C        2.44425941       8.54939823       7.52460935      -0.14342385      -1.21869236       0.65048807
C        4.86689747       8.50586808       7.40896685       1.06783056       1.13277946      -0.17948074
C        7.36209950       8.55626435       7.38734511      -1.38031704       1.36338170      -0.03627929
C       -6.12198099      10.65734193       7.40962429      -3.10365216       3.49168176      -0.31003108
C       -3.67997402      10.65894900       7.44563460      -1.97696416       0.17793757       1.04629218
C       -1.26967954      10.63502870       7.57366629       1.64136398       1.66251413      -0.43186177
C        1.19167936      10.66704085       7.60837394       0.55345181      -0.31360182      -0.94951251
C        3.66306532      10.62366577       7.31986473       0.40456488       0.20528356       1.05379440
C        6.08563677      10.60231049       7.23088643       1.70372197       2.50288768      -0.52866818
C        1.24720914       0.70868554       7.49287034      -1.59701887       1.97220170       0.22879733
C        3.71770735       0.74720241       7.54643413       0.44636408      -2.07009903       0.14509558
C        6.17751042       0.71962046       7.32809767       0.11313574      -0.23058964       1.88526062
C        8.64040264       0.70657221       7.49499394       1.30145257       0.70139000      -0.07029139
C       11.05292553       0.65665063       7.54242595       0.73210877       0.56567226      -1.61335258
C       13.48826989       0.70825899       7.27971199       0.04815625      -0.70819674       0.80312598
C       -0.06829492       2.82071868       7.86955373       1.83852851      -1.67093603      -1.78775591
C        2.47352793       2.83454879       7.69239664      -1.84882758       0.52739342       0.38310723
C        4.91004080       2.79215328       7.53154486       1.63576360       1.68521568      -0.78462329
C        7.44046184       2.85442085       7.37861404      -0.59029520      -1.77472041       0.65212124
C        9.89944791       2.88088147       7.46127131      -0.77921986      -0.75907399      -0.15392629
C       12.26315038       2.77245330       7.63073047       0.14498554       2.09964023      -0.48785963
C       -1.18394367       4.93569027       7.65698445      -0.48080169       0.59448584       0.77751008
C        1.23145079       4.94346285       7.78399748       1.74811695       0.28426142       0.40600264
C        3.73385154       4.96741853       7.55946126      -0.86320109       0.01304372       0.22908118
C        6.15694643       4.94997037       7.35991669       0.62155725       1.63901990      -0.22603082
C        8.62760129       4.98670747       7.45991222      -1.48408522       0.52393040      -1.60626765
C       11.17762901       5.04742147       7.51969850      -3.83581184      -1.77611755      -0.39823920
C       -2.37140435       7.09848899       7.55975077      -2.71500832       0.85120432      -0.40295023
C        0.04792434       7.08232430       7.66208727      -1.18694180       0.78036349      -0.28146946
C        2.46429460       7.08111546       7.63197013      -0.14449831       1.71815151      -0.00007071
C        4.87834838       7.13495400       7.51046224       1.20601759      -2.22496043      -0.57405457
C        7.29264492       7.16684824       7.37685273       2.77072541      -1.99398795      -0.00573999
C        9.82790188       7.08738754       7.47539803      -0.83558025       1.40527860      -1.08225188
C       -3.68128904       9.18731883       7.45209372      -1.68174238       2.40496362      -0.03643099
C       -1.22547371       9.22335001       7.54372201      -1.47835269       0.18599592       0.30746100
C        1.17403086       9.24968373       7.55231100       2.26709798      -0.42221602       0.27967457
C        3.70745444       9.24708609       7.45802247      -3.24431670      -1.46539613      -0.53676406
C        6.05865400       9.22115122       7.26095913       3.26074939      -0.72694677       0.98362899
C        8.60741417       9.30112912       7.52026668      -0.43401635      -3.86345017      -1.65134346
C       -4.95681352      11.41233579       7.46459217       3.11540750      -0.97304222      -0.17665278
C       -2.49363124      11.40004439       7.59668510       1.58007942      -2.19809780      -1.17274032
C       -0.00864636      11.39224616       7.50240383      -0.95823575       0.34861022       0.93633201
C        2.46293830      11.30753517       7.53413361      -1.03168497       1.41275614      -0.96766039
C        4.88228843      11.30208012       7.23409850      -0.16821957       2.42481228       0.18762420
C        7.34301945      11.40554096       7.23794660       0.65270256      -2.54966736       0.37199646
72
Lattice="14.76 0.0 0.0 -7.38 12.782534959858314 0.0 0.0 0.0 15.0" Properties=species:S:1:pos:R:3:REF_forces:R:3 REF_energy=-11166.00915242018 config_type=fd_force_conv_snapshot_099 snapshot_index=99 split=validation degauss_Ry=0.0019000869 kgrid=8 lattice_temperature_K=450.0 trajectory_seed=1 pbc="T T T"
C        0.04138969       0.02034406       7.57996237      -0.87267638       0.04900214       0.00871270
C        2.47107839       0.02776327       7.48826421       0.39333996      -1.51284276      -0.97694850
C        4.91803243      -0.02206287       7.30364526      -0.75485249       1.04847607       1.41502282
C        7.40644552       0.03146234       7.37310806      -1.10354627      -1.45667238       0.67660431
C        9.90351873       0.02990588       7.41080334      -1.45529273      -1.26663417       0.63751480
C       12.32250462      -0.06194275       7.53852406      -0.82843644       3.42335187       0.60465661
C       -1.23714960       2.12028344       7.44474213       0.32325966      -0.86488439       0.27689830
C        1.23736385       2.17961631       7.40699076       1.48932616      -1.15514317      -0.13856138
C        3.65298220       2.12023914       7.37633779       2.90848615       1.51618956       0.02375288
C        6.12588741       2.11254779       7.43729466      -0.76082902      -1.34181735       0.30894581
C        8.59039881       2.10641550       7.41780871       0.33871996       0.70672581       0.13661865
C       11.08112886       2.16537177       7.31181849       0.14946285      -1.82563108       1.26460095
C       -2.45361972       4.24599681       7.31829462      -1.36923456      -0.47313826       1.25217506
C        0.02884214       4.23428331       7.43538631      -2.21174290       1.46949627      -0.71176697
C        2.46988830       4.29641365       7.38612386      -1.34216110       1.71776302       0.33800185
C        4.87741960       4.30977546       7.53930882      -0.39039656      -2.51808933      -0.45974616
C        7.32048858       4.22993043       7.71582493       1.33784756      -0.81941212      -1.68517686
C        9.77228030       4.21270149       7.47923191       3.00426720       1.11618222       0.10299994
C       -3.66141474       6.31964040       7.46152166      -0.98975053       1.78474591       0.32546181
C       -1.24299981       6.35373371       7.37965634       1.43091918      -0.09029020      -0.71676648
C        1.24943904       6.43103382       7.33830970      -1.46357862      -0.01987206       0.56880927
C        3.70503291       6.44626479       7.54570893      -0.08176339       1.46809039       0.35948753
C        6.14433051       6.36966981       7.65951505      -1.39651474       1.39143501       0.36602482
C        8.57360236       6.40129830       7.58973929       1.44060119      -2.06351006       0.50685005
C       -4.96073230       8.47347173       7.48902028       1.36529717      -0.27174529       0.31925105
C       -2.47328923       8.45512028       7.48275817       0.15669228       1.47833598      -0.05982983
C       -0.00889908       8.50065239       7.48393720      -1.68329790       1.29032869      -0.33180498
C        2.42392236       8.56022942       7.59287344       1.39840193       0.17543203      -0.23248660
C        4.91476069       8.58208572       7.71319418       0.60090049       0.85955655       0.71160448
C        7.29946539       8.48231231       7.64610578       1.89164878       2.37871008       1.51411082
C       -6.12751195      10.63488890       7.60013559      -0.52587364      -0.30866171       0.16815709
C       -3.63427398      10.59957327       7.35120861      -2.05310352       1.17244978       1.10185372
C       -1.18904444      10.64517938       7.51005797      -1.11437550       0.82576557      -0.23333070
C        1.26544552      10.69290944       7.50705050       0.51842002      -1.30746381      -0.26651310
C        3.73258197      10.67200158       7.66927311      -0.45612784      -0.25810765      -0.03749954
C        6.17464981      10.71155984       7.76005609       0.59137275      -1.56662792       1.06982600
C        1.27202121       0.75116569       7.45024774      -1.35437101      -0.22900507       0.72837604
C        3.68774512       0.72707632       7.39873366       0.06612492      -1.05979175      -0.45945305
C        6.11641518       0.67717788       7.40834406       1.86076007       0.91906422      -0.94910628
C        8.63118208       0.71880460       7.41954861       0.53000592      -0.70954425      -0.68956987
C       11.10361231       0.74518700       7.47779390       0.31411502      -1.09792070      -1.05533089
C       13.51027365       0.67883595       7.52357110       2.20585302       0.85132311      -0.14128829
C        0.01077669       2.82285535       7.46287859      -0.51070311       0.69414746      -0.31893943
C        2.49428620       2.89873823       7.33131072      -2.06861910      -1.09884064       0.67613868
C        4.93557507       2.82834389       7.44629601      -2.85375379       1.68485856       0.00732533
C        7.32407897       2.77358847       7.52423780       2.24947281       2.91191548       0.48857028
C        9.82989607       2.81137900       7.35852756      -1.05671157       0.61736969       0.35613404
C       12.31362447       2.83211409       7.40808105      -0.15064556       0.63187251      -0.97657080
C       -1.25398430       4.92585335       7.33228206       2.08774811       0.82998655       0.51071545
C        1.19338353       5.03035584       7.41349892       2.25578744      -2.29991040      -0.53167585
C        3.65060732       5.05639008       7.49256840       1.60809416      -1.87041327      -0.25478398
C        6.09450441       4.95065934       7.62190138       1.44052688       0.91298408       0.66945973
C        8.61065326       4.94116183       7.62054787      -3.41821918       0.64069654       0.22267116
C       11.05487253       4.94704382       7.49290723      -0.04762943      -2.00714968      -1.37989410
C       -2.42396445       7.06100773       7.43221062      -1.99631094      -0.79783465       0.16718393
C       -0.02533297       7.10314467       7.29746599       1.26727052      -0.17912002       1.29237297
C        2.46588952       7.13563117       7.51903212      -0.20566126       0.63510002      -0.49048729
C        4.95185258       7.19483340       7.65606175      -1.01758658      -3.38864583      -0.28209193
C        7.33294951       7.09136429       7.70331949       0.98098436      -0.83204626      -0.88162305
C        9.84958970       7.02480366       7.51080191      -0.91296171       1.84050543      -0.01119895
C       -3.68107076       9.17864023       7.44393329      -1.51104067       0.14935178      -0.17681554
C       -1.28994305       9.22137753       7.54590230       2.90278935      -0.37857052      -0.53048697
C        1.19773110       9.25740144       7.52958349       0.71451548      -0.20916130       0.15485343
C        3.68954044       9.28717455       7.68054269      -0.93172562      -1.80462311       0.01384333
C        6.15381736       9.30021469       7.83845502      -0.70699629      -1.67825725      -1.60900047
C        8.56864531       9.16891027       7.63189425       0.62274947       1.22640875      -0.93243319
C       -4.90069093      11.35602281       7.42813607       0.21821055      -0.72404322       0.54714592
C       -2.44987442      11.37279113       7.43916547       1.21515529      -2.05527353      -0.89395586
C        0.06432672      11.38645177       7.44304986      -1.95023266       0.04111862       0.13884523
C        2.52907057      11.34770918       7.48473976      -1.18401075       2.41620242       0.38138613
C        4.95472714      11.36250527       7.75599971      -0.78425537       0.15422274      -0.98610497
C        7.39926770      11.38373408       7.73283736       1.63586156       0.51153152      -1.01172164
72
Lattice="14.76 0.0 0.0 -7.38 12.782534959858314 0.0 0.0 0.0 15.0" Properties=species:S:1:pos:R:3:REF_forces:R:3 REF_energy=-11165.580947416882 config_type=fd_force_conv_snapshot_105 snapshot_index=105 split=validation degauss_Ry=0.0019000869 kgrid=8 lattice_temperature_K=450.0 trajectory_seed=1 pbc="T T T"
C       -0.05510039      -0.02758745       7.37131459       1.86190781       0.84856792       0.34623452
C        2.51276291      -0.00862928       7.36780869      -1.21477502       0.70145685       1.61975745
C        4.97503868       0.02681931       7.61046882      -2.37800097       1.01468123      -0.70148256
C        7.43658172      -0.01684467       7.57445985      -1.05749267       2.89992694      -0.54779127
C        9.85333871      -0.06241996       7.58023071       0.26087210       3.47048765      -0.71903265
C       12.33852740       0.02679713       7.40101584      -2.98206186      -1.27144394       0.31900191
C       -1.26653966       2.13350727       7.49257594       0.08272576      -0.89606545       0.00249063
C        1.22763984       2.09930968       7.50133133      -0.97095525       0.38622880       0.22613469
C        3.60925113       2.08447283       7.65615888       2.03293373       3.51090924      -0.26188820
C        6.13319560       2.10968170       7.64714766      -0.66158444       1.22422306       0.31158994
C        8.59491184       2.11316297       7.54364016       0.77114969       2.30448825       0.92574369
C       11.02895321       2.10181735       7.58163963       1.14634846      -0.10469815      -0.53834966
C       -2.45109038       4.21903050       7.39938584      -0.68924771       1.14096791       0.71346673
C       -0.04169645       4.23080393       7.63867769       1.33393614       0.14702956      -1.47766287
C        2.46625258       4.26625330       7.69504994      -2.27464391       1.11933439      -1.01307507
C        4.89098978       4.28488321       7.75478815       1.08713955      -2.47154208      -1.63682546
C        7.39080681       4.25043945       7.54012038      -0.14229462       0.09845962       1.19232312
C        9.90805055       4.26905191       7.49348678      -0.84612048       0.66701204      -0.03286178
C       -3.63975508       6.42631951       7.46107906      -1.05701393      -0.54401380      -0.08539868
C       -1.29129244       6.37041717       7.47589497       2.93159574       0.97580590       0.16101122
C        1.17337925       6.37297892       7.48166923       1.32991339       0.34014024       0.39587095
C        3.64574368       6.36951342       7.51218355       1.02190064       0.73202907      -0.45750827
C        6.14162276       6.41390615       7.33896033      -0.64689315      -1.40269541       0.72214883
C        8.65857215       6.38171889       7.38701625      -2.62268155      -1.09770036      -0.23636331
C       -4.92850803       8.53467639       7.38501626       1.08320756      -0.66979500       0.23210402
C       -2.39594744       8.57352838       7.57894963      -1.51835829      -0.80166482      -0.06040755
C        0.04314100       8.53018403       7.57739166      -0.74752768      -0.78269497       0.12772032
C        2.46107034       8.49826181       7.47312726       0.87278796       0.73767958       0.16585852
C        4.85805786       8.53929585       7.22159855       2.57783148      -2.14281600       2.05970869
C        7.36799116       8.55203532       7.32911735       0.21227568      -1.45569485      -0.86230995
C       -6.17558329      10.70395777       7.32284478       0.82279132      -0.98985106       0.56351074
C       -3.63470904      10.65935174       7.53561084      -1.67249798       1.41865014       0.15516556
C       -1.18570246      10.68945665       7.68484433      -0.24511663       0.00322802      -0.28570947
C        1.24124061      10.65505933       7.47664947       1.06857361      -0.58288066       1.89126029
C        3.70789089      10.68715229       7.41709282      -0.15613435      -1.18558452       0.71399252
C        6.09426331      10.63390605       7.37504174       1.00777808      -0.86186643      -0.21923848
C        1.25514825       0.64949099       7.41129832      -1.46449805       1.63304234      -0.42214634
C        3.69719539       0.73545294       7.55518836       0.35569412      -2.50021373      -0.34082595
C        6.15913433       0.72225252       7.55053049       2.40907815      -1.10593149       0.94461045
C        8.65900838       0.72767694       7.46137222      -1.10763253      -2.08275066       1.47567900
C       11.06432473       0.67079052       7.52751064       0.48730247       0.68869029       0.16422587
C       13.50234803       0.72005361       7.43163487       1.91178772       0.59543021      -0.17304398
C       -0.04133512       2.79474918       7.51900898       1.27435083       1.10279577       0.57184985
C        2.42030134       2.89473978       7.63708849      -0.11041628      -3.88556808      -0.06213945
C        4.86804622       2.77739777       7.66816350       0.53045895       2.52343645       0.97392874
C        7.35000972       2.83514047       7.75189433       1.20303948      -0.18784223      -2.40671274
C        9.85495582       2.86600460       7.57587381      -1.12649980      -1.51233214      -0.35327523
C       12.26501389       2.81265588       7.51738614      -0.02079431       0.17202943      -0.35835033
C       -1.25153965       4.94226188       7.48041301       0.17843405       0.23700609       0.19772118
C        1.19692502       4.96946118       7.56585163       0.09884066      -1.10124771       0.81716215
C        3.66975728       4.96328209       7.61240839       0.48409810       0.60286558       0.99559131
C        6.14124664       4.96689758       7.56667314       0.19483177       0.69925110      -0.26169588
C        8.66447810       4.94223460       7.46776201      -1.25382700       0.87491658      -0.16228417
C       11.13159748       5.01635577       7.40470934      -0.70477486      -1.67770241       0.39419717
C       -2.44004720       7.15510646       7.48352766      -0.17783498      -0.38081509       0.15761685
C       -0.01613045       7.10202835       7.50338547      -1.29904447      -0.28060917       0.04962435
C        2.42474028       7.08280715       7.48818600      -0.00625061      -0.03401415      -0.08732880
C        4.88201494       7.09521277       7.36424559      -0.17231970       0.26419628      -0.53957428
C        7.37036368       7.10133309       7.26588684       1.49188955       0.65286711       0.85292568
C        9.85390373       7.05106967       7.47005172       0.73081988       3.60724899      -0.75002319
C       -3.67184075       9.25124132       7.51935385       0.48289508      -0.28626945      -0.17072331
C       -1.16921449       9.24987230       7.68007106      -0.58349926       1.21067283      -0.57424201
C        1.26745236       9.22422773       7.54020577      -0.75984634       0.64433311      -0.52643312
C        3.70810498       9.24259488       7.43388732      -2.36628548       0.85897780      -0.98761215
C        6.11133481       9.20314911       7.39147566       0.08079126       1.07855721      -1.45817956
C        8.62120804       9.26455311       7.23700348      -0.64293623       0.15321229       1.45676134
C       -4.90047098      11.40150484       7.50017119      -0.00911533      -2.58101039      -1.60784579
C       -2.41850694      11.43154437       7.59138878       0.26058259      -3.26273942       0.48904105
C        0.05267360      11.39451414       7.64298964      -0.81143887      -1.75257499      -0.69677178
C        2.47289301      11.35706754       7.59606266      -0.15377639      -1.72650786      -1.54211117
C        4.94128874      11.39055164       7.33813131      -1.78169427      -0.31676634       0.53054945
C        7.29026768      11.34357312       7.36581936       2.75532167       0.59506640      -0.29935406
72
Lattice="14.76 0.0 0.0 -7.38 12.782534959858314 0.0 0.0 0.0 15.0" Properties=species:S:1:pos:R:3:REF_forces:R:3 REF_energy=-11166.024427394455 config_type=fd_force_conv_snapshot_111 snapshot_index=111 split=validation degauss_Ry=0.0019000869 kgrid=8 lattice_temperature_K=450.0 trajectory_seed=1 pbc="T T T"
C        0.01068294       0.04456743       7.55654327       0.07870275      -1.21669924      -0.23712693
C        2.43744635       0.03236538       7.49507029       1.94409646      -1.69984475      -0.10379903
C        4.92613992      -0.00868681       7.47189034      -0.70057496       1.11836688      -0.68027224
C        7.35765194      -0.00181259       7.24406538       0.07737349       0.88010558       0.42267599
C        9.80318648       0.01254323       7.36432240       1.16320718      -0.81120670       0.00275442
C       12.25906103      -0.04298065       7.46834869       0.46713011       2.11234122       1.31611608
C       -1.18944785       2.15175722       7.63094978      -2.85800176      -2.08470881      -0.70056570
C        1.23445739       2.12707539       7.42918437       0.69614135       0.79686843      -1.39747376
C        3.70974066       2.13469630       7.33987175      -0.36629915      -0.52520001      -0.05322955
C        6.12295494       2.15048667       7.29232186       1.08937178      -0.93537324      -0.98382620
C        8.61751984       2.13511814       7.29318028      -0.15171411      -1.46115433       0.30161997
C       11.06193161       2.09013856       7.58957491       0.46537481       0.98517551      -0.24962995
C       -2.44177828       4.23161104       7.68522565      -1.01565697       0.12162758      -1.13467102
C       -0.01499309       4.25405478       7.52243731       2.33173629      -0.49107839      -0.81477848
C        2.46788566       4.24085407       7.36470221      -0.62063191       0.70377778      -0.18717528
C        4.91261171       4.28327082       7.34689723       0.60046109      -0.89068541       0.73828764
C        7.39256266       4.23118215       7.28031202       0.52732863       1.65470337       0.71904294
C        9.82141146       4.21801600       7.54941365       1.27259759       1.46610627      -0.51880954
C       -3.65210804       6.31560753       7.62802443      -0.68396152       2.74808736      -0.37721374
C       -1.21709418       6.29932350       7.49381676      -0.13670247       3.84193235       0.04394915
C        1.24105164       6.41177833       7.47695424      -0.83953769      -0.04917183      -0.16828693
C        3.73130873       6.44508150       7.52661282      -1.09774278      -2.34877936      -0.22882561
C        6.17176797       6.33978103       7.51726828      -0.00844685       3.00068462       0.10378258
C        8.64436123       6.41257012       7.59587758      -0.12395545       0.30322999      -0.38111308
C       -4.92130431       8.52383607       7.58240786       1.50263111       0.70015381       1.61068814
C       -2.48895701       8.50536265       7.59978748       1.74583124      -0.32825120      -0.39527112
C       -0.04248451       8.53552324       7.42032821      -0.14123712       0.68646140       0.84249626
C        2.44860126       8.49027244       7.49638610      -0.58877440       1.91593105       0.91908916
C        4.94751778       8.54681522       7.74892632      -1.80396311       0.36294824      -0.96834610
C        7.34813106       8.51396030       7.60196194       0.30276848       2.27487634       1.36568412
C       -6.16602498      10.64428922       7.62076267       0.86046930       0.76019936       0.26527717
C       -3.65680140      10.66816673       7.68107521      -0.05917343       0.49928355      -1.13787873
C       -1.22874330      10.66649356       7.41701920       0.71735758      -0.01757478       0.80767761
C        1.24843337      10.66839649       7.38088199      -0.63029848      -0.65232384       0.24090285
C        3.67735167      10.59379097       7.67550933      -2.05084918       2.93151217      -1.81989521
C        6.12005928      10.74889859       7.69505939       0.36469607      -1.99599726       0.08629008
C        1.24300066       0.73890891       7.38448495      -1.20294229      -0.60766172       1.45205211
C        3.69383209       0.72877248       7.49237800      -0.11865975      -0.81420409      -0.52953104
C        6.11155789       0.71493509       7.25729550       0.92737917       0.30581704       0.85217774
C        8.58507059       0.70033914       7.28387992       0.07896578       1.06609790      -0.25020253
C       11.05192024       0.69465003       7.47764801      -0.19374574      -0.01447094      -0.22150208
C       13.52150818       0.66402272       7.62084105      -0.48201602       2.65241224      -0.99477653
C        0.01189644       2.84360824       7.47955891       0.31451122      -0.16936808       0.89679564
C        2.47807740       2.79961325       7.25416942      -0.86097375       1.99662076       1.46941811
C        4.91362546       2.86553818       7.31168844       0.26760684      -0.06680523      -0.04894712
C        7.39453182       2.82134417       7.19620284      -0.68252376       0.73761504       0.77159192
C        9.84247686       2.79847503       7.53925612      -0.86619206       0.84883094      -0.79963314
C       12.27477469       2.84775875       7.61185696       1.92533358      -2.05159531       0.83539847
C       -1.21117863       4.90743713       7.57341321      -1.19450368       1.15495677       0.32759274
C        1.21011523       4.99079130       7.40374276       1.01890967      -0.90365663       0.60327773
C        3.69914835       4.95967884       7.46253894      -0.43956274       1.95003468      -0.67582989
C        6.16760866       4.94461825       7.45049507      -0.18205699      -0.02816926      -1.19634818
C        8.62902232       5.01262824       7.39521989      -0.47022854      -2.44067855       0.84838357
C       11.09186229       4.93137222       7.58503608      -1.07110821      -0.98075296       0.93081879
C       -2.44507472       7.05636817       7.52062463       0.05034297      -0.44229762       0.78236098
C       -0.02546299       7.13928644       7.46226894       0.86234954      -2.90651900      -0.05558159
C        2.48281094       7.10355677       7.53581778      -0.54905857      -0.52462486      -0.48221451
C        4.93998297       7.15041355       7.51441237       1.45114965      -1.79421297       1.20904918
C        7.39676970       7.12631249       7.58694000      -0.74850855      -2.11160615      -0.30842748
C        9.89428574       7.10554460       7.68565239      -0.84138862      -0.73628887      -0.99243579
C       -3.63887086       9.27198781       7.65342964      -3.35377833      -1.88915764      -0.17331241
C       -1.28704041       9.25423249       7.53121081       1.74976220      -0.71164665      -0.85368621
C        1.20243840       9.22730278       7.45828257       0.80292878       0.19516576      -0.59664274
C        3.65765885       9.21734579       7.69083701       0.98631605      -1.18223000      -0.11358954
C        6.11865849       9.30904129       7.74934937       1.65107143      -0.97073105      -0.62421731
C        8.59767662       9.22182679       7.67967808      -0.22996769      -0.11748913      -1.22301490
C       -4.90066691      11.34867694       7.58828964      -1.23782085       1.22470334       0.33555519
C       -2.43112216      11.37347268       7.49102347      -0.86398476       0.02694259       0.75492860
C        0.03298809      11.39569730       7.39494986      -1.66066833      -1.64074151      -1.02937046
C        2.46010692      11.37727726       7.36433572       0.55267894      -1.41575687       1.52326961
C        4.83817488      11.36552442       7.60357651       2.52506370      -0.95518642       0.42164678
C        7.38374431      11.41855455       7.62664393      -0.24443478      -1.03967004      -0.09319889
72
Lattice="14.76 0.0 0.0 -7.38 12.782534959858314 0.0 0.0 0.0 15.0" Properties=species:S:1:pos:R:3:REF_forces:R:3 REF_energy=-11165.759437904268 config_type=fd_force_conv_snapshot_117 snapshot_index=117 split=validation degauss_Ry=0.0019000869 kgrid=8 lattice_temperature_K=450.0 trajectory_seed=1 pbc="T T T"
C       -0.05000027       0.02151760       7.50247161       1.92151420      -1.74250655      -0.85876748
C        2.47690648      -0.02945332       7.44238580      -0.35343155       0.12094006      -0.73752300
C        4.91298787       0.04741197       7.57132662       1.00105696      -0.98091134       0.37372836
C        7.40509323       0.04868745       7.81633378       0.81842584      -0.74957093      -1.38561686
C        9.85011311      -0.04237571       7.57232609       1.25491354       2.03037934       0.24040046
C       12.29065077       0.01289411       7.45251599       0.26720010      -0.55651914      -1.16236849
C       -1.25898836       2.14186365       7.56188847       0.52297087      -1.53415926      -0.67159657
C        1.17263177       2.09526099       7.41381350       2.54291076       0.79886181       0.53395951
C        3.64643617       2.14384771       7.50049760       1.63705712      -0.47148016      -0.08971839
C        6.13832718       2.16774596       7.73322836       0.97164817      -0.26481463      -0.53720732
C        8.62356927       2.17856273       7.64229982       0.61553804      -1.23878013       0.45311862
C       11.07954703       2.10262451       7.56446142      -0.45831534       0.49909432      -0.27731713
C       -2.42671855       4.25522119       7.63124959      -1.67759802       0.13751417      -0.96227444
C       -0.03075305       4.22006533       7.59693458       2.35456100       1.06958046      -0.16023706
C        2.45408689       4.26321430       7.49735729       0.38255110      -0.00555770       0.04177374
C        4.94166561       4.18660198       7.56112857      -0.59327357       5.69372081      -0.95769376
C        7.35672340       4.26452974       7.59579811       1.79836248       2.95410883      -1.15968862
C        9.89358218       4.26078495       7.54679026      -1.64782722       0.64532710      -0.55429385
C       -3.68608401       6.40818790       7.37650196      -2.59444364      -0.49626173       0.60472192
C       -1.25802839       6.35861390       7.50336125      -0.36439062       1.01232508       0.63150639
C        1.21065273       6.37123623       7.53837475      -0.55445120       1.26071267      -0.15560059
C        3.69496331       6.42574662       7.36804357      -0.57903274      -2.87268611       0.93555065
C        6.16566180       6.38980902       7.32974397      -0.04567051       0.86100640       0.69435186
C        8.56751032       6.36286223       7.36658473       2.23435550       0.95173780       0.32602102
C       -4.92778126       8.50434508       7.43512372      -0.35730723      -0.23224929      -0.44140853
C       -2.40965487       8.56606640       7.49445629      -2.13569275      -3.00644800      -0.14777518
C        0.00164065       8.50762743       7.66074958       0.04922326       0.06417371      -1.03386166
C        2.47080661       8.56757510       7.41202702      -0.29746249      -1.43527926       0.98819064
C        4.84311085       8.47522310       7.33070218       5.79024748      -0.09270241       0.22279175
C        7.41115624       8.56252758       7.37229891      -0.83083090      -2.13548115      -0.05873942
C       -6.11585650      10.68159966       7.48174882      -1.19915069      -0.74299662      -0.69193194
C       -3.66735288      10.61626308       7.36105532      -0.44406860      -0.20716921       0.92768307
C       -1.26142721      10.68246294       7.54723704       1.20605796       0.66851562       0.13148082
C        1.14624123      10.64656618       7.59259099       4.09272932       0.72311248       0.45230050
C        3.73813082      10.62668834       7.33894570      -1.16316141       2.49260327       1.61336312
C        6.15893093      10.62016612       7.31744533       0.25258543      -0.03060795       0.97400664
C        1.22634119       0.68699836       7.42585083      -0.68464775      -0.23454863       0.43666151
C        3.68413117       0.72073957       7.46053452      -0.26496889       0.19911394       0.42571863
C        6.18043833       0.75430516       7.77471430      -1.30143174      -0.35936412      -0.52441891
C        8.69587486       0.72324850       7.72634684      -3.75530160       0.86370580      -0.03725786
C       11.06838485       0.70636334       7.45435545       0.01246728      -0.85493628       0.83780682
C       13.50549536       0.71417645       7.41489913      -0.04912093       1.09289265       1.29895783
C       -0.02414374       2.81298220       7.54009053      -0.33753622       0.21428191      -0.04357866
C        2.45139667       2.83408485       7.44908538      -2.04578102       0.31933718       0.04898723
C        4.90828594       2.85048302       7.57347517      -0.27727676      -3.09405217       0.66612629
C        7.37853754       2.90741958       7.66089910      -0.23261464      -3.33377489       0.62240005
C        9.87739620       2.83623730       7.58675156      -0.88342436       0.84865688       0.09973001
C       12.28664495       2.81802813       7.59885615       0.39637463       1.44386134       0.23321268
C       -1.19739235       4.95880442       7.59697012      -2.07721867      -0.61874138      -0.13367448
C        1.20203754       4.97081894       7.54937332       0.77860486      -1.19047399      -0.15783077
C        3.72735990       4.94400003       7.49764157      -1.77231515       1.07932545      -0.48457838
C        6.14795872       4.99905500       7.45956133       0.09484337      -2.17615960       0.72170737
C        8.62673952       4.98352259       7.47748881      -0.59944036      -2.32301459       0.41363702
C       11.08856177       4.99156914       7.46825552       1.26363961      -0.96241174       0.66182329
C       -2.50586715       7.08914820       7.46588519       3.35339498       1.83635901      -0.00061912
C       -0.05671931       7.07538259       7.57867942       1.71768512       0.77955565       0.05066179
C        2.43281444       7.12460687       7.41665984       0.85095647      -0.16619148       0.14197272
C        4.92877386       7.08304339       7.37586432      -1.03734705       0.05939351      -0.76864080
C        7.41202246       7.11065765       7.34977045      -2.05722834       0.49057188      -0.13214982
C        9.78728494       7.08866994       7.39324786       1.76827517       0.07384671      -0.26001515
C       -3.69144028       9.17021448       7.44545746       1.55165279       2.36753170      -0.37485296
C       -1.19696620       9.27085143       7.54926681      -0.54006073      -0.56607695       0.35074372
C        1.23767690       9.22739788       7.60880551      -0.99062008       0.28961909      -0.62474670
C        3.74533952       9.23173369       7.40176576      -4.13475169       0.48668695      -0.82996650
C        6.13033156       9.15391411       7.35633336      -0.03501997       2.82497183      -0.54054102
C        8.63251573       9.27768912       7.40884881      -0.39452498      -0.86650676       0.33927326
C       -4.87741284      11.31181746       7.36443786      -0.59328745       2.42163774       0.88082832
C       -2.48736255      11.38715397       7.52543599       0.70323888      -0.07986592      -0.62476856
C       -0.01784632      11.40008739       7.58154140      -0.93777697       0.39921622       1.41060207
C        2.48225886      11.36655361       7.62337615      -0.94964132      -3.07445600      -1.84526428
C        4.95409579      11.38624677       7.31611778      -0.86221765      -1.50175436       0.33489184
C        7.37797105      11.36054156       7.49355784      -0.09537919       0.12423031      -0.69416726
72
Lattice="14.76 0.0 0.0 -7.38 12.782534959858314 0.0 0.0 0.0 15.0" Properties=species:S:1:pos:R:3:REF_forces:R:3 REF_energy=-11165.395098835243 config_type=fd_force_conv_snapshot_003 snapshot_index=3 split=validation degauss_Ry=0.0019000869 kgrid=8 lattice_temperature_K=450.0 trajectory_seed=2 pbc="T T T"
C        0.03160171      -0.08775355       7.41743302      -0.83941247       3.59910888      -0.46095560
C        2.42433333       0.01319132       7.47112835       0.40906071      -1.84112815       0.25350563
C        4.85456670       0.02566661       7.41125377       3.11816064      -3.79547277      -0.12011525
C        7.38391907       0.02291454       7.45783341      -0.45693028      -1.42317888       0.36886666
C        9.83356927       0.05474719       7.58409444      -1.15067639      -0.35999609      -0.25553346
C       12.30535169      -0.02185163       7.38554248      -0.59532917       1.95848435       1.25241366
C       -1.18189017       2.11809701       7.58338366      -1.17332344       0.07830346      -0.64660519
C        1.26061417       2.19541174       7.64035598      -0.98600701      -2.56694492      -1.39635918
C        3.70899154       2.09154918       7.35971459      -1.74130327       0.97003557       1.59683324
C        6.12015641       2.10087196       7.47171678       0.20399595       0.71892904      -0.68683241
C        8.53792005       2.20180571       7.43834508       2.01299406      -1.52182979      -0.22559913
C       11.04291970       2.18071855       7.50731414       1.49443212      -2.57158293       0.37281664
C       -2.50769883       4.24238058       7.59841773       2.43752021       0.98058815      -0.07534155
C       -0.00678442       4.28104732       7.56350225      -1.89835525      -0.78518277       0.57052573
C        2.41018346       4.26003631       7.52263084       0.12276889      -1.08013741      -0.78171332
C        4.94399279       4.26900555       7.38550043      -2.31812718      -1.07008851       0.91900714
C        7.35106941       4.28490869       7.53733128       0.69476375       1.49522196      -0.40447952
C        9.81462562       4.24052661       7.48506905       0.54769897       1.88465564      -0.61129186
C       -3.67699094       6.36624263       7.54944932      -0.08997216       0.29817058      -1.40433937
C       -1.22190403       6.41476889       7.50177394       2.02330701      -1.85522628       0.51873086
C        1.26105362       6.41926639       7.51382658       0.48429325      -2.35579821       0.24611936
C        3.77578149       6.30723067       7.50246319      -4.06464413       1.92303990      -0.05260194
C        6.11236783       6.43980521       7.54042607       2.38378364       0.47678280       0.63732479
C        8.60913776       6.39719045       7.45451960       0.34934350       1.18416321       0.89201467
C       -4.86549329       8.50203392       7.32316346      -1.54287298      -0.87443836       1.72801889
C       -2.44332362       8.48239648       7.54986877       1.13723724       1.51706399      -1.51486493
C        0.01979800       8.54730008       7.54501618      -0.72240080      -0.56685831       0.43880786
C        2.46182367       8.50225779       7.58632866      -0.14109700      -0.50339140       0.57067332
C        4.86331627       8.54265011       7.65455005       2.03335565      -0.03891827      -1.32781872
C        7.36242692       8.53447660       7.61722102       2.53754307      -0.86229812      -0.65691763
C       -6.10268254      10.59170029       7.42575290      -0.02520324       0.66265170      -0.02110901
C       -3.68169647      10.63846069       7.41278794       1.43806119      -1.03009268       0.06919533
C       -1.26220548      10.70216969       7.46586237       2.30507626      -2.39515743       0.55914732
C        1.23171953      10.66923227       7.66219998       0.03796028      -0.82819372      -0.16205920
C        3.71258562      10.70279346       7.54009215      -1.86604188      -1.86571535      -0.13620779
C        6.15027019      10.61628537       7.35480008       1.45359451      -0.20410702       0.19952352
C        1.21982854       0.75966826       7.50346245      -0.13384237      -2.23698522       0.29192665
C        3.65847894       0.65049013       7.47942721      -0.43858212       3.51786125      -0.93037373
C        6.12762308       0.66807011       7.39514753      -0.39005409       2.08500526       0.51350355
C        8.57587419       0.79130497       7.48820030       0.44151961      -1.53374017       0.22079528
C       11.05512006       0.72958567       7.60862482       1.12083206       0.22375591      -1.75877546
C       13.53030091       0.70362834       7.41432568       1.35661044      -1.58270991       0.43503400
C        0.02923049       2.86240822       7.57432912      -0.64866105      -0.06164220       0.75260406
C        2.48634527       2.83574219       7.50572772       0.00835429       0.29652378       0.01612853
C        4.89692287       2.83600921       7.43617396       1.63032597      -0.46158141      -0.69261765
C        7.32678437       2.87941307       7.44137634      -0.53511882      -0.29728869       0.62741396
C        9.81634411       2.84265793       7.40744388      -0.83520409       0.96297686       0.89590218
C       12.31985706       2.82740834       7.57225758      -0.88028350       0.48806968      -0.07924834
C       -1.23600401       4.98241829       7.65079285      -1.15721702       0.05323289      -1.35449725
C        1.16641262       4.96451712       7.52043407       3.16061726       1.74509308       0.17570970
C        3.63161005       4.89302000       7.40694834       3.83693258       2.27175810       0.40403215
C        6.13756566       5.03131165       7.54586961      -0.33457765      -1.26644674      -0.93275278
C        8.62664492       5.01365534       7.49670349      -2.04547300      -2.63624463       0.04153489
C       11.04313740       4.97108121       7.49922457       0.31112996      -1.59877494       0.84150330
C       -2.43813168       7.06543929       7.45686720      -0.72184107       1.31012824       1.22901868
C        0.06996365       7.10601335       7.50313630      -2.98655435       1.40882338       0.02262519
C        2.53258571       7.04577863       7.56266701      -0.70783447       1.31023031      -0.31355194
C        4.89574597       7.14369124       7.54706576       0.90020132      -1.72640758       0.42296704
C        7.39117132       7.13638826       7.61245851      -1.17553279      -1.61372307      -0.84054247
C        9.86839815       7.06442858       7.41781408      -0.26924798       1.53461177       0.11539908
C       -3.64331600       9.20092683       7.41565225      -0.97487310       0.42160718      -0.02614323
C       -1.21095644       9.27374499       7.52162800      -1.05009201      -1.74505425       0.14258361
C        1.22035473       9.22390274       7.68765358       1.59555386       0.76490988      -1.10808350
C        3.65731256       9.23711701       7.57086914       0.62988248       1.68190359       0.44226702
C        6.17208140       9.20347447       7.52940781      -3.26153898       1.61807030       0.47905745
C        8.63161447       9.19643500       7.50415091       0.69868134      -0.19083525      -0.98708224
C       -4.87299508      11.32527471       7.46437557      -2.66919255       1.57876198      -0.53751894
C       -2.46350266      11.34256499       7.38107845      -1.63668817       2.64135058       0.49637203
C       -0.00501097      11.34654886       7.58532336       0.34633685       2.33577112      -0.78853574
C        2.45749036      11.39792008       7.57672296       0.33325019       0.35921654       0.47912405
C        4.94091506      11.35112380       7.39661622      -0.06545180       0.29579051      -0.00300588
C        7.43077691      11.28842117       7.29937383      -1.06562070       0.69452027       1.05444643
72
Lattice="14.76 0.0 0.0 -7.38 12.782534959858314 0.0 0.0 0.0 15.0" Properties=species:S:1:pos:R:3:REF_forces:R:3 REF_energy=-11165.111557575934 config_type=fd_force_conv_snapshot_009 snapshot_index=9 split=validation degauss_Ry=0.0019000869 kgrid=8 lattice_temperature_K=450.0 trajectory_seed=2 pbc="T T T"
C        0.01415498       0.00425536       7.36968992      -0.65782729       0.05631539       0.47184191
C        2.52048665       0.00919065       7.48339514      -2.13163864       1.37561732      -0.89904484
C        4.96933029      -0.01618811       7.46657393       0.02591543      -0.06310593       0.28946045
C        7.37134951      -0.03896072       7.43201297       2.14223801       0.40302505       1.75744671
C        9.78055802       0.02755252       7.59674252       2.06313854      -1.48527822       0.38806174
C       12.26663814      -0.03026829       7.45327153      -0.75288971       0.90076054      -0.64473549
C       -1.25692547       2.13924849       7.38001159      -0.43658771      -0.35363930      -0.20352518
C        1.13075146       2.17723420       7.39591296       3.04715217      -1.54893102       0.32038337
C        3.60139230       2.08234821       7.50871152       2.74812696       1.47856558       0.45662021
C        6.22962201       2.12698726       7.66343007      -3.43027662      -0.91953602       0.14831769
C        8.63871973       2.20263086       7.63360035      -0.99342053      -3.05340175       0.30082087
C       11.03805492       2.18714308       7.46259095       1.95413765      -3.70562660       0.14621118
C       -2.49265807       4.26693149       7.43426876       2.80124595      -1.26878696       0.14024905
C       -0.00143984       4.32265098       7.48141668      -1.77259051      -2.78719770      -0.33481985
C        2.41718299       4.24727902       7.46939259       1.65070402      -0.97328236       0.38838802
C        4.92338102       4.21464690       7.50251299      -2.60236726      -1.68101244       0.59194071
C        7.35794313       4.33031688       7.55599125      -0.23726371      -2.85708054       0.08311194
C        9.83437164       4.31022742       7.50429641      -0.43020058      -1.83104660      -0.66348500
C       -3.64479656       6.35796275       7.51617618      -2.77457024       1.45872978      -0.29295381
C       -1.26503516       6.42181868       7.53869964       1.47967013      -0.06059165       0.34453837
C        1.19787180       6.39056281       7.53091675       3.46723211      -1.29087454      -0.02369426
C        3.68350391       6.32165772       7.37777096      -0.08750364       1.81083104       0.99355474
C        6.11255826       6.40189473       7.44252968       0.97780724      -1.46488551      -0.01361656
C        8.63235495       6.40465431       7.41694100      -1.49443520       0.64017383      -0.56465873
C       -4.90884225       8.53233901       7.55922339      -1.60448999      -0.18397194      -0.36675552
C       -2.45030797       8.54235048       7.49499375      -0.57171436       0.53653138       1.24280545
C        0.06164056       8.49879558       7.64613257       1.08893392       1.92007670      -0.80392302
C        2.49907149       8.51234068       7.49233947      -0.11015094      -1.71649341       0.23632140
C        4.94862523       8.53144947       7.36727496      -0.57962821      -1.56769107       0.95750504
C        7.33973647       8.54723415       7.53008940       2.92202198      -1.79824498       0.15526712
C       -6.13336697      10.70072052       7.60704152      -0.21720062      -1.70370397      -1.15411267
C       -3.65210046      10.64667339       7.56627293       0.22698033       2.65125807      -0.82895323
C       -1.19160655      10.59426820       7.40217936       2.03182147       1.15764100       1.17913311
C        1.27522850      10.65203497       7.63984179       0.09172539       0.17678340      -0.37731993
C        3.68161452      10.63475722       7.55206942      -0.54019109      -0.88960992      -0.94062292
C        6.11409384      10.67033298       7.45402030       1.13931083      -2.09255839      -0.05210803
C        1.23929510       0.77195091       7.38164812      -0.49487385      -2.77678576       0.33935065
C        3.73413085       0.68287483       7.49249258      -0.78755024       0.30674418       0.02580822
C        6.18644492       0.67822805       7.54127905      -0.01273133       1.49326792      -0.43532427
C        8.60240669       0.71271875       7.59990996      -2.09469754       1.91593414      -0.62578774
C       10.99658658       0.69878627       7.55414539       2.88136204       1.80735620      -0.71071719
C       13.50801079       0.70379704       7.36591607       0.09436720      -0.13268923       0.21845789
C       -0.04378320       2.85949947       7.41784244      -1.52588725       1.84963027      -0.10135854
C        2.37546377       2.83737557       7.48428849       1.18178134      -0.32049032      -0.37557467
C        4.88741456       2.77226988       7.61530368       1.15411062       1.00038873      -0.62270396
C        7.41021744       2.88129410       7.77172174      -0.04874169       0.95116239      -1.78720569
C        9.86377550       2.85416278       7.52227868      -1.96361653       2.95535144       0.30036218
C       12.27975667       2.85545426       7.36783279      -0.09413426      -0.23216599       0.50303710
C       -1.25952791       4.99227855       7.47306182       0.47730756       1.06539547       0.14213830
C        1.23096270       4.94370238       7.49548253      -1.27316015       2.77862075      -0.01389861
C        3.66878999       4.91192127       7.48193212       0.59132365       0.51696451      -0.61133506
C        6.09056022       4.92407573       7.47306678       2.14493613       3.15146902       0.18701305
C        8.57268052       4.98861022       7.35495502       1.97258094       0.70786610       1.73428287
C       11.09901916       4.93930183       7.52884627      -2.61461523       2.41416560      -0.47647092
C       -2.50447629       7.13727925       7.56255001       2.55346668      -0.60697961      -0.51777415
C        0.05009411       7.11448323       7.60161728      -3.61913546      -0.94549002      -0.11571635
C        2.47029307       7.07004046       7.48406641      -0.75100226      -0.07447277      -0.44126481
C        4.90780201       7.10274403       7.41688903      -0.20415228      -0.57409520      -0.69143520
C        7.36605525       7.10077707       7.47905232       0.12075495       0.32422716      -0.23849064
C        9.86409011       7.10527782       7.41204467       0.50795640      -0.43574439       1.15529512
C       -3.72750914       9.28061390       7.60757670       2.93214235      -2.27022316      -0.84749217
C       -1.15457582       9.19716673       7.53525056      -2.25563420      -0.28050504      -0.29526960
C        1.32501130       9.25877602       7.58788555      -2.54340595      -1.98903806       0.48154602
C        3.71261109       9.16512467       7.44466917       0.17909019       3.46870459       0.27074256
C        6.16961767       9.22521919       7.51286925      -2.43596701       1.91443956      -0.84837483
C        8.59118582       9.24161534       7.56878422       1.03760699       0.82748950       0.32429478
C       -4.85754923      11.41233097       7.45854529      -1.76301007      -2.12978873       1.63554274
C       -2.36472864      11.34355716       7.45831087      -2.73254119      -0.45228867      -0.07491475
C        0.05330418      11.31964824       7.50769191      -1.60094906       0.48566288      -0.67248772
C        2.46766833      11.38466704       7.66127894       0.37033553      -0.70903286      -0.58590530
C        4.88092775      11.31368270       7.33909216       0.39566964       2.18129590       1.78918415
C        7.34481707      11.33473918       7.51148698       1.78779910       2.54389523      -0.44520400
72
Lattice="14.76 0.0 0.0 -7.38 12.782534959858314 0.0 0.0 0.0 15.0" Properties=species:S:1:pos:R:3:REF_forces:R:3 REF_energy=-11165.512441941659 config_type=fd_force_conv_snapshot_015 snapshot_index=15 split=validation degauss_Ry=0.0019000869 kgrid=8 lattice_temperature_K=450.0 trajectory_seed=2 pbc="T T T"
C        0.00591909      -0.02301437       7.62341192      -0.87196187      -0.01553795      -1.12439998
C        2.41045610       0.01946167       7.57697140       1.83015597      -0.07323787       0.35669351
C        4.95757032      -0.01969077       7.64540073      -3.29199292       0.75496151       0.42763102
C        7.35123074      -0.06116651       7.46691429       1.07144991       1.71204643       0.26731451
C        9.75203630      -0.01539552       7.49230635       2.75013910       1.03936845       0.19529148
C       12.28798267      -0.01010077       7.61774427      -0.51274302       1.03812635      -0.82175877
C       -1.18591042       2.08546963       7.70770311      -1.01795116       2.46593244       0.48260352
C        1.26676731       2.13423439       7.56686009      -0.36845939       2.02620335       0.34374775
C        3.73068531       2.14046805       7.60252649       0.96550143      -0.03134278      -0.25814107
C        6.16624667       2.12811894       7.49063020      -0.00036098      -0.31173263       0.95374506
C        8.64157210       2.14794171       7.49207031      -0.95932101      -2.14223158      -0.34754681
C       11.08983212       2.10203119       7.66647514       0.80913876       0.42158121      -0.56620577
C       -2.40121307       4.25471701       7.77057895      -0.99198122      -0.93516113      -0.88866401
C        0.02038036       4.33006119       7.67471920      -1.46106202      -2.52825933       0.30657654
C        2.43958175       4.28141880       7.45035350       2.97761848      -0.40455151      -0.05770970
C        4.96629445       4.31489739       7.42344176      -0.84877566      -1.21510335       0.54883282
C        7.44004196       4.27687278       7.35592413       0.28482424      -1.75407471       0.57287392
C        9.96391497       4.21580137       7.45333551      -2.09603452      -1.64489204       0.04356169
C       -3.65298322       6.38820963       7.37415060      -1.77539250      -2.91443002      -0.07741746
C       -1.23216191       6.42480792       7.62204969      -1.27552248      -0.83402884      -1.00905952
C        1.23763517       6.44526469       7.41305355       0.42274798      -1.83521101       0.82254552
C        3.71093026       6.43860341       7.36009777      -0.06018155      -0.03218327       0.32302954
C        6.15901770       6.42556562       7.42808271       0.49919691      -0.68478247      -1.27242558
C        8.60370608       6.30175777       7.23209150       2.46709998       1.41032619      -0.13571337
C       -4.90663067       8.48638722       7.31804002      -1.72970862      -1.29753241      -0.03123350
C       -2.47019203       8.55524928       7.43250610      -0.87612397      -0.73338275      -0.01099944
C       -0.06529615       8.53916022       7.48037295       1.67894682      -0.36102068       0.43691964
C        2.41892479       8.55744724       7.40240339       1.39754601      -0.90254000       0.06830367
C        4.88079827       8.61566093       7.39958939      -0.42931304      -2.98197367      -0.19132916
C        7.32696474       8.47727654       7.39548118       2.75543120      -0.45978755      -0.76162838
C       -6.18798932      10.65917535       7.42311400       0.51804078      -3.65417008       0.22533997
C       -3.74038723      10.65975903       7.47205556       0.39999912      -0.17130181       1.28393487
C       -1.25826493      10.72780502       7.60254266      -0.83838300      -4.17362368      -0.44576527
C        1.21044773      10.58527553       7.56970211      -0.72992333       3.00344907       0.12183584
C        3.62291960      10.69588788       7.50370083       1.03345363       0.13851818       0.30507733
C        6.08930514      10.63307531       7.50604975       2.70997950      -0.13183640      -0.28712537
C        1.19962126       0.74816200       7.57766499       0.83017424      -1.82096170       0.21161027
C        3.69174762       0.72006633       7.66847830       0.13294789      -0.92533849      -0.62113636
C        6.15332285       0.67316591       7.55824405       0.34263858       1.20854704      -0.30463664
C        8.57893686       0.68514397       7.42317989      -1.03733420       1.34297923       0.64723305
C       11.02794881       0.71907774       7.50792260       1.09018811      -2.24412415       1.24577841
C       13.54173497       0.69751668       7.60329982      -0.34697089      -1.27291075       0.82579514
C        0.01762395       2.85127506       7.73117545       1.16354785       0.66500838      -1.09184210
C        2.55401809       2.84431339       7.46506187      -3.96437651       0.73690028       0.93159989
C        4.95826054       2.88132117       7.58507328       0.22792881      -0.53922667      -1.07699783
C        7.39679904       2.82580778       7.48418418       0.43374716       1.49416498      -0.84078853
C        9.88995167       2.78800469       7.55401304      -0.60011990       1.57999097       0.00198155
C       12.33400471       2.83534925       7.77657196       0.60395805      -1.41562498      -0.31228439
C       -1.23987811       5.01498900       7.68910853       2.06934827      -0.34007184       0.54480982
C        1.23293879       4.98239510       7.53376875       0.44307898       1.90593538      -0.57588597
C        3.70902966       5.01657485       7.40095855      -0.48209907      -0.33512890      -0.01604163
C        6.19982267       5.00112988       7.37617930      -0.01338696       0.15814521       0.21703710
C        8.75194266       4.88953388       7.31261822      -3.97519982       1.45958235      -0.06993812
C       11.14060321       4.88551284       7.50810845       0.98669143       4.02873096       0.29756894
C       -2.49011709       7.10872658       7.43844860       2.50740202       1.45813071       0.74172881
C       -0.00815933       7.08425353       7.50713120      -0.33900484       2.70169798      -0.19722418
C        2.47085035       7.15333946       7.36760030      -0.39750360      -0.89517559      -0.15210389
C        4.94593999       7.15692651       7.41704757      -1.50767124       0.46024444      -0.23920361
C        7.40141080       7.06714490       7.25336759      -1.13869942      -0.30632946       1.28096936
C        9.84417396       7.02801635       7.23165828       0.35741831       1.38097396       0.59457583
C       -3.71441847       9.22935225       7.42328459       0.13304045       0.64170055      -0.48028156
C       -1.27311852       9.28904414       7.48994711       0.84859748      -0.84420964       0.42001927
C        1.22708940       9.21558359       7.55482157      -2.97321341      -0.58591944      -0.77423938
C        3.60588988       9.30310540       7.35634742       2.09761395      -0.55511891       0.85776707
C        6.13697688       9.20172171       7.44638406      -1.40819911       2.26029510      -0.00260813
C        8.58267533       9.12864097       7.38285181       0.46172770       3.65302800      -0.14426511
C       -4.98573558      11.36397108       7.52981818       1.34201301       0.63216922      -0.62999818
C       -2.48866768      11.35138814       7.66675102      -0.92400408       1.12835330      -1.07947638
C       -0.03342002      11.31862856       7.52744891       1.76777046       1.11344348       0.36701495
C        2.39501824      11.37833471       7.61163580       0.17689575      -1.24130367      -1.13915528
C        4.91033001      11.36897931       7.56451006      -1.79649534      -0.39246270      -0.21590170
C        7.36471989      11.31612726       7.46288360      -1.54852813       1.91730120       0.97978494
72
Lattice="14.76 0.0 0.0 -7.38 12.782534959858314 0.0 0.0 0.0 15.0" Properties=species:S:1:pos:R:3:REF_forces:R:3 REF_energy=-11164.972215154117 config_type=fd_force_conv_snapshot_021 snapshot_index=21 split=validation degauss_Ry=0.0019000869 kgrid=8 lattice_temperature_K=450.0 trajectory_seed=2 pbc="T T T"
C        0.00598710      -0.04228612       7.44612208      -0.24820633      -0.16901121       0.39564007
C        2.46074258      -0.00926522       7.46507383      -0.22958126      -0.61930239      -0.23170216
C        4.94264864      -0.03283461       7.29097687       0.97143117      -0.53918424      -0.81386908
C        7.39304900      -0.02866827       7.17380140       0.49354793      -0.03432037       1.45484715
C        9.86554119      -0.00939196       7.36750370      -0.12695233      -0.02297615      -0.23620519
C       12.32219726       0.00976625       7.27790581       0.98548404      -2.11067206       0.93124251
C       -1.28493594       2.15526379       7.27822593       2.25319140      -1.89141790       0.53401324
C        1.15416471       2.06108752       7.41680587       2.43615778       2.29192095       1.30071595
C        3.66514930       2.10192448       7.38120722       1.67595508      -1.44595988       1.23020653
C        6.15015764       2.11990739       7.38983720      -0.37905748      -1.06596960      -0.21706744
C        8.58456185       2.16158481       7.44688756      -0.72700076      -1.57779859      -0.35966879
C       11.06217205       2.08752645       7.37457144      -0.54675794       2.70183939      -0.84277496
C       -2.58874909       4.26875138       7.45744471       4.40455220      -0.09503414      -0.53466476
C       -0.02064910       4.25999265       7.53303636      -2.60001059      -1.08004588      -0.72082703
C        2.45286146       4.23322314       7.58975795       0.24848992       0.27955862       0.15251964
C        4.94116774       4.25538621       7.76144347      -3.14558094      -1.35406120      -0.99829199
C        7.29816895       4.32088974       7.67947902       0.85739168      -1.43617889      -0.67805647
C        9.77641338       4.36023194       7.56610961      -0.64655094      -3.32458577      -0.33541815
C       -3.67752370       6.44088538       7.61961841       0.63278808      -2.19024488      -0.38990265
C       -1.25290972       6.43815130       7.45763291      -1.32103075      -1.69773747       0.26990747
C        1.14639067       6.36552462       7.47050750       2.02341139       1.98088072       0.09201927
C        3.67054246       6.41258781       7.58058633      -0.98865550       0.00144496       0.98064703
C        6.15098064       6.44624891       7.81458776      -1.82414087      -0.14357220      -0.35191460
C        8.62903027       6.40013483       7.78701688      -0.20444075       1.14433245       0.18226807
C       -4.86813088       8.55380412       7.73616085       0.89460120      -1.96426959      -0.10176298
C       -2.42342273       8.56377445       7.52589075      -0.17279896      -1.19352100      -0.77520097
C        0.03575461       8.52566221       7.43506758       1.36617469       0.86671553       0.35597335
C        2.47211707       8.54095520       7.54791340      -0.46773277      -0.51743657      -0.35879616
C        4.92204110       8.55761324       7.58477571       1.27159126      -0.71922060       0.51609008
C        7.43506030       8.48478623       7.84893415      -1.38652009       1.72975927      -1.27501083
C       -6.11831043      10.59901329       7.58410024       0.20059773       0.15412504      -0.20154029
C       -3.63729185      10.72490993       7.29363802       0.29241465      -3.54855045       0.88539074
C       -1.12742067      10.63553569       7.25895920      -1.45880485      -1.66012146       0.68755618
C        1.27751203      10.68744612       7.55775881      -0.81244880      -0.61018834      -1.29762162
C        3.68673321      10.64010194       7.49404233       1.02398760       0.51109006      -0.14004927
C        6.16913732      10.64093488       7.51958393       0.43642985      -1.37186840       0.18146435
C        1.18578056       0.69014547       7.55318733       1.97724595      -1.18827492      -1.41158449
C        3.71879380       0.64131039       7.36593381      -1.78030793       1.86953293      -0.01983812
C        6.15640355       0.65545704       7.23955922       0.74506944       2.52957496       0.08789625
C        8.61989729       0.64826161       7.36517938      -0.32138301       3.55161341      -0.60174947
C       11.10483597       0.68214577       7.26683184      -1.38926783       1.19937977       0.72429956
C       13.56517714       0.69391466       7.35776214      -2.03977544       0.71407042      -0.90854635
C       -0.04602545       2.79341669       7.40112201       0.38189907       2.47942045       0.19649836
C        2.47103634       2.78278542       7.54099730      -2.86530113       1.21941149      -0.95967325
C        4.90846667       2.77522672       7.51252754       0.25525141       2.64440686       0.33216930
C        7.33740721       2.89206280       7.44396699       0.50774428      -0.57936133       0.89194885
C        9.77988557       2.86498928       7.48900887       2.26854423       0.49657541      -0.14836577
C       12.29283810       2.87043055       7.26226921      -3.33818845      -1.20053368       1.30070489
C       -1.32580882       4.98461072       7.54125066       2.15880774      -0.05976195      -0.80258554
C        1.19012708       4.95908271       7.52478515       0.81274422      -0.42562376       0.22618586
C        3.69728708       4.98315553       7.71150087      -0.90174501      -1.05179614      -0.79467836
C        6.08348256       5.01297350       7.78899432       1.93938749       0.65555494       0.00401066
C        8.50996929       5.03147337       7.67301364       2.52076842      -1.42718286       0.06727343
C       11.02311623       4.99727829       7.50476436      -1.66887889       1.60426836       0.64190933
C       -2.46900250       7.13532466       7.48511066       0.24076299       0.82251673       0.82556040
C       -0.05404452       7.14728131       7.41989097       2.23696439      -2.60784551       0.33802859
C        2.41073025       7.12109111       7.49706429       0.07367393      -1.39927276       0.23503354
C        4.85628874       7.16937360       7.71161690       2.80579294      -1.95435953      -0.31344319
C        7.41791850       7.11591391       7.79494648      -1.19772861      -1.37302925       0.88228048
C        9.89630688       7.07961180       7.79618290      -1.94200615       2.71305531      -0.38604445
C       -3.64256523       9.26985505       7.50483331      -0.69017253       1.03575580       0.02460880
C       -1.15766890       9.17982041       7.43389365      -1.69384688       3.64075175      -0.63056562
C        1.27711428       9.29032442       7.52785326      -0.93733371      -1.95630200       0.03444404
C        3.70587545       9.22222618       7.54151728      -0.52318787       1.55305121      -0.04054270
C        6.21298799       9.19300181       7.62164663      -1.38239552       1.45128155       0.56478292
C        8.64847007       9.17180328       7.77080446       0.44295068       2.59481953      -0.41643978
C       -4.89638566      11.34534444       7.41283690      -0.32363864       0.78478836       0.41717717
C       -2.35285552      11.33392528       7.20210253      -2.01643085       0.78203342       0.49192223
C        0.05696405      11.34711702       7.31969812      -0.05642826       0.49281903      -0.21738214
C        2.47789038      11.37430933       7.44426438       1.01217724      -0.26787912       0.54973477
C        4.93399075      11.34593993       7.46125494      -0.10446521       0.55039657      -0.76611161
C        7.41437643      11.30897495       7.49886287      -0.38922851       0.82772604       0.29092418
72
Lattice="14.76 0.0 0.0 -7.38 12.782534959858314 0.0 0.0 0.0 15.0" Properties=species:S:1:pos:R:3:REF_forces:R:3 REF_energy=-11165.70485064372 config_type=fd_force_conv_snapshot_027 snapshot_index=27 split=validation degauss_Ry=0.0019000869 kgrid=8 lattice_temperature_K=450.0 trajectory_seed=2 pbc="T T T"
C       -0.00957606       0.03536914       7.55799449       0.94633129      -1.70193994      -0.43080016
C        2.46841453       0.00750907       7.69565139      -0.17824995       0.33041144       0.17308641
C        4.93757843      -0.08421940       7.76420248       0.43797045       2.77063619       0.73181489
C        7.39071646      -0.03332874       7.76253251      -0.33419945      -0.20629580      -0.40563935
C        9.81164106       0.00840223       7.53179733       0.46853907      -0.51060746       0.10730885
C       12.29968794      -0.04939925       7.46963469      -0.05989025       1.87443911       0.27809232
C       -1.20164275       2.18308617       7.65670103       0.31367227      -3.46211151      -0.30219024
C        1.24351198       2.13939149       7.72977204       0.69783674       0.25716045      -0.32792775
C        3.76722003       2.06756846       7.72662789      -0.23422364       0.97874287       0.40703674
C        6.18831169       2.09304799       7.68089711      -0.99552934       0.79006915       0.25475287
C        8.60082014       2.14897554       7.56694875      -0.28279692      -1.32263743      -0.34082518
C       11.10066100       2.14682043       7.56284869      -0.34780367       0.29468930       0.72848429
C       -2.44732547       4.30243909       7.60965512       0.34171504      -1.11705691       0.34567839
C       -0.00959609       4.30782827       7.59148507      -0.41708770      -0.87004743       0.78269445
C        2.52606513       4.19992376       7.51766127      -0.91920795       0.63974677       0.52710006
C        5.01033239       4.28655002       7.50846219      -2.49317354      -1.91487639       0.72694060
C        7.44134697       4.32966636       7.27177128      -1.73465568      -3.62868711       1.16280737
C        9.86386107       4.31515812       7.31360024       1.02563208      -2.63597646       0.50770211
C       -3.74777418       6.45091166       7.37531324       1.93201716      -3.03772368      -0.18412981
C       -1.26613221       6.44204668       7.57504044       0.33302162      -0.62390878      -0.11378134
C        1.24972171       6.40111495       7.47199901       0.14144924      -0.05366869      -0.04762172
C        3.69965835       6.38823798       7.44028313       0.92276481      -1.54353787      -0.53213839
C        6.17013018       6.39046761       7.21730062      -0.45619649       0.35031821       0.21237466
C        8.58559527       6.38268211       7.15815379       0.41538460       0.95459995      -0.52681929
C       -4.89684032       8.55432227       7.25795531      -1.70850936      -2.44198416      -0.30782687
C       -2.49047389       8.50469456       7.49107254       0.31327966       2.54967482       0.30609883
C       -0.10126865       8.51764586       7.52711540       2.93016106       0.04715429       0.01077112
C        2.41465515       8.54808091       7.43041789       0.83707123      -0.63401758      -0.10102404
C        4.85850763       8.50691048       7.25172839       1.32045019      -0.05216588       0.54879503
C        7.41421318       8.49649465       7.12299257      -1.63019408       1.80314139       0.89100115
C       -6.12303324      10.66418115       7.33067441      -1.48205045      -0.14625155       0.63619788
C       -3.79310477      10.67999249       7.58910722       5.43990099      -2.65840985      -0.20427980
C       -1.28835391      10.67634331       7.77194517       1.21251091      -2.98659780      -0.57133023
C        1.17289683      10.59538865       7.60020662       0.31627603       0.93487676      -0.61869150
C        3.66386007      10.67196862       7.43678667      -1.49399991       0.15541676      -0.27994763
C        6.17006442      10.61070323       7.33922349      -0.86205927       1.29737711       0.20306316
C        1.22834901       0.73513244       7.69857490       0.37825838      -0.63242401      -0.19542595
C        3.74253162       0.64846264       7.77304308      -1.16671262       0.76727915      -0.31470945
C        6.17401771       0.66383581       7.81039958      -0.49133164       0.20939707      -0.54074002
C        8.58793084       0.69178885       7.59403547       0.56790732       1.25419415       0.64155606
C       11.07591063       0.72241691       7.56799453      -0.11593541      -0.92689040      -0.74647455
C       13.53464977       0.70258712       7.49296271      -0.77120882       1.07181500       1.05129991
C        0.00094169       2.86127018       7.68401150       1.69500773       1.31774693      -0.19431858
C        2.54889465       2.76909121       7.68724369      -2.02400712       1.58994937      -0.36720470
C        4.96655619       2.84198248       7.71087745       0.71976696      -0.27469846      -1.02620055
C        7.37107610       2.83550094       7.50842351       1.29280003       1.89563039      -0.32883175
C        9.81060611       2.84976043       7.52619793       2.49413873       1.25513003      -0.81482887
C       12.38464962       2.86007553       7.68258666      -4.30774425       1.27280251      -1.03919079
C       -1.27007680       5.04296532       7.67733816       2.21073220      -0.93911651      -0.90421019
C        1.23581547       4.94620028       7.48943600       1.43357539       1.04396327       0.33935605
C        3.73481321       4.95225222       7.48737117      -0.27854637       0.01393409       0.01507361
C        6.19115869       4.99726871       7.37730086       1.66689503      -0.10969072      -0.86410098
C        8.66545425       5.00016902       7.14927840      -1.34514641      -0.72641660       0.71314868
C       11.12081552       4.98269370       7.38946627      -2.55399376       1.44780490       0.28806434
C       -2.50713388       7.13029996       7.49927769      -0.05169511      -0.46259391      -0.28003530
C       -0.01969623       7.12651434       7.48759639      -0.11059137      -1.61472966       0.34876089
C        2.52884821       7.12663106       7.45389315      -3.57619650      -0.40883908      -0.09126259
C        4.92715443       7.02951491       7.27161614      -0.49460929       3.60208570       0.16708777
C        7.38153882       7.11186397       7.13939923      -0.02202716      -1.01442721      -0.25699256
C        9.78100605       7.06895360       7.21794124       1.79081192       3.38049878       0.33157872
C       -3.70084445       9.23541516       7.38543917      -0.41665781       1.20583427       0.82063005
C       -1.26453537       9.23379727       7.63539304      -1.96686898       0.66869174      -0.15630919
C        1.15091466       9.18135372       7.48070330       0.76345283       1.29001990       0.55630985
C        3.63898744       9.29158076       7.38758248       0.50711693      -2.93467643      -0.30053599
C        6.12970706       9.20234678       7.25933435       0.71591596      -0.52820975      -0.77196421
C        8.63141780       9.23495832       7.22366644      -0.23670913       0.69139895      -0.30398898
C       -4.92857453      11.37695958       7.56313732      -2.14752446       1.03586198      -0.41976653
C       -2.49644772      11.33528313       7.74761305      -1.54661137      -0.71063492      -0.12774963
C       -0.04016662      11.32046471       7.74387183       0.54793165       0.90463416       0.02905089
C        2.39044860      11.35502284       7.47314619       1.09319424       0.09549617       0.76292730
C        4.89086650      11.31910056       7.41371999       2.13297561       1.02424497      -0.08173640
C        7.40806491      11.37062838       7.40456761      -1.10252015      -0.23501837      -0.18509449
72
Lattice="14.76 0.0 0.0 -7.38 12.782534959858314 0.0 0.0 0.0 15.0" Properties=species:S:1:pos:R:3:REF_forces:R:3 REF_energy=-11165.029595935332 config_type=fd_force_conv_snapshot_033 snapshot_index=33 split=validation degauss_Ry=0.0019000869 kgrid=8 lattice_temperature_K=450.0 trajectory_seed=2 pbc="T T T"
C        0.02049796      -0.05036546       7.46298389       0.11292928       0.00481542       1.29666749
C        2.50917958       0.03474828       7.50564557      -3.65727238      -1.58422429       1.35241158
C        4.88001505      -0.01407118       7.30109477       0.73744329       2.17211809       0.92255012
C        7.30172942       0.05973882       7.41132039       0.39663149      -1.54060656      -1.84436774
C        9.81513257       0.00000957       7.44337349       0.01503247      -0.89608627      -0.18232412
C       12.37395028      -0.02563756       7.46179132      -1.97616455      -1.18149981       0.88236635
C       -1.23523187       2.14921614       7.34585888       0.26132847      -1.51575119      -0.35965979
C        1.22579812       2.10643764       7.30020080      -1.54968641       0.74296062       0.45305872
C        3.66428878       2.15017383       7.38439198       0.65307537       0.14341716      -0.26250089
C        6.17511597       2.16780565       7.38935695      -1.58355786       0.47994346       0.09626030
C        8.64681998       2.14522968       7.49636027      -1.59787479       1.05824626       0.04225377
C       11.04835836       2.08115261       7.41722882       1.83590470       1.66966154      -0.05841444
C       -2.49845728       4.26973262       7.41311658      -0.05232375      -0.37795551      -0.36967296
C       -0.02354874       4.24444421       7.13328747      -0.99555660       0.09588055       1.25048199
C        2.51156973       4.25465933       7.27034271      -2.17429401       1.52182028       0.46683623
C        4.95687636       4.25787711       7.44654913      -1.49477819       1.00608707      -0.40178809
C        7.33902605       4.28327153       7.58354668       1.61262547       0.55009883       0.31955727
C        9.81690145       4.24813490       7.49732968       0.74312466       2.24515567       1.16154625
C       -3.73853653       6.35424829       7.54273460       3.59336941       1.14143431       0.73308399
C       -1.23433374       6.44106413       7.35226446      -1.21877592      -1.76231253      -1.11896749
C        1.18912589       6.40854387       7.27200010       1.24201920      -2.33196768       0.60125170
C        3.69731098       6.39952257       7.61306446       1.07472498      -1.21209465      -0.68243711
C        6.15961546       6.40337608       7.69143508       0.27138328       0.70285270       0.65583391
C        8.64264915       6.34129360       7.69925130      -0.60579767       2.31283482       0.73186092
C       -4.88338144       8.49873875       7.77156400      -1.32222297       0.07546034       1.05498508
C       -2.51190127       8.53348076       7.37165063       0.12153836       0.92056138       1.32105209
C       -0.00498839       8.57217412       7.33705023      -0.55809831      -2.27460329      -0.32504786
C        2.45796195       8.48714805       7.56388088       0.30203700       0.38767402      -0.09331253
C        4.92830322       8.53564829       7.82652925       0.78470634      -1.29626922       0.22413900
C        7.41947040       8.49693270       7.87958979      -1.36788910      -0.33810984       0.62672131
C       -6.04344506      10.63992289       7.88833315      -3.05277363      -0.68181208      -0.14080749
C       -3.66679226      10.70274833       7.58663831      -0.11163293      -1.68843265       0.39587378
C       -1.19833977      10.63629303       7.31899663      -2.55015998       0.13048220      -0.76615557
C        1.26063607      10.67985132       7.28377425      -2.42909291      -1.63349691       0.82082700
C        3.62925258      10.65935222       7.69118583       3.58464745      -1.30737639      -0.26840543
C        6.15982935      10.62300023       7.80183036       0.83413709       0.50144328       0.43017076
C        1.21095882       0.68952756       7.45989140       2.34643605       0.42416183      -0.59742847
C        3.67913587       0.72560499       7.51006542       1.14817574       0.91454242      -1.80353605
C        6.07255737       0.78948471       7.30250569       1.89432813      -2.85020772       0.62635184
C        8.54609016       0.73072088       7.41398157       2.27715382      -0.04176089       0.51306466
C       11.08914818       0.61989727       7.44424616      -0.65301469       3.13302444      -0.15795701
C       13.57788942       0.70189723       7.41766453      -0.99762325      -0.06365897      -0.23717835
C       -0.02547671       2.82928913       7.26341780       1.11299431       0.10337917      -0.51084220
C        2.41303982       2.87168875       7.31753469       2.53764051      -2.19867964      -0.11784806
C        4.92286859       2.84889328       7.30942988       0.07715983       0.43905392       1.11120405
C        7.40232958       2.86767586       7.57150597      -0.53320951      -0.31778449      -1.10059362
C        9.85911389       2.91144304       7.46782051      -0.28724159      -6.40264465      -0.18270413
C       12.30794096       2.85256608       7.35411325      -1.96795038      -1.59302029       0.48188310
C       -1.30540218       4.97198432       7.22213717       2.59820285       1.32412533       0.82000939
C        1.21016132       4.90664131       7.28448468       0.78248491       3.36534675      -1.30800528
C        3.74611292       4.98594643       7.39232202      -1.43809924      -0.45227941       0.59630541
C        6.11545633       5.03524879       7.59684895       2.04293532      -3.44359853      -0.43597708
C        8.62400310       4.95994621       7.60797757      -2.07232997      -0.47377204      -0.24331686
C       11.02331073       4.94847764       7.60059428       1.19341893       0.60693693      -1.55520759
C       -2.45627283       7.14656398       7.43349456      -2.02996565      -2.31054062      -0.02827082
C       -0.02677875       7.13879275       7.25725581       1.24787823      -0.08841921       0.64393793
C        2.45883238       7.05148812       7.47145643      -0.90990055       1.77882955       0.29333742
C        4.95715129       7.08539539       7.78718419      -2.41206320       1.94526066      -0.64757398
C        7.39755924       7.07236186       7.78465959       0.99139655       0.27199932      -0.19663360
C        9.88615073       7.08104357       7.75391615      -2.13895703      -0.19904941      -1.00172853
C       -3.74003362       9.27569798       7.66907844       2.99137491      -0.71481733      -1.54958254
C       -1.25709130       9.19971417       7.31608995       0.34286123       2.31783742       0.01546364
C        1.22814863       9.22459472       7.43213321       0.97305405       1.59147120      -0.75984712
C        3.70731189       9.21812985       7.71828214      -2.12139536       0.38621003      -0.08304200
C        6.16829189       9.22740750       7.90447367       0.28808825      -0.89220545      -0.37256468
C        8.63927632       9.16249643       7.96076061       1.25123558       2.62706399      -0.92665566
C       -4.86202249      11.39027289       7.72460403      -0.59402973       0.78581449      -0.63115286
C       -2.45687093      11.37405924       7.35099991       1.00245770      -0.66255606       0.30488270
C       -0.03652506      11.37642661       7.20805270       2.27348306       1.01378932       1.48811877
C        2.45848123      11.34645768       7.45731533      -0.98293042       1.83189918      -0.06831293
C        4.92665255      11.32640895       7.69635006      -0.14628523       1.09659761      -0.55281983
C        7.42804233      11.32097661       7.78179898       0.03352976       0.50730128      -0.79170823
72
Lattice="14.76 0.0 0.0 -7.38 12.782534959858314 0.0 0.0 0.0 15.0" Properties=species:S:1:pos:R:3:REF_forces:R:3 REF_energy=-11165.388821985327 config_type=fd_force_conv_snapshot_039 snapshot_index=39 split=validation degauss_Ry=0.0019000869 kgrid=8 lattice_temperature_K=450.0 trajectory_seed=2 pbc="T T T"
C        0.01720892      -0.00773796       7.42897684       1.28989700       1.63894791       1.09431164
C        2.52342518       0.02193151       7.43717293      -0.96648462      -2.12460333      -0.64457453
C        4.92955685      -0.02440953       7.44831415       2.55380067       0.19908643      -0.10667764
C        7.41242865      -0.07400142       7.65649660      -1.10621688       3.70968534      -0.63244741
C        9.86027938       0.04121776       7.66199366      -2.91476118      -1.41186242      -0.26255128
C       12.32984825       0.03590826       7.62628370      -1.27560630      -1.41871467       0.39588638
C       -1.22304392       2.10249905       7.71368883       0.20629889       1.36106617       0.17028185
C        1.25330023       2.14972702       7.54315599       0.08649242      -1.36990639       0.66539327
C        3.70660780       2.15223098       7.48693731       1.36247770      -2.97253824      -0.30743837
C        6.09647539       2.17620582       7.48105922       2.00742556      -3.49684634       0.35062674
C        8.51494571       2.17344549       7.54959769       1.52792099      -0.39636461      -0.24027859
C       11.01861381       2.18895389       7.68419092       0.59462443      -1.58364297      -0.44535286
C       -2.50939380       4.29487598       7.57276102      -0.34335232      -2.60250430       0.82124223
C       -0.02220062       4.24488309       7.58585230      -0.13500426       0.96208726      -0.23271132
C        2.43762497       4.20314495       7.44726569       1.82493946       1.84424998       0.33211788
C        4.91283205       4.30717106       7.45619531       0.95222657      -1.50439463       0.54749122
C        7.35627164       4.28898131       7.52488353      -0.92918948      -0.42408444      -1.20911731
C        9.80349852       4.26986300       7.48340719      -1.05007016       0.23076165       0.02763087
C       -3.75621246       6.38601991       7.45814793       2.13577914      -0.51909210       1.15495600
C       -1.27745393       6.39047292       7.46169032       2.21636652      -0.97027777       1.98599233
C        1.28124726       6.35204946       7.52870360      -1.70327074       0.91523251      -0.50642273
C        3.68722942       6.40159770       7.37394297       0.07734804      -1.01717520       0.39239379
C        6.15006379       6.46239715       7.43496330      -1.39055209      -2.00961665      -0.56859381
C        8.55786636       6.38238606       7.40191909       1.40717530       0.59869834      -0.13880049
C       -4.86596352       8.50439571       7.35386186      -1.75924880       0.78913275       0.52805548
C       -2.49509749       8.48097888       7.69537667       3.81693223       2.01665402      -1.36603199
C        0.01977551       8.44423010       7.67599773      -2.24496824       1.87049143      -0.26222295
C        2.46410777       8.51213359       7.58224186      -0.62350691       1.00180155      -0.69209726
C        4.89169676       8.55324331       7.33972367       0.56132247      -0.19080054       0.50134995
C        7.41886771       8.50284872       7.30881182      -1.44528959       2.24509345      -0.44689552
C       -6.11865667      10.67916280       7.21808870       0.59723050      -0.98549510       1.04475851
C       -3.63944983      10.56742993       7.29147336      -0.56915354       3.33888779       1.01292234
C       -1.23394071      10.64755181       7.53939103       1.19543159      -0.52404533      -0.22936631
C        1.22094832      10.57348992       7.65736667       1.78235222       1.43330722      -0.69283671
C        3.74807008      10.71007688       7.49705085      -3.17821055      -1.62772196       0.89091578
C        6.19004821      10.65737550       7.28229441      -0.92537397       1.14043158       1.38238241
C        1.27359343       0.73007621       7.49857552      -0.67490918      -0.82337008      -0.43808204
C        3.75517364       0.65790089       7.41807248      -1.88250954       3.93829447       0.61261598
C        6.18416250       0.73503375       7.57099104      -1.37214171      -2.41827730      -0.55203513
C        8.55509057       0.76676776       7.65397270       2.36448648      -2.08569534      -0.07201686
C       11.05417386       0.72739627       7.70677456       1.61662174       1.28943857      -0.32615858
C       13.56518930       0.68403725       7.67010511      -0.31518382       1.41916256      -0.87575296
C        0.03104784       2.84799674       7.70372750      -1.46537994      -0.82624148      -1.00816015
C        2.50200425       2.80751869       7.50759001      -1.83442580       1.02814507      -0.19632892
C        4.92092177       2.83804749       7.46664336      -2.11357561       2.86812857      -0.02969907
C        7.29102424       2.85070609       7.45271934       1.97694693       2.22271843       0.90518566
C        9.78594923       2.89413749       7.51487837      -0.40452940      -2.24389763       0.89929038
C       12.28105983       2.84316566       7.67146859       0.09034497       0.40785589       0.09735559
C       -1.29608168       4.94865140       7.56926984       1.95775673       1.56302863      -0.76386704
C        1.23142526       4.94204650       7.42526025      -0.43875053      -0.38367518       1.04470349
C        3.69312750       4.95501554       7.49555602      -1.67768544       0.96944293      -1.21921583
C        6.14668463       5.03668915       7.49130787      -0.31143336      -0.52852085      -0.07282444
C        8.57825114       4.97207523       7.42060771      -0.21212115       0.53841934       0.64893538
C       10.99463872       4.94925560       7.58253271       1.85429837       2.25643150      -1.27227106
C       -2.46729774       7.11209610       7.56426449      -2.03048347      -2.17928967      -0.37498023
C        0.02042951       7.05152106       7.64950953      -0.80798254      -1.06845380      -1.21826221
C        2.47661583       7.12216939       7.41534305      -0.18339319      -1.30178655       0.99782225
C        4.89628448       7.10531038       7.33729755       0.56927824       1.65269946       0.40573885
C        7.36176507       7.11909314       7.34916085       0.95312465      -0.22735237       0.53642545
C        9.81704189       7.10439554       7.42501713      -0.71136999      -0.55120441      -0.33577990
C       -3.63265362       9.20365461       7.48898320      -2.52995677      -0.95224199      -0.67769986
C       -1.21472481       9.24137243       7.61206725      -0.93477752      -2.43956938       0.84901297
C        1.18511629       9.17071509       7.63004046       2.98351736       0.20581732       0.39450107
C        3.67234857       9.26740478       7.52784867       1.13882978      -0.23399610      -1.04384474
C        6.15746398       9.26272726       7.29880212       0.46529742      -1.68645393      -0.28012915
C        8.63806720       9.21332497       7.28664667       0.71887273       1.24893933      -0.49107993
C       -4.84462426      11.34398995       7.33493240      -1.82239406       0.26002363      -0.75677002
C       -2.46693081      11.34437130       7.36636656       1.60506077      -0.65828211       0.76980551
C        0.05779142      11.30540392       7.59878386      -2.84190254       0.59153499       0.45980221
C        2.45370573      11.35815647       7.56744179       0.97748200       0.75076727       0.81595579
C        4.95648952      11.37575632       7.53389882       0.96298278       1.19531152      -1.20861260
C        7.40425012      11.40040767       7.30426388       0.69422176      -1.94377867      -0.53787041
72
Lattice="14.76 0.0 0.0 -7.38 12.782534959858314 0.0 0.0 0.0 15.0" Properties=species:S:1:pos:R:3:REF_forces:R:3 REF_energy=-11165.371227784804 config_type=fd_force_conv_snapshot_045 snapshot_index=45 split=validation degauss_Ry=0.0019000869 kgrid=8 lattice_temperature_K=450.0 trajectory_seed=2 pbc="T T T"
C       -0.02960133      -0.02525220       7.64662959       1.17468536       2.46779418       0.53480540
C        2.42694876       0.10189304       7.64755452      -0.70325508      -3.44220680       0.46735585
C        4.92439442       0.00609092       7.69389821      -0.53382092      -0.27245620      -1.02314942
C        7.37325373      -0.02892499       7.52755008      -0.75126940       1.78632303      -0.73967681
C        9.86457082      -0.02046419       7.46003774      -1.70475015      -0.43296040      -0.44265938
C       12.29155738       0.01216892       7.64966038       0.77045240      -2.77303915      -0.27891301
C       -1.25828722       2.12788118       7.48945019       2.01024143       1.33277992       0.93299523
C        1.25367319       2.16781434       7.59835636      -1.66733777       0.96726726      -0.53108013
C        3.69683103       2.13352995       7.58085776       1.10054400      -1.12612544      -0.37767783
C        6.17340006       2.13467619       7.52779701       1.25692003      -0.35074707      -1.21849387
C        8.64023810       2.11281670       7.45012788       1.07576756       2.36560028      -1.46810736
C       11.06019706       2.08640831       7.48913898       2.19664050       1.92123961      -0.01535463
C       -2.39627125       4.28780056       7.35012972      -2.48090835      -1.24361097       0.08742394
C        0.06651078       4.29208726       7.29130580      -1.82827701       0.14328681       1.15043291
C        2.46286087       4.25120384       7.47321597       1.65942855       1.61183794      -0.08499321
C        4.95735155       4.21243638       7.40598173      -0.12281363       0.64758298      -0.19270778
C        7.41735305       4.29057463       7.32804443       0.48517359      -2.77598357      -0.40763684
C        9.88108322       4.29219630       7.33264316      -0.29340092      -1.87268458      -0.66716065
C       -3.61375303       6.42930382       7.41498857      -3.71677645      -3.19642270      -1.28503762
C       -1.26601495       6.42859713       7.42183591       2.97496073       0.26480126      -0.32511034
C        1.24353311       6.38780241       7.52817343      -1.24962221       0.43398344      -0.35801377
C        3.71833374       6.36597335       7.50087135      -0.94452251      -0.18245551      -0.28969493
C        6.15914477       6.34963421       7.50269506       1.04382520       1.64870062      -0.25708640
C        8.69131308       6.36150352       7.46657308      -1.98105221       1.40362769       0.15046558
C       -4.92767103       8.49696294       7.55702008      -0.50078148       1.24733882       0.33911205
C       -2.51410236       8.56101783       7.47915266      -0.17196721      -1.26788605       0.19988502
C        0.04458188       8.56051086       7.38292329      -3.78868480      -1.93433501       0.33961625
C        2.41819106       8.50562831       7.46461945       1.46961917      -1.38754699       0.13195339
C        4.88635738       8.50346347       7.59234476       0.71271545       0.59209163      -0.43977100
C        7.35363554       8.51690341       7.49721053       0.56140989      -1.27722712       2.07654067
C       -6.23611408      10.65693187       7.66647768       3.26822050      -0.47474726       0.34335309
C       -3.73350891      10.71692873       7.71356973      -0.59216388      -0.84696560      -0.47586954
C       -1.25558300      10.60887360       7.44440148      -1.03610367       1.19025853       1.02002964
C        1.16239732      10.65841270       7.42533061       2.62760058      -0.74792003      -1.15983595
C        3.60874387      10.58085613       7.47590788       2.25389279       2.04644951       0.25737643
C        6.14610792      10.63017610       7.67707142      -2.78743192       0.12230044      -0.65542562
C        1.19104072       0.78260785       7.66636047       0.34472040      -1.71261901      -0.37526382
C        3.69443004       0.67472782       7.59314340      -0.58998127       3.03275450       0.95046768
C        6.10736792       0.73455570       7.56577295       3.14785199      -1.48240578       0.54353841
C        8.60938313       0.74269716       7.41120462       0.48843170      -3.84131220       1.12889864
C       11.08600395       0.66582483       7.54594605      -1.02249019       1.27620408      -0.11988051
C       13.54435567       0.71856586       7.67290675      -1.61666622      -0.44453602      -0.77539329
C        0.01200912       2.88248193       7.44237012      -0.03696886      -0.93471581      -0.05257777
C        2.49740317       2.86960080       7.56086969      -1.06418525      -1.45220663      -0.09974466
C        4.95267536       2.79311574       7.48212700      -1.02073901       1.83111936       0.24989940
C        7.44359999       2.82363991       7.32457419      -1.88578333       1.12733463       1.45337160
C        9.92708973       2.84900497       7.35238641      -3.45411203      -0.38115165       0.78722757
C       12.29337473       2.86665048       7.51401776       0.49733414      -1.34140571      -1.10909369
C       -1.19663784       4.99775117       7.33956304       0.66080539       0.79367204      -0.07962269
C        1.27426171       5.01425865       7.40830078      -0.87944378      -2.38321208       0.13953685
C        3.72234041       4.93438188       7.44369814       0.30901035       0.37655297       0.25387767
C        6.20294754       4.94480390       7.33431674      -2.29495691       0.48890092       0.98845187
C        8.62332998       4.97625459       7.32165472       1.80573794      -0.12215594       0.55821889
C       11.09043316       4.96503951       7.27038513       2.10792870       2.08637591       1.34287998
C       -2.48618711       7.13612606       7.39565400       2.73162664       1.08356109       0.55264448
C        0.03277543       7.14689325       7.49392346      -1.66477078      -1.07063975      -0.67397433
C        2.44403429       7.03137537       7.56671441       2.04654927       3.38508203      -0.68265077
C        4.91804533       7.11738914       7.46859910       0.67217507      -2.27401708       0.85871426
C        7.42676017       7.06970224       7.63471209      -0.97812272       0.13383106      -2.20501767
C        9.90581405       7.08551760       7.43567055      -1.04403501       0.65047856       0.59018310
C       -3.73225394       9.25602675       7.61775978      -0.07527367       1.16752792      -0.22599920
C       -1.30164478       9.19958901       7.43581462       3.44938583       1.60018107      -0.40509607
C        1.22677429       9.24802100       7.31580383       0.19802045       0.21290688       1.19153817
C        3.66427339       9.19661835       7.52486720      -1.29328160      -0.93336367      -0.10219415
C        6.11320901       9.21329118       7.60905392       0.82680019       0.10210005      -0.22235260
C        8.58032541       9.21816720       7.62496587       0.07812888       0.23408146      -0.78358971
C       -5.01775466      11.43147871       7.72154293       1.92694232      -0.71021146      -0.36608909
C       -2.45290893      11.38121364       7.64333467      -0.99756232      -1.19121061      -0.12129128
C       -0.03242919      11.32696958       7.45369623      -0.79247724       1.37028948       0.13692770
C        2.41945289      11.32129608       7.39130671      -0.47917213       1.50085756       0.82663435
C        4.85580964      11.31256822       7.59088801       1.37900141       1.20613586       0.48114262
C        7.34883970      11.35849503       7.67254821      -1.26758600       0.02727323       0.02778900
72
Lattice="14.76 0.0 0.0 -7.38 12.782534959858314 0.0 0.0 0.0 15.0" Properties=species:S:1:pos:R:3:REF_forces:R:3 REF_energy=-11165.068897609162 config_type=fd_force_conv_snapshot_051 snapshot_index=51 split=validation degauss_Ry=0.0019000869 kgrid=8 lattice_temperature_K=450.0 trajectory_seed=2 pbc="T T T"
C        0.01452349      -0.03173166       7.31171001       0.48096161       1.21084844       0.60326308
C        2.45923190      -0.00396225       7.33303023       1.35411493      -0.92545547       0.45228944
C        4.92296453      -0.04513391       7.53189984      -0.41355912      -0.40540255      -0.94170664
C        7.41185245       0.01943598       7.60019593      -1.27847308      -1.51592062      -0.35278544
C        9.85709097       0.06769683       7.55846413      -0.69379316      -1.94832053      -0.43559064
C       12.26874370       0.04301088       7.32385449       2.97617018      -1.51261881       0.15316370
C       -1.21140342       2.12142539       7.47280157       0.25484440       0.43649284      -0.57124616
C        1.26162599       2.17336917       7.34870513      -1.49816561      -2.62198066       0.47646861
C        3.73479395       2.09139843       7.46262265      -0.93654978      -0.37471077      -0.07595116
C        6.12095593       2.11394623       7.53941229       0.99034729      -2.76995614       0.51419184
C        8.56195335       2.17903322       7.69336242       0.33234902      -1.84284462      -0.52602765
C       11.07320359       2.14988414       7.54063270       0.51065760       0.87682048      -0.17445115
C       -2.39474934       4.25609452       7.63471415      -2.13779077       0.41583351      -0.19693313
C       -0.00841866       4.32534505       7.38536085       1.22427756      -3.31142455       0.58065794
C        2.43153271       4.17447930       7.44578153       1.42189101       5.21140731      -0.03976905
C        4.90303809       4.19909700       7.48537019      -0.70570534       3.16701443      -0.14758826
C        7.34510376       4.29052878       7.68252432      -1.10168762      -1.50637540       0.85779432
C        9.80379879       4.22938017       7.73374703       1.43067416       2.44497461       0.54968232
C       -3.63051776       6.34654943       7.52737107      -3.88845106       0.09107516       1.31607263
C       -1.26663936       6.40003544       7.48637531       4.14926119      -0.80105470      -0.55601469
C        1.28623858       6.40506452       7.52616554      -2.56543902      -0.99275127       0.46263479
C        3.68071723       6.38342417       7.50238703      -1.50980140       1.43798740       0.68959455
C        6.11546921       6.42045574       7.61154286      -0.43269481       0.11170826       0.24209379
C        8.55809169       6.37171274       7.72069047       2.74448885       0.74945446      -0.18995773
C       -4.90817686       8.45908658       7.40544112      -1.09194314       1.04179943      -0.24884988
C       -2.38968848       8.47986909       7.33728222      -3.73109903      -0.17765552       0.23235651
C        0.00816052       8.51207931       7.35121123       0.70879941      -0.37718263       0.22770384
C        2.44102966       8.56428122       7.65206604       3.06874249      -1.07037956       0.43774471
C        4.90176211       8.57733454       7.60313487      -0.78399980       0.06586086       0.90696975
C        7.39404622       8.57813255       7.51950284      -0.80481057      -1.86005404       0.00351830
C       -6.15932923      10.67981236       7.29336553       1.87726141      -1.41408334      -0.11408088
C       -3.67939601      10.58219722       7.29606548      -1.05445980       0.29634098       0.05601817
C       -1.23746619      10.64729656       7.46271976       0.73934951      -0.36525323      -1.22531732
C        1.22695315      10.69483423       7.49227131       2.10237897      -2.83297439       0.72839764
C        3.67433243      10.72483956       7.58152214       0.68645935      -0.84158454       0.34350941
C        6.11409854      10.67365279       7.41850955       1.99693752      -0.49049372       0.53781822
C        1.25262513       0.67713026       7.37923789      -1.11873069       2.36859536      -0.81732027
C        3.70034270       0.66567865       7.45838399       0.41912247       1.29258072      -0.14952559
C        6.14954458       0.66310507       7.53125569       0.05920865       1.16729678       0.61433116
C        8.60840050       0.71563952       7.64108255       0.58565693       2.55030062      -0.06361783
C       11.07346182       0.75107744       7.31983239      -0.56941322       0.50938413       1.91254568
C       13.57892203       0.72411574       7.36230181      -2.46818447      -1.20359458      -0.17098916
C       -0.02256979       2.85402729       7.34570876       2.30126537       1.00352059       0.55223979
C        2.50945083       2.83100156       7.42822123      -0.71257661      -2.56586608      -0.37083098
C        4.95321351       2.78983597       7.50652248      -2.86057672       1.28233744      -0.29919028
C        7.28176392       2.82166149       7.67630882       3.92090995       2.38017561      -0.23567451
C        9.82859248       2.86212993       7.64936595      -0.73273149      -1.69008047       0.31365556
C       12.33956354       2.84822560       7.62260105      -1.12927685      -0.74418113      -0.75943780
C       -1.19281659       4.99539600       7.44976572      -2.59580786       0.51055604       0.95151643
C        1.22873858       4.93069968       7.55081211       0.93336470       1.67176444      -1.44211942
C        3.65040856       4.99589517       7.35293676       0.95190312      -3.45465968       1.53927730
C        6.08806923       4.98551222       7.64368854       1.11528773      -0.24174797      -0.71065214
C        8.58581949       4.96021091       7.81991341      -0.79312208      -0.29857681      -1.03406401
C       11.06342108       4.94558856       7.71288944       1.64928992      -0.42830491      -0.88936104
C       -2.45274468       7.05797318       7.47515704       0.52640329       1.83643023      -0.58826866
C        0.02737319       7.10537563       7.43202027      -1.18232153      -0.65922622       0.15866046
C        2.44134564       7.14893081       7.65997802       2.11098214      -1.45174126      -1.17787532
C        4.85693509       7.12818269       7.58833654       2.32345733       0.50673255      -0.26558467
C        7.38268558       7.11279846       7.63405640      -1.58592122       0.86410972      -0.02180116
C        9.84876497       7.06890722       7.59177192      -0.39358139      -0.87287127      -0.44866213
C       -3.67809676       9.14335081       7.32809429       0.97466793       1.32724433      -0.19583193
C       -1.23722238       9.22464308       7.28787193       2.16727516       0.60847059       0.94902632
C        1.26766082       9.15781653       7.46969692      -3.71692711       5.43782611      -0.14026550
C        3.67411302       9.35066906       7.71437684       0.37999156      -3.50972834      -1.05542859
C        6.15031814       9.27635347       7.57730907      -0.60448512      -0.93058636      -0.74660722
C        8.59609677       9.24565990       7.32576695       1.70567189      -0.43162523       0.94588880
C       -4.88442484      11.36832760       7.26505042      -1.43770330      -1.37396359       0.23527599
C       -2.49047756      11.30559535       7.40920354       1.83722393       0.79130174       0.57414096
C        0.04238099      11.37217219       7.49640422      -2.64792207       0.23331064       0.31128037
C        2.46645769      11.40242455       7.63097243      -1.39861816       1.66636255      -1.17912976
C        4.91442161      11.35636395       7.42814775      -0.79581582       3.34417500      -0.24182177
C        7.39193391      11.34468785       7.36314301      -1.63951021       0.90513810      -0.62945362
72
Lattice="14.76 0.0 0.0 -7.38 12.782534959858314 0.0 0.0 0.0 15.0" Properties=species:S:1:pos:R:3:REF_forces:R:3 REF_energy=-11165.583806925157 config_type=fd_force_conv_snapshot_057 snapshot_index=57 split=validation degauss_Ry=0.0019000869 kgrid=8 lattice_temperature_K=450.0 trajectory_seed=2 pbc="T T T"
C       -0.02079437      -0.05862384       7.69311721       0.66683077       1.38306992       0.02626279
C        2.44388747       0.05891369       7.65689346       0.57612997      -2.01836123      -0.43368777
C        4.90469385      -0.00036800       7.50133332       0.86718913       2.56574421       1.18858808
C        7.36022199      -0.05872479       7.48241955       0.68614516       0.87957028      -0.15883967
C        9.86522124      -0.00685959       7.51858639      -1.91848750      -1.11658151      -0.22114521
C       12.28001921      -0.08854482       7.64365187       0.06427861       3.29894133       0.68810485
C       -1.22316221       2.09803868       7.75501983      -1.88645490      -0.15036146      -0.22029906
C        1.19861888       2.16414170       7.58319485       0.70909277      -2.95092452       0.69968896
C        3.71162359       2.14384459       7.55058355      -1.57866763       0.97891436       0.53947401
C        6.13709166       2.13813680       7.50816003       0.50903292      -2.15782378      -0.76407915
C        8.61337873       2.08664869       7.39788981      -0.87779750      -0.63290455      -0.45446691
C       11.08804537       2.10930293       7.52062153      -1.22130897      -0.13753474      -0.14987115
C       -2.45956375       4.26142191       7.46669865      -0.96823451      -2.04109621       0.22579222
C       -0.04877667       4.24847300       7.73690650       0.84813494      -1.23403927      -1.13429770
C        2.45742737       4.25934809       7.59812355      -0.31998690       0.69543250      -0.72028607
C        4.90732740       4.28211234       7.38049178       0.96260303      -1.17535847       0.96469847
C        7.37639239       4.25213719       7.41774173      -0.50752908      -0.66098023      -1.28880557
C        9.85582702       4.29319530       7.34691876      -1.48720269      -3.12161183      -0.38439046
C       -3.60449188       6.39556147       7.43122857      -4.84047400      -0.91977976      -0.39331425
C       -1.22104374       6.41929319       7.55759116      -0.17649646      -1.77039659      -0.02850068
C        1.17589060       6.36219388       7.59242116       2.33861373       0.34640396       0.01715106
C        3.71082112       6.38145542       7.33397389      -0.55532717       2.08992429       0.58512934
C        6.16545488       6.42064857       7.21277687      -0.25523418      -0.12638438       0.86523072
C        8.60445336       6.37855307       7.31525976       2.65447941       1.35535626       0.39379967
C       -4.86694443       8.60524544       7.49184628      -1.02028598      -2.75324217      -0.60873824
C       -2.44745827       8.58547599       7.60861932      -1.24859557      -2.53276210      -0.55981863
C        0.02176661       8.48924432       7.47528712       0.83194393       2.81312316       1.58143953
C        2.46083623       8.51983893       7.43540749       1.03364029      -1.28114471      -0.26651593
C        4.89168397       8.60804109       7.25904440       1.89499816      -2.78115406      -0.04946391
C        7.38149276       8.58844204       7.37785140       0.40308290      -2.97448019      -0.53145268
C       -6.19915453      10.63613078       7.51237605       3.05873113       0.97267969       0.01058960
C       -3.69493863      10.74425163       7.63345461       0.64223612      -1.00510156      -0.64216747
C       -1.21297103      10.59801918       7.62417021       0.35380616       2.88609158      -0.60125453
C        1.26820364      10.67025916       7.47392922       0.47108292      -1.14982587      -0.00438913
C        3.70469225      10.63738128       7.41861352      -1.64959151       0.41035501      -0.03563240
C        6.09193265      10.67998334       7.49668760       2.73502899      -2.24671890       0.36983134
C        1.21441614       0.68565302       7.62610397      -1.27134392       1.93066090       0.27114700
C        3.68274608       0.76146397       7.68402327       0.49224233      -1.48779147      -1.53593975
C        6.16136525       0.66869562       7.46061958      -1.45611419       1.84365323       0.39928666
C        8.58599719       0.62151965       7.48121005       1.41684136       2.90340385      -0.23899021
C       11.05939456       0.66537684       7.60037071       1.76245188       1.44984559      -0.27684019
C       13.51241698       0.67328925       7.76915495      -0.22701607      -1.03554034      -0.77787441
C       -0.01525091       2.79730886       7.74378341      -0.56170248       2.26338634      -0.30037633
C        2.41997250       2.84893121       7.51821178       2.04255094       0.19900133       0.71474508
C        4.93427941       2.85681472       7.54496838      -0.89483877       0.30281450      -0.79514939
C        7.35381581       2.78877006       7.34387846       1.66242105       2.02565340       1.39814713
C        9.83430489       2.81455500       7.33577618       0.70052405       0.52476113       1.02079763
C       12.28761509       2.83838119       7.59744690       1.29347495      -0.88401520       0.07474480
C       -1.26224844       4.93079308       7.53337707       1.63860313       3.17131717       0.98300910
C        1.19070404       4.94067274       7.62724677       0.31796627       0.45674773       0.57396998
C        3.71981249       4.99331527       7.47039062      -1.99472842      -0.85533532      -0.44980601
C        6.12449059       4.97431408       7.35149917       1.52822232       0.91680551      -0.51494131
C        8.60683558       4.96179324       7.32579952       0.06478511       0.18978289       0.31594770
C       11.07367370       4.92432297       7.37621462       1.14643922       3.37478733       0.14992360
C       -2.44791701       7.09558823       7.50483475       1.56404011       2.70071299       0.49942368
C        0.00973946       7.13530264       7.62631992      -0.94231497      -2.66819547      -0.89327554
C        2.42830486       7.05884400       7.48311675       1.08859428       0.95025325      -0.58830568
C        4.94375263       7.18139839       7.22017522      -1.03374571      -2.01009257       0.17361785
C        7.42723298       7.09124178       7.29868887      -2.44476532       2.46467466      -0.20674035
C        9.87394212       7.15152165       7.40593533       0.72370949      -1.25487652       0.02426761
C       -3.67371249       9.32841356       7.56817068       1.09905353      -0.78368947       0.52495756
C       -1.21084234       9.19404761       7.60574425       0.44076987       1.22914466      -0.35588207
C        1.28430311       9.23309420       7.51316577      -2.38269504       0.20008273      -0.70109150
C        3.69303448       9.26032125       7.30655060      -1.80449456      -1.00678281       0.60142782
C        6.12433743       9.27455718       7.36367931       0.96935783       0.10962310      -0.12697316
C        8.64225507       9.23938259       7.42162563      -1.50398788       0.86252361       0.46382444
C       -4.92959708      11.39237463       7.55263106      -1.28616247       0.88845472       0.82791450
C       -2.43671318      11.43062560       7.60432524      -0.22318975      -4.02567315       0.17509881
C        0.03685515      11.33438055       7.52113435      -1.85324216      -1.39364847       0.22883564
C        2.50364409      11.36918520       7.43075482      -0.93936411      -0.51433376       0.53658640
C        4.89069020      11.31229448       7.57140701       0.28042251       1.54474886      -0.49809570
C        7.35864485      11.30996175       7.60277401      -1.20817089       1.68009739      -0.20175447
72
Lattice="14.76 0.0 0.0 -7.38 12.782534959858314 0.0 0.0 0.0 15.0" Properties=species:S:1:pos:R:3:REF_forces:R:3 REF_energy=-11165.00322347843 config_type=fd_force_conv_snapshot_063 snapshot_index=63 split=validation degauss_Ry=0.0019000869 kgrid=8 lattice_temperature_K=450.0 trajectory_seed=2 pbc="T T T"
C       -0.04263039      -0.01954967       7.39129868       1.75168127      -1.01944266      -0.40882957
C        2.46418768       0.01671786       7.46728862      -4.27875095      -2.55373099      -1.36056223
C        4.85472454      -0.02776380       7.58941477       0.75440692       2.96277730      -0.73318632
C        7.33827953      -0.00166682       7.37011457       2.07225515      -0.31610916       0.34666492
C        9.82441839      -0.01617412       7.45513236       1.61941344       0.45738228       0.32989182
C       12.35979202      -0.07746760       7.55570818      -2.89371182       1.16085436      -0.46854807
C       -1.21885558       2.04298977       7.40703643       0.31344421       1.92678317       0.05655630
C        1.19774670       2.11163567       7.32832346       0.33497155      -0.61184131       0.13975103
C        3.66566203       2.11444211       7.51845403      -0.69089141       0.59400788      -1.10000689
C        6.12548034       2.11570844       7.44527615       0.22368058       0.45654667       0.19349608
C        8.58182432       2.14471033       7.34392279       1.25582526      -0.48178051       0.65966897
C       11.08777086       2.11612380       7.43555855       2.24410666      -1.53965988      -0.44846081
C       -2.37912729       4.25942408       7.39441905      -1.63845683      -0.70608689      -0.42052989
C       -0.02133722       4.25210028       7.50820495       1.20133381      -0.69057800       0.04091037
C        2.46799591       4.24236776       7.45245568      -0.84286855      -0.65309311       0.28947125
C        4.96015207       4.29488965       7.43062938      -1.81260690      -2.35382952       0.09719747
C        7.40025334       4.25903623       7.50692059      -0.21303801       2.77066165      -0.00336480
C        9.92133704       4.25449598       7.46883377      -0.71506313       0.66355725      -0.43709782
C       -3.59929084       6.41384804       7.55620417      -1.90535739      -0.51114662      -1.10518844
C       -1.18181197       6.43600952       7.48229363      -0.09722498      -1.78461633      -1.30640400
C        1.23379602       6.36798424       7.55164454       0.09920627       1.39593315      -0.60337929
C        3.66224810       6.37440281       7.50324569       1.95169433       0.29409281       0.92547270
C        6.15737285       6.43376118       7.59391946       0.37482725       0.68546947       0.41760243
C        8.63908490       6.40087834       7.71591446       1.42671697       0.54116811      -0.95269477
C       -4.93303384       8.54651341       7.57727070       0.71983432      -2.00030180       0.53645733
C       -2.41138319       8.61737951       7.42174700      -1.53041316      -3.80398672       0.25622766
C       -0.02764115       8.55741899       7.48750430       3.98270205      -0.75062226      -0.49320366
C        2.50861220       8.51108168       7.62486435      -1.82750670       0.29161632      -0.13605121
C        4.89431042       8.54054792       7.73456679      -1.24163688      -1.01605035      -0.01869269
C        7.33118359       8.57245193       7.81532423       2.28689496      -1.59232970      -1.46029815
C       -6.24337564      10.69815549       7.49186892       3.05126799      -2.61175590       0.39506208
C       -3.73711580      10.63889015       7.49075280       0.55123655      -0.03009116       0.58880654
C       -1.24399948      10.73353967       7.33161720       0.51218098      -1.64164525       1.33143677
C        1.23162628      10.61610685       7.53681071       0.40442064       1.42316525      -0.29239562
C        3.64295457      10.69219737       7.46640663       1.87312681      -3.20110083       1.97407192
C        6.07164217      10.64681647       7.67229048       1.10626727      -1.66424962      -0.43724849
C        1.21028705       0.69286863       7.24249447      -0.46975160      -0.54510010       1.73622791
C        3.59126641       0.70796929       7.55407940       5.23739859       0.73808350       0.44375364
C        6.13791295       0.69994428       7.46404124      -1.95498971      -0.51707430       0.12692791
C        8.59059298       0.70781768       7.35087068       0.18578740       0.53291358       0.28776635
C       11.16002965       0.65486765       7.54505393      -3.89985725       1.34939516      -0.94653415
C       13.51417777       0.63821592       7.42740865       1.45416761       1.35660119       0.23359115
C       -0.01026654       2.80773248       7.47049995      -0.50869790       0.33164711      -0.88759186
C        2.42157848       2.79132597       7.37025476       1.36634695       2.09469960       0.80782133
C        4.90730472       2.81554782       7.44010102       0.19597103       1.36386430       0.48112925
C        7.34708751       2.86830667       7.46775800       0.95481670      -1.11803084      -0.84715175
C        9.87734048       2.80796694       7.35801689      -1.41208739       1.18348418       0.58433513
C       12.37791014       2.80267032       7.35232124      -2.56532255       0.96986819       0.85634216
C       -1.20688158       4.98965148       7.44806253       0.78954336       0.41110963       0.41602763
C        1.21588747       4.96407624       7.55642068       1.03200661      -0.95172057      -0.67322254
C        3.71395851       4.93517458       7.48558286      -1.30511330       1.37722683      -0.47070497
C        6.12053468       5.04094426       7.46070731       3.42816626      -1.94523829       0.48773184
C        8.69523532       5.00602757       7.57541521      -2.07555131      -2.56562568      -0.15541830
C       11.14490135       4.99219486       7.40991458      -0.03271215      -1.14958907       1.03982611
C       -2.39474546       7.09961005       7.38141346      -0.26614620       3.62773014       1.39235186
C        0.03743748       7.12039352       7.42532113      -0.86031580       0.67515318       1.34105141
C        2.45643810       7.09435329       7.53362653       0.47792103      -0.58891298       0.49676876
C        4.91802086       7.12657630       7.66211278      -1.08260747      -0.90142825      -0.70796585
C        7.42570797       7.13397657       7.70916144      -2.14597357       0.16299637       0.54834071
C        9.88971804       7.09608940       7.62081006      -0.35768622       0.96270124       0.35726481
C       -3.70348369       9.21435294       7.58716128       1.41054679       1.79892632      -1.63462074
C       -1.18719050       9.29810621       7.37484975      -1.97773395       0.72796107       0.08822278
C        1.28573820       9.23810565       7.58812976      -2.55004891      -1.45903008      -0.46891188
C        3.67830423       9.25973779       7.67913130       0.23486513       0.02034745      -1.03749206
C        6.07140845       9.22132558       7.76170206       2.77169729       1.56719999       0.19808087
C        8.61712898       9.25060974       7.60768073      -2.88667933       1.20760319       0.64883768
C       -4.94474783      11.33879429       7.44952740      -1.31884171       1.75819722       0.34321245
C       -2.50902069      11.39680731       7.50285440       0.49740228      -2.03834925      -0.73653878
C        0.01742795      11.35455280       7.40660991      -1.24784661       0.92883878      -0.03348708
C        2.45674920      11.33422734       7.52981035      -2.21660768       2.34751335      -0.72315593
C        4.88572276      11.32302551       7.54834487      -0.11953341       0.76029140       0.04831411
C        7.28767513      11.33716826       7.52951128       0.79349823       1.43578037      -0.03373313
72
Lattice="14.76 0.0 0.0 -7.38 12.782534959858314 0.0 0.0 0.0 15.0" Properties=species:S:1:pos:R:3:REF_forces:R:3 REF_energy=-11165.633913559235 config_type=fd_force_conv_snapshot_069 snapshot_index=69 split=validation degauss_Ry=0.0019000869 kgrid=8 lattice_temperature_K=450.0 trajectory_seed=2 pbc="T T T"
C        0.02906638       0.04829287       7.50906953       1.17112258      -1.16205892       0.18989602
C        2.45526179       0.06444998       7.52512619       0.97319880      -3.49669361       1.39193406
C        4.93539165      -0.04052687       7.76198943      -0.91071662       0.60579304      -0.61009501
C        7.33026918      -0.00581040       7.62762577       1.59491365      -0.99435204      -0.25665009
C        9.81784474      -0.01534737       7.57051233       0.44815331       0.42340130       0.55174974
C       12.33370536       0.01845690       7.65916053      -2.43652185      -1.37490924      -0.45205290
C       -1.20637308       2.08753000       7.48741692       0.10749525       0.60637720      -0.66368297
C        1.21680884       2.12982038       7.51481167       0.89432404       1.77351868      -0.58983189
C        3.69017800       2.09917000       7.50571066      -0.93794075       0.36046583       1.05469840
C        6.10505400       2.13218379       7.63700153       0.47347945       0.28992813       0.21196534
C        8.55560989       2.15212533       7.65145243       1.25389822      -1.75639153      -0.05946216
C       11.08562283       2.15048169       7.49245457      -0.02511993      -1.18963246       0.72839018
C       -2.40222465       4.25192616       7.40747445      -1.09746279      -0.15306497      -0.81851455
C       -0.03088217       4.24317315       7.48948232       1.95659125       1.19585633      -0.94926363
C        2.41986204       4.27173961       7.39102679      -0.47688153      -1.92807360      -0.09042698
C        4.83969996       4.30799048       7.47500086       0.81755116      -3.44403048      -0.30206708
C        7.34184661       4.27599798       7.59380983      -1.61784584       0.94806215      -0.32365407
C        9.79212484       4.22970681       7.52091995       1.71980782       1.48922512       0.32841061
C       -3.64895024       6.29604318       7.37505058      -1.23430230       2.48955805      -0.21814525
C       -1.22601260       6.35005529       7.34455949       3.00983775       1.61683000       0.63316166
C        1.26073449       6.36692106       7.47316006      -1.30950244       1.61841045       0.09667991
C        3.67118254       6.41176009       7.29785125       0.03175158       0.11079089      -0.03207914
C        6.09055645       6.43772594       7.45060244       1.36146777      -1.43259503      -0.49373203
C        8.58928515       6.44812967       7.43804337       0.92432650      -2.24329882       0.26535507
C       -4.87188172       8.49494265       7.32997724      -1.01970054      -0.72223316       0.46974209
C       -2.44921436       8.46088793       7.42539649       0.33779153       0.44458256      -0.55313042
C        0.01915584       8.49908782       7.56700129       0.86933986      -0.83284511       0.36996555
C        2.43278033       8.54952445       7.40102218       1.59748039       0.26131176       0.41961561
C        4.98205286       8.59027029       7.30785807      -3.09303170      -0.01162524       0.22140026
C        7.34533025       8.55341429       7.36991541       1.85535278      -0.02070715       0.34754270
C       -6.13856252      10.64465811       7.59561894       2.25844468      -0.23916042      -1.02853948
C       -3.70150776      10.62478332       7.65620736       1.12064411       1.51425378      -0.98556169
C       -1.22585425      10.59123670       7.54411624      -0.05212860       0.94788680       0.32051732
C        1.26818588      10.63373145       7.58473266      -2.56815282       1.51267204       0.17385697
C        3.74116488      10.69995498       7.54714161      -2.04066504      -2.86930896      -0.84729111
C        6.21182198      10.73212156       7.52404815      -1.16597137       0.79890037       0.30251728
C        1.26469887       0.75672014       7.46369725      -2.12563100      -0.72347269       0.36441608
C        3.68077561       0.67212159       7.71649669       1.36357633       1.82462784      -1.42647863
C        6.13853817       0.70742673       7.67186722      -1.12297379       0.19231826       0.33130927
C        8.57375855       0.69643530       7.60027795       0.19403833       0.72405916       0.21311900
C       11.07580111       0.70065083       7.62237966      -0.21592227       1.33783985      -0.62666757
C       13.53320880       0.65289448       7.52509013       1.39713000       3.23973088       0.29663486
C       -0.00219061       2.84792217       7.48382552      -0.34292808      -1.32645706       0.37489641
C        2.43842421       2.82586865       7.44712232       0.62197248       0.50956256       0.18997984
C        4.88321555       2.83514101       7.57183755       0.22896754       0.91676360      -0.40657394
C        7.33687105       2.85929284       7.65309231      -0.15814393       0.11904850      -0.14190818
C        9.81825995       2.82707045       7.61584184       0.06454472       0.12841658      -0.87817828
C       12.37522011       2.83462864       7.38426811      -2.51740361      -0.42281200       1.11174244
C       -1.19417547       4.98582785       7.31186530      -1.32345247      -2.43796347       1.17254028
C        1.20600701       4.98697985       7.44893370       0.33929897      -2.00020719       0.04601143
C        3.63006552       4.92521662       7.30231593       0.17860785       4.24359625       0.66699430
C        6.02355265       5.00373345       7.47824800       3.96370365       0.36323029       0.73221110
C        8.58232176       4.98540764       7.54367090      -0.44406500       0.31418006      -0.24227839
C       11.09680229       4.93925592       7.44533494      -1.03392877      -2.64993293      -0.10667816
C       -2.42255497       7.00057360       7.31108206      -1.85173806       3.21999586       0.62629425
C        0.03480700       7.06496275       7.55453239      -1.16669360       0.71359914      -1.21899678
C        2.44449225       7.13733314       7.37135043       0.98319782      -1.18648183      -0.08596663
C        4.92157234       7.15970405       7.33295418      -1.13315947      -0.17675049      -0.16191214
C        7.34854113       7.12414055       7.42302123      -0.45689814       0.79578857      -0.19563395
C        9.87810741       7.05866894       7.38825942      -0.40007419       0.62538022      -0.48197566
C       -3.69389096       9.23998739       7.41187600       1.87749435      -1.65382817       0.75259583
C       -1.18617623       9.17127661       7.48773185      -2.59506481       0.12607250       0.25131839
C        1.23288952       9.25996058       7.63437487       0.20898981      -2.10098158      -1.29281469
C        3.70054032       9.24924793       7.31569687       0.46589803       1.11148173       1.23397448
C        6.15370413       9.36083048       7.41789129       1.56431444      -3.02359855      -0.41026965
C        8.65302313       9.17253096       7.38769565      -1.95355375       2.46342742       0.77516652
C       -4.89562527      11.38854116       7.63647142      -1.49395080      -0.66873313      -0.41755358
C       -2.44258535      11.33635768       7.65000938      -0.48771693      -1.12940360       0.32009746
C       -0.03302378      11.33743742       7.57921148       1.72779495       0.24843053       0.16931820
C        2.46865884      11.33234608       7.56753221       0.79568932       1.95198512       0.14212981
C        4.93112073      11.38333029       7.61865368       2.11113075       0.95443103      -0.23821991
C        7.46611119      11.43468567       7.57314168      -2.05407848      -1.76018777      -0.24186187
72
Lattice="14.76 0.0 0.0 -7.38 12.782534959858314 0.0 0.0 0.0 15.0" Properties=species:S:1:pos:R:3:REF_forces:R:3 REF_energy=-11164.917129653133 config_type=fd_force_conv_snapshot_075 snapshot_index=75 split=validation degauss_Ry=0.0019000869 kgrid=8 lattice_temperature_K=450.0 trajectory_seed=2 pbc="T T T"
C       -0.03411871      -0.02172114       7.57276579       0.58881065       0.90157969      -0.92800883
C        2.49132819       0.10779300       7.42152918      -1.41568848      -3.21357402       0.44866162
C        4.97398006       0.04785096       7.35764460      -0.65492400       1.46872263       0.64106755
C        7.41255172      -0.04857643       7.43481027       0.26812081       2.21752403      -0.01831705
C        9.79216333       0.00881689       7.53002037       2.78421830      -0.90788969      -0.46674804
C       12.31932385      -0.03956376       7.64944412      -0.82181276       0.96644760      -0.03399050
C       -1.20890701       2.16770177       7.65224907      -0.80974194      -2.64459789      -0.90416699
C        1.21731384       2.12794490       7.51643987      -1.07962139       0.95831905       0.68954287
C        3.65264719       2.15186527       7.46646549       1.11735335       0.85813859      -0.32226876
C        6.17281356       2.11940622       7.27048826      -0.32688826       0.20355372       0.86462291
C        8.64561352       2.16670473       7.26162922       0.59296170      -0.77082418       0.94732656
C       11.10546429       2.12011564       7.50910992      -0.69456964      -0.07806538      -0.50030248
C       -2.44617406       4.22726656       7.48339489      -0.07157437       2.48592611       0.67527351
C       -0.01383822       4.26466210       7.67566661      -0.64928557       0.90988564      -0.29966516
C        2.40555114       4.27025688       7.67897718       2.62757230      -0.74483984      -0.94277776
C        4.92948147       4.18331898       7.41560409       0.04871341       2.76501088       1.15687481
C        7.38132834       4.20684977       7.28535929       0.65355874       1.85626706       1.76206827
C        9.88464784       4.32132378       7.38350786      -0.56229872      -0.54902668       0.10179743
C       -3.66602588       6.47156428       7.51699389      -1.06200033      -2.39196952       0.17825690
C       -1.25439967       6.40890289       7.43367776       0.51156031      -2.44862661       1.17411997
C        1.20518168       6.38910159       7.52793803      -1.10240496      -1.17170442       0.10732839
C        3.68535923       6.35364887       7.41733262       0.56823180      -1.61040455       1.09263965
C        6.16473581       6.38926846       7.62866971       0.04935978      -2.98016799      -0.20139040
C        8.55494656       6.42598958       7.65705800       3.09030685      -3.16790017      -1.06280123
C       -4.93961103       8.58568247       7.58772702      -0.10651875      -0.55333020      -0.54805121
C       -2.44682805       8.50097488       7.41617508      -1.52644903       2.89053625      -0.10055122
C       -0.07966317       8.55857912       7.48780412       2.64994810      -4.44311669      -0.08636953
C        2.45331455       8.45620305       7.38724216      -0.52265359       1.08575141       1.38969334
C        4.95170528       8.42552710       7.47259594      -0.89224196       2.32261761       1.16066899
C        7.44628438       8.56414266       7.72487341      -3.07951002      -1.58689978      -0.81929951
C       -6.15093367      10.77187060       7.55267499      -1.04230748      -2.10661949      -0.13791372
C       -3.62190705      10.69572478       7.33606809      -3.69247566       0.96823220       1.39793810
C       -1.21866869      10.63272124       7.45358775      -1.09022307       2.70036023      -0.30150761
C        1.19144104      10.59583171       7.43558584       2.72870047      -1.16688180       0.39701715
C        3.68282876      10.63693035       7.63269893      -1.02290774      -1.67537659      -0.55543207
C        6.11796931      10.58536151       7.55871187      -0.68324753       1.04895147       1.19086017
C        1.19729858       0.72759932       7.46036135       1.11073816      -0.32610895       0.45460755
C        3.72187112       0.76132216       7.39721348      -0.19905943      -0.02368783      -0.17567037
C        6.23155289       0.73810134       7.39742702      -1.72566119      -2.28562998      -0.63711936
C        8.61248063       0.76695591       7.45073497       0.08651736      -2.47452764      -0.64413462
C       11.09609912       0.68847267       7.55729730      -1.52013595      -0.08712774       0.29159755
C       13.53942360       0.68664699       7.57732549      -0.75474810       1.88725374       0.92974330
C       -0.01005513       2.86306752       7.62898492       0.68699928      -0.59914854       0.09717459
C        2.41757761       2.86882263       7.58050761       0.65806254      -1.42810177      -0.16359749
C        4.90667150       2.82183528       7.37841906       0.73565972      -1.58502159      -0.23708734
C        7.39917329       2.79060441       7.25589611      -0.10926597       2.14853387      -0.68556512
C        9.90046220       2.87497444       7.33977580      -0.77994363      -0.14336266       0.18420206
C       12.32026380       2.83293787       7.54922916      -0.07502942      -0.09728566       0.28877705
C       -1.25131994       4.98860081       7.57919925       0.75229450      -1.17036102      -0.61226914
C        1.20900723       4.95874034       7.66925682      -0.70553076       1.77592009      -0.25699256
C        3.69980311       4.89757293       7.52518895      -1.22505378       2.10381725      -0.09717330
C        6.17155347       4.90572042       7.55674835      -0.33216442       1.17903566      -1.76653042
C        8.60060101       4.98308680       7.42523061       0.32036562      -0.10050057       0.04910858
C       11.12512011       5.02171160       7.48232612      -1.36201567      -0.22337153      -0.41154620
C       -2.42155418       7.12794053       7.49406479      -2.46730413       0.62451556      -0.61073085
C       -0.06320163       7.06309895       7.47526219       2.34506051       2.89159117      -0.00964138
C        2.43541042       7.04910941       7.44256507       1.11715641       0.36410240      -0.39141626
C        4.94824012       7.04722161       7.51433458      -1.72162945      -0.62418414      -0.47168533
C        7.37429265       7.08274201       7.69001260      -0.26566129       3.12833501       0.38948022
C        9.81163758       7.10601973       7.59631036       0.77624021       2.35695418       0.25409313
C       -3.72140120       9.27926640       7.37466040       2.37067127      -1.36292482       0.77439647
C       -1.23889150       9.25017103       7.43976057      -2.36581934      -0.02739228       0.00438476
C        1.16729647       9.15349435       7.50895617       2.30973176       1.93514517      -1.03895965
C        3.70562540       9.15717939       7.52950318      -0.64447863       1.05414818      -0.83915845
C        6.15860024       9.16461728       7.60680357       0.54903465       0.86816692      -0.20166833
C        8.59530466       9.34220349       7.63773764       1.85634162      -1.09490531       0.10025605
C       -4.90964089      11.43365002       7.50793630       1.35598438       0.68985397      -1.39437764
C       -2.44904726      11.46427464       7.41283078       1.88552982      -3.84975287      -0.58435158
C        0.02333272      11.29711191       7.44894833      -1.66437998       2.00775955       0.04206865
C        2.43633552      11.32078587       7.45610641      -0.17410019       0.92448179       1.25097898
C        4.89309839      11.33675175       7.75044608       1.06080863      -0.80743232      -1.69776112
C        7.29007855      11.35866566       7.51011734       2.74471279      -0.02479598       0.67037093
72
Lattice="14.76 0.0 0.0 -7.38 12.782534959858314 0.0 0.0 0.0 15.0" Properties=species:S:1:pos:R:3:REF_forces:R:3 REF_energy=-11165.010112720542 config_type=fd_force_conv_snapshot_081 snapshot_index=81 split=validation degauss_Ry=0.0019000869 kgrid=8 lattice_temperature_K=450.0 trajectory_seed=2 pbc="T T T"
C        0.01260638      -0.03506652       7.40502822       2.72491478      -0.71055778       0.51853649
C        2.48796310      -0.00085735       7.76533643      -0.72355651      -1.68260833      -1.90445776
C        4.90413570       0.03832890       7.54690110      -0.60438356      -3.33747419       1.12968514
C        7.34865726       0.05119813       7.52887308      -1.21117522      -3.09442318       0.26063890
C        9.85326419       0.08617287       7.22470402      -2.48138297      -2.34470056       2.00795469
C       12.25742259       0.05873685       7.27344322       3.28881041      -2.73845164       0.22015071
C       -1.19424167       2.12741724       7.37665448       1.12452082      -0.18788182      -0.10032727
C        1.26809166       2.13681171       7.44774654       0.00811080      -0.12094521       0.25953667
C        3.68463346       2.15171479       7.62254229       1.42678793       0.64337820      -0.47457731
C        6.16878381       2.11931977       7.55866138      -2.72780804       1.66590233       0.31481616
C        8.55428973       2.13632586       7.60935641       2.33029570       0.29591726      -0.38900431
C       11.14104245       2.17709646       7.47711225      -4.14069119      -0.23178624       0.39064647
C       -2.40823082       4.24493328       7.53649985      -1.28872072       1.88727200      -0.24742960
C        0.02805040       4.28872467       7.46972482      -0.96260097      -1.53183010      -0.09214937
C        2.40572157       4.28383953       7.62777576       3.35624993      -0.64745288       0.21486375
C        4.88690665       4.28294566       7.48441157       1.66702641      -0.03120728       0.96334299
C        7.38436195       4.25841900       7.60395848      -0.15885947       1.51211951      -0.28879453
C        9.80960008       4.26145647       7.63575795       2.23437606       0.41051493      -0.74897161
C       -3.69285311       6.37997649       7.45525208       2.37451816      -0.44003531      -0.53965630
C       -1.21094247       6.37015818       7.54254779      -0.23216007       0.59865206      -0.15411681
C        1.20537144       6.41076966       7.62143428       0.60896964       0.09397613       0.73855967
C        3.68559668       6.42826332       7.61584371      -1.04178915      -0.92221177       0.23419125
C        6.13090296       6.35453038       7.46162420       0.34237375       2.02573464       0.68862962
C        8.63397217       6.38568372       7.43761762      -0.03422267       0.53228752       0.90845122
C       -4.93968046       8.50603303       7.37865294       2.40773912       0.31071062       0.24933144
C       -2.38546426       8.47101549       7.45985889      -1.87856418       1.40590106       0.26549366
C       -0.01362717       8.52667876       7.76525874       0.55800780      -1.13358910      -0.72963537
C        2.45352665       8.54613079       7.67562993      -1.18051970       1.21798376      -1.31511233
C        4.92843361       8.49575215       7.31227319      -1.92704619       1.90939171       0.66517653
C        7.28690713       8.43745405       7.28247651       3.94260338       1.30527426       0.80483808
C       -6.14419932      10.54936226       7.44998661       1.31454925       2.25832023       0.08419926
C       -3.63572839      10.62710122       7.59108103      -2.86222146      -0.27242458      -0.59088759
C       -1.24900774      10.59472340       7.53639514      -0.74254848       2.36640144       0.92539479
C        1.16708925      10.70131458       7.45330181       0.00160025      -1.20885840       0.94607777
C        3.67438603      10.64019339       7.27669166      -0.62738800       0.53299611       0.79556334
C        6.17955027      10.64741068       7.35070978      -1.91383381      -0.98270905      -1.10095023
C        1.28104288       0.70995748       7.55074935      -1.83330403      -0.42313930      -0.13572031
C        3.69033893       0.73211207       7.66085099       0.13440185      -0.13501968       0.14031127
C        6.10493602       0.70369533       7.63905372       1.75946194       1.93697990      -1.19992973
C        8.55577679       0.73095416       7.46148351       2.09990737       0.43098194      -0.41391470
C       11.07508024       0.76910451       7.32886328      -0.12092927       0.62458369      -0.48315014
C       13.59966175       0.68282065       7.34118536      -3.35882335       1.40840866      -0.14595253
C        0.03993436       2.85551198       7.31143475      -0.46784539      -0.30723680       1.33999726
C        2.49620805       2.87399186       7.58541134      -2.32886668      -0.59780540      -0.17315634
C        4.91431325       2.89547927       7.49088923       0.55415681      -2.96941229       0.76984357
C        7.36125419       2.85188030       7.62749469       0.08001247      -0.18755195      -0.09302406
C        9.81268771       2.86024343       7.59731768       1.23846980      -1.12484606      -0.02538296
C       12.33828385       2.84772378       7.52275227       1.26616443      -0.21480796      -0.69973035
C       -1.19102259       4.98888385       7.51880933      -0.67878358      -1.84980280      -0.20334264
C        1.21171347       4.97361317       7.61018885       0.44486050       1.86056826      -0.51008784
C        3.68801124       4.94791042       7.68246053      -1.75482213       3.01274798      -1.20766927
C        6.15890710       4.98732086       7.53030660      -1.04485956      -1.80900762      -0.24361588
C        8.62817490       5.00132139       7.57255533      -1.51806415      -1.53529234       0.15868617
C       11.08221537       4.96625798       7.51280394       0.00186636      -1.03291781       0.70555287
C       -2.41206026       7.05664972       7.37459335      -1.60055748       0.82099361       1.31626598
C       -0.02399399       7.09096228       7.67878015       1.19617515       0.73237591      -0.08773092
C        2.43530952       7.16376538       7.63499877       0.42682369      -2.71437788       0.55270259
C        4.89059535       7.14279143       7.49523565       1.35402186      -3.32196042      -0.42673396
C        7.38029504       7.04801274       7.47131593      -1.06521421       0.23665128      -1.38959590
C        9.88564916       7.09393320       7.44497163      -2.13167798       0.52375814      -0.62102349
C       -3.62251491       9.24290345       7.43544409      -1.63288628      -3.08138255       0.14762683
C       -1.19056817       9.22498949       7.66848858      -2.09282192      -1.51204880      -0.97552796
C        1.15696988       9.24670385       7.64398570       3.39397342       1.38359057       0.07862228
C        3.68357148       9.20529581       7.42138594       0.00511290       1.38773108      -0.10025143
C        6.13856901       9.19546511       7.25182133      -0.68528641       1.36330843       0.36449398
C        8.56662871       9.16502533       7.34731505       0.16749400      -0.93219587      -0.04635313
C       -4.89078656      11.31409827       7.58376191      -0.83228975       0.53815760       0.78063731
C       -2.47492109      11.31041438       7.57897450       2.06420117       3.43815037      -0.33206800
C       -0.09754256      11.36716516       7.52933806       3.20307749       1.45420798      -0.65389221
C        2.42099281      11.39916379       7.36426838       0.99079363       0.37129429      -1.29530455
C        4.89911255      11.37767155       7.25638904       0.70495612       0.29596637       0.23026517
C        7.41988474      11.27725635       7.41319742      -0.91088117       2.57476364      -0.03185571
72
Lattice="14.76 0.0 0.0 -7.38 12.782534959858314 0.0 0.0 0.0 15.0" Properties=species:S:1:pos:R:3:REF_forces:R:3 REF_energy=-11165.611781724396 config_type=fd_force_conv_snapshot_087 snapshot_index=87 split=validation degauss_Ry=0.0019000869 kgrid=8 lattice_temperature_K=450.0 trajectory_seed=2 pbc="T T T"
C       -0.00389360       0.00365014       7.58764294      -0.06011239       0.61062466      -0.72776541
C        2.47532836      -0.06399597       7.43304306      -0.62379051       2.71556933      -0.00575747
C        4.90055736       0.01696215       7.36902727       0.46657115      -2.34849628      -0.86255703
C        7.27779521       0.00070941       7.45663732       2.73433325      -0.07354872       0.39049015
C        9.78732047      -0.01687193       7.63196570      -0.48443697      -0.03144819       0.39002478
C       12.31121734       0.04008380       7.76478326      -0.86502195      -0.25892937      -1.10019278
C       -1.24312618       2.22712936       7.48851341      -0.13762704      -2.86719577       0.33493195
C        1.25061117       2.11012694       7.46123832       0.49265756       2.15036655      -0.44878709
C        3.72513976       2.09627771       7.46066030       0.31205068       1.97337207       0.26313210
C        6.17694522       2.10769834       7.52276718      -1.29612961       1.78138677      -0.77108926
C        8.56702232       2.10606443       7.49628195       0.91729890       0.74236901       1.37839592
C       11.04269244       2.09232241       7.64055752      -0.95338151       2.29124192       0.09783330
C       -2.47207200       4.32095291       7.54357646      -0.23539709      -1.75819619      -0.44755733
C        0.04259661       4.26571470       7.40658680      -1.45178086       0.08800758       0.32055460
C        2.46744795       4.25046937       7.56637525       2.65421227      -0.24894321      -0.85062840
C        5.02373867       4.28113537       7.52593884      -3.70365071      -1.17057056      -0.10748882
C        7.40834503       4.25012901       7.38302774      -1.11041626       0.91257630       0.64339106
C        9.80695231       4.24711338       7.37592564       1.64742587       0.07798876       1.72787671
C       -3.62498665       6.44168791       7.50837166      -3.64397977      -3.55551968      -0.63305676
C       -1.20455260       6.40813627       7.49926696       1.50436969      -0.03838631      -0.99608187
C        1.25744522       6.34543847       7.33961934       0.42605750       2.02311983      -0.00303853
C        3.71001122       6.36432160       7.43133887      -0.57996117      -0.08092804       0.12015845
C        6.20426551       6.42088560       7.44507077      -3.00061032       0.52188818       0.62373420
C        8.58564395       6.41287393       7.49586338      -0.48981135      -1.24736581      -0.68807323
C       -4.93150816       8.49157094       7.58338148       0.49727886       0.05106571      -0.84921121
C       -2.43705234       8.52223238       7.52577394       1.00496041      -0.18378631      -0.41867458
C        0.00482731       8.50427252       7.40196220       1.17235311       0.53793597       0.04839536
C        2.49969449       8.47466835       7.35175015      -0.91115037       2.83949779       0.68742917
C        4.89127538       8.48595946       7.59502723       0.99134462       1.30256560      -0.22882304
C        7.35707978       8.62526011       7.63973264       1.45075961      -3.11082528      -0.17009287
C       -6.17276826      10.67211053       7.42740737      -1.07925500      -0.48491751       1.83410415
C       -3.68106547      10.60726956       7.41573456      -0.45643895       0.88272065      -0.06694998
C       -1.26303328      10.66830472       7.39959260       1.96084643      -0.82020968       0.23660500
C        1.20621288      10.63341743       7.51148322       0.19056580      -0.38472831       0.41558283
C        3.71693359      10.64652238       7.60183187      -2.76443264       0.25459501       0.11122772
C        6.10217913      10.64565358       7.71538760      -0.51022411      -0.25473205      -0.20690284
C        1.24171687       0.73589579       7.43486732       0.36835012      -3.54685687       0.70023917
C        3.70959629       0.67650412       7.43841197      -2.01455214       0.59448970      -0.20505576
C        6.08955032       0.72712371       7.35248329       1.29359939      -0.58735001       1.10285053
C        8.52962254       0.69419385       7.57226446       0.72028324      -0.24182691      -0.53813266
C       11.01157949       0.70249068       7.73474322       1.75439198      -0.62687197      -0.38505715
C       13.56708837       0.76773757       7.57357452      -2.20061979      -0.18991762       1.00842291
C        0.01670773       2.84891400       7.44054928       0.08516959       0.81473168       0.03749568
C        2.51664457       2.85589545       7.46654351      -1.51443247      -2.12594647       0.50200404
C        4.97757083       2.84779910       7.50132734      -0.77767232      -0.80338335       0.18748844
C        7.37446039       2.85780821       7.53495122       0.38503633      -1.28398398      -1.02451159
C        9.79992169       2.82936773       7.61216984       0.40802302      -0.40614277      -1.79143001
C       12.23859639       2.86160135       7.54003865       1.85632620       0.79253021       0.22268222
C       -1.20744480       5.02152205       7.46477398      -0.01088914      -2.24510039       0.25291093
C        1.26703508       4.93654181       7.41799158      -0.50733625       1.18089123       0.19109827
C        3.74091297       4.93931003       7.56461553      -0.50688039       0.98073676      -0.59483192
C        6.17959882       4.99971689       7.40399684       2.37688846       0.22615758       0.25990408
C        8.61580451       4.96520168       7.37516468      -1.20108673       0.98989066       0.06691605
C       11.04272172       4.98247374       7.50686911       1.22915572       1.06381733      -0.36994704
C       -2.41457378       7.08904416       7.48948558      -0.23110078       2.20961197       0.66431726
C        0.05267059       7.10119495       7.35401642      -1.51049765      -1.12580303       0.68970588
C        2.48355045       7.11145077       7.32100466       0.15105205      -3.51432187       0.41397512
C        4.89383635       7.10333157       7.48105720       2.23708189      -1.39855594      -0.03039970
C        7.35156354       7.18881987       7.58232805       2.13497542      -1.19309831      -0.62844112
C        9.81764603       7.02496727       7.43957606       1.96330003       4.44853195       1.60279254
C       -3.66177452       9.20460770       7.56124425      -1.44654378      -0.34376806      -0.52609630
C       -1.20707584       9.25390470       7.45530741      -1.12766168      -1.11384586      -0.09657449
C        1.25177328       9.17035689       7.44015752      -0.50739050       2.05518740      -0.54874258
C        3.70646064       9.23188551       7.51389502      -0.38120590      -0.49100486      -0.04130297
C        6.12285801       9.21025897       7.68999877      -1.15289834       2.04159912      -0.23859734
C        8.62779324       9.27336539       7.55632071      -0.75109997      -0.85693223      -0.03195444
C       -4.94054317      11.32478043       7.44942648       1.18408557       0.43578116      -0.69232686
C       -2.45977634      11.34071716       7.26380966      -1.62710335       1.16573637       1.50005383
C       -0.03501097      11.38362607       7.53911229      -0.09956263      -1.36158733      -1.23288099
C        2.43065135      11.34266577       7.58918851       0.68752944      -0.08031175      -0.09498452
C        4.88677643      11.38311719       7.70398759       1.51689147       0.57024086       0.46294692
C        7.29627076      11.34666931       7.63160269       3.15091701       1.12851143      -0.83567512
72
Lattice="14.76 0.0 0.0 -7.38 12.782534959858314 0.0 0.0 0.0 15.0" Properties=species:S:1:pos:R:3:REF_forces:R:3 REF_energy=-11165.866706948205 config_type=fd_force_conv_snapshot_093 snapshot_index=93 split=validation degauss_Ry=0.0019000869 kgrid=8 lattice_temperature_K=450.0 trajectory_seed=2 pbc="T T T"
C        0.00239796      -0.04983402       7.36443429       0.82854751       1.75865513       0.41624386
C        2.49724395       0.05797766       7.45420371      -0.17999548      -2.54540704       0.40370176
C        4.95064365       0.04799154       7.45192558       0.12464117       0.63329433       0.86065004
C        7.40492079       0.03083533       7.55810521      -1.05004059      -0.11748990      -0.27381992
C        9.86259565      -0.04632022       7.47953055      -0.28840167       1.64850830      -0.59247987
C       12.29107413      -0.10999379       7.27947730       0.12508391       3.07203788       0.14509584
C       -1.21780678       2.07549312       7.38943917       1.91120485       0.62224270      -0.07741489
C        1.21880333       2.08852947       7.48827765       1.02102003       0.71887170      -1.10049823
C        3.69639030       2.15910038       7.52231374       0.42744513       0.61874086      -1.08226037
C        6.19537994       2.16578649       7.41704262      -3.09127950      -0.04321844       0.00370599
C        8.61323588       2.13361553       7.53370680      -0.05890603      -0.11657639      -0.83486985
C       11.08108385       2.12143311       7.45383358       0.61672769      -0.24457645      -0.29507754
C       -2.49890166       4.24045073       7.60149490       2.28182963      -0.99832131      -0.69954781
C       -0.00105609       4.31107943       7.50855283      -0.96421511      -2.14959857      -0.09871082
C        2.41986329       4.34823546       7.40319787       0.79857436      -4.32049332       0.21620998
C        4.92749674       4.29077053       7.38117655      -1.31452020      -0.13245244      -0.80594288
C        7.39242459       4.27091026       7.27971858      -1.36631456      -0.23882849       0.85618764
C        9.78496050       4.22780203       7.48697088       1.39377214       1.13045647       0.18913858
C       -3.69487878       6.36020725       7.56924803      -2.75144419      -0.73517481       0.81600335
C       -1.25741214       6.42507820       7.66492868      -0.15797321      -0.41904379       0.07652580
C        1.20716681       6.41021914       7.71717398       0.18846315       0.51672052       0.06200447
C        3.69157511       6.41428188       7.49765653       0.26382090      -0.67432991       0.27518517
C        6.18284004       6.35135860       7.40213308      -0.09588544       3.13253362       0.16632826
C        8.61708402       6.41274034       7.50300694      -0.45010786      -1.00239548       0.17119330
C       -4.91793917       8.54928557       7.64395507       0.02511351      -0.08840892      -0.54170804
C       -2.50939763       8.50598451       7.66779791       1.45353615       2.26062137      -0.64655685
C        0.01622813       8.52645669       7.67925087      -1.88379098       1.37882169       0.72615435
C        2.44018336       8.45515545       7.62299286       0.38014686       2.43496865       0.33604807
C        4.89204237       8.50576208       7.42669582       3.35841223      -0.37222812       1.13252081
C        7.40844586       8.52097939       7.63702328       0.19740262       0.38404362      -1.42175114
C       -6.17128836      10.67070675       7.50747966       1.85478662      -0.84117059      -0.42670619
C       -3.67323071      10.67191611       7.54631077      -0.19218508       2.78061079      -0.36630250
C       -1.23896130      10.71765893       7.67938763       0.12623757      -1.43303674      -1.26339561
C        1.22124758      10.65883345       7.56791870      -0.25149194      -0.98892932       0.20920526
C        3.65827011      10.55287103       7.34680931       0.72734606       1.00568906      -0.13056550
C        6.16642825      10.63097225       7.34117369       0.01204150      -1.51031099       1.00332390
C        1.24594279       0.68024961       7.42320678      -0.73574508       0.22746704       0.24410542
C        3.74462993       0.75031753       7.56130148      -1.64477352      -0.03808884      -1.09037168
C        6.16156938       0.75525099       7.48719489       1.55684539      -0.04782278      -0.03974000
C        8.64073377       0.70598295       7.53062348      -0.22256626       0.03846859       0.24639987
C       11.06883645       0.70612590       7.38849864       0.74947220      -2.06615856      -0.01858702
C       13.53976538       0.65830314       7.33184788      -0.92801860      -1.03668602      -0.25024650
C        0.04778253       2.82337287       7.40553500      -2.82618256       1.36108288       0.72928750
C        2.43329891       2.79648225       7.40896411       0.83451967       3.33992780       0.88174312
C        4.92966671       2.89778667       7.36506988       0.16845431      -1.53440120       0.95564999
C        7.36550460       2.87135288       7.43288530       2.69646347      -0.61391953      -0.31342750
C        9.83550248       2.84134850       7.45504389       0.01632805      -1.28792034       0.60158055
C       12.36425885       2.78477254       7.45567574      -3.16908262       1.87603627       0.41389747
C       -1.26808673       5.00859093       7.59579090       0.65871252      -1.06948558       0.09863986
C        1.21152374       5.02643220       7.53000718      -0.62312099      -0.39786176       0.17107606
C        3.65789742       4.98974632       7.41030803       1.26099780       0.93978783       0.24040123
C        6.15031489       4.97149121       7.29248716       0.68701522      -0.00651106       0.34608925
C        8.58204471       4.95989677       7.41548418       1.18855054       1.36404299      -0.13293066
C       11.04022520       4.90183316       7.60250724      -0.69805014       1.96445986      -0.54345742
C       -2.53304314       7.07800183       7.58447542       2.73646932       1.49790696       0.81678728
C       -0.01182900       7.13565661       7.80091572      -0.71277485      -1.17404001      -1.23058782
C        2.45025037       7.09835901       7.68267194       0.14522799      -1.84719775      -0.60692304
C        4.95838734       7.10750977       7.47169207      -1.22861193      -1.42752121      -0.36270758
C        7.41639718       7.13528649       7.49930778      -1.35159551      -2.38015350       0.20884814
C        9.80814513       7.11309621       7.65418435       2.36921834      -0.30930268      -0.86288048
C       -3.70066391       9.30397145       7.64430993       0.58215509      -3.20234395       0.05265902
C       -1.24193277       9.28272579       7.62146248      -0.43830804      -2.02179546       0.98732932
C        1.24048156       9.19718281       7.69042520      -0.26678101       1.95324779      -0.86221045
C        3.66702678       9.14579919       7.48037221      -0.54089223       1.55646461      -0.43714924
C        6.19797961       9.20387807       7.53434942      -2.64258934       1.25332126      -1.16158199
C        8.63641368       9.24028337       7.49476844      -1.02003427       0.46520075       1.71827518
C       -4.93408006      11.37027799       7.45243350       1.34130441       1.16859056       0.54682993
C       -2.41196806      11.45009340       7.51546350      -2.55916270      -2.53066691       0.61787029
C       -0.02511478      11.39692125       7.59923580       2.33537954      -0.28691197       0.30263838
C        2.46502713      11.32756739       7.41649184      -0.40258153      -0.53047489       0.54842659
C        4.90561216      11.26253364       7.21495399      -0.28089302       0.50575913       0.87586043
C        7.38234619      11.35830731       7.47571004      -1.05495165      -0.82732598      -1.09941271
72
Lattice="14.76 0.0 0.0 -7.38 12.782534959858314 0.0 0.0 0.0 15.0" Properties=species:S:1:pos:R:3:REF_forces:R:3 REF_energy=-11165.906717070415 config_type=fd_force_conv_snapshot_099 snapshot_index=99 split=validation degauss_Ry=0.0019000869 kgrid=8 lattice_temperature_K=450.0 trajectory_seed=2 pbc="T T T"
C       -0.01544037      -0.07513773       7.75790388       0.13782887       2.59963984      -0.98087123
C        2.47183803      -0.02289625       7.65412971      -1.55094856      -2.35436791      -0.46975392
C        4.91277641      -0.04013866       7.60572836       1.23252926      -0.02898713      -1.57597877
C        7.40210841      -0.01682586       7.30333276      -0.44626920      -0.26954777       0.27674403
C        9.80843819       0.03528255       7.47794152       1.63727181       0.26350722      -0.20541674
C       12.29632036       0.00239025       7.53195373      -1.04675832       3.14199322       0.47548259
C       -1.19771373       2.09323360       7.62113379       0.16066181       2.36460707      -0.47374350
C        1.27397860       2.06282613       7.74778352      -1.63553991       2.04809553      -0.41987837
C        3.67892969       2.04924561       7.74106959       1.47933408       2.40245911      -0.10834166
C        6.16186053       2.07295921       7.49114948       0.30267284       1.28003554      -0.82588333
C        8.58094794       2.16373685       7.38158249       0.75843995      -0.73149402      -0.66249795
C       11.04870124       2.21842679       7.57134459       1.19429902      -2.35744423      -1.11049879
C       -2.43293732       4.28125652       7.40909878       0.18879868      -1.28580535       0.62474310
C        0.03672705       4.22036641       7.43537274      -0.08862310       1.83691977       0.85948431
C        2.47065321       4.27609089       7.60364287       0.41863344      -1.35411030       0.46479914
C        4.89587777       4.22127667       7.59789958       1.64579244       1.39351812       0.98058429
C        7.37573051       4.25689891       7.49244539      -0.56233883       0.28127380      -1.15881496
C        9.83723623       4.25186472       7.42104021       0.69160592       2.94431241      -1.16151616
C       -3.68467420       6.43666159       7.39878705      -0.57060364      -1.99101524      -0.20945312
C       -1.16370540       6.34514047       7.37953383      -1.50870122       2.43390910      -0.05488045
C        1.28908141       6.43020037       7.51651597      -1.64045406      -0.84442895      -0.22497873
C        3.65880070       6.46159169       7.61294589       1.82309366      -0.66768824       0.23628078
C        6.12227540       6.41315780       7.58112714       1.23924576      -0.28675514       0.76012762
C        8.60345386       6.37478052       7.42769752      -0.12195539       0.68292125       0.39881975
C       -4.97429307       8.52668582       7.51484835       0.13637491      -0.66610752      -1.05942846
C       -2.54441576       8.51105964       7.33851466       3.73141965      -0.33980574      -0.02608796
C       -0.00342706       8.54572679       7.38064861       0.41513752      -0.29057759      -0.49904932
C        2.49580394       8.60673320       7.48576379      -1.84579522      -1.34330653      -0.17702971
C        4.93059419       8.53784573       7.46027375      -0.54415650       0.45779237       0.48903848
C        7.35506916       8.49068558       7.53799734      -0.40942324       1.60963656       0.14567048
C       -6.17571303      10.64913225       7.61488021      -0.80609663      -2.34923830      -1.10280040
C       -3.72859425      10.63431587       7.55381888       1.82213541      -1.70543484      -1.44549605
C       -1.23805956      10.67182492       7.28135701       1.12466249      -2.13860427       1.14475720
C        1.27411898      10.66095336       7.22037087      -0.99485443       0.35565453       1.09266639
C        3.70651371      10.70733848       7.44257653      -1.14087895      -1.78009710      -0.17202840
C        6.11609602      10.67618091       7.58233816      -0.56997063      -2.15254171      -0.63611483
C        1.23646375       0.65369049       7.73540956      -0.34050533      -0.48883973       0.32280483
C        3.67172946       0.65616801       7.63582167       1.29256889       0.23609283       0.78715429
C        6.16951651       0.67846310       7.35464251      -1.50595760      -1.03412752       1.65386108
C        8.59396368       0.72980678       7.41652574       0.03099491       0.44836208      -0.52065096
C       11.05196063       0.78678188       7.51631063       0.09928623      -1.62958447       0.39671402
C       13.53183375       0.70488384       7.64136509       0.57703243      -1.63214837       0.40902935
C        0.06357521       2.85694868       7.59693870      -1.11708699      -3.61110128       0.34476231
C        2.46356972       2.80236577       7.76914115       1.37623850       0.64657177      -0.84620199
C        4.96758086       2.77769006       7.68964777      -2.98598562       0.48068008      -0.68569033
C        7.35430879       2.84118046       7.29672756       0.13271160       0.09608110       1.90194348
C        9.81902297       2.88823885       7.39631685      -0.07270283      -1.51635848       1.00589809
C       12.33660485       2.83087139       7.51992863      -0.71243443       1.27349953       0.15569444
C       -1.20383695       4.95364136       7.44305054       1.01877803      -0.25207018      -0.76812144
C        1.25416632       4.95359600       7.49731640       0.31094639       1.71267815       0.16311593
C        3.69628468       5.02159359       7.58748647      -0.54084903      -1.43876876       0.43465090
C        6.15281474       4.98141290       7.64314050      -1.17868599      -0.63267701      -1.09009040
C        8.59734190       4.96252191       7.32474479       0.44564314       0.00945986       1.56395860
C       11.11692625       4.99482336       7.40047142      -2.25725477      -0.20882243       0.10493161
C       -2.45318919       7.08516457       7.34593050       0.84352341       0.52660049       0.24201254
C        0.05016152       7.11673448       7.39654243      -0.61770085      -0.54490881       0.39321706
C        2.46066694       7.19806659       7.63291889       0.46665882      -1.48400783      -0.89344241
C        4.91394588       7.16087565       7.60814397      -0.31099138      -2.16680413      -0.65169289
C        7.39903880       7.11488326       7.58146327      -1.85760738      -2.22206717      -0.98657702
C        9.80338979       7.12236283       7.44271073       1.15730470      -0.98012612      -0.07298128
C       -3.74273834       9.20613445       7.36605069      -0.42327429       1.27288247       1.53468119
C       -1.25068899       9.22270214       7.34517773      -0.86624142       0.68339434      -0.60821631
C        1.24346154       9.27484384       7.32603037       0.20079236      -1.02185616       0.35612813
C        3.71788994       9.24084623       7.42283863       0.01504147       2.82182017       0.25551803
C        6.13000550       9.22828908       7.48620187       0.69771692       1.23047521       0.49829188
C        8.55131487       9.19671630       7.53188161       1.17548574       2.22301565       0.56164000
C       -4.93890646      11.29382603       7.49525161      -0.45558560       3.03784992       1.90829462
C       -2.45457590      11.31721676       7.52754381      -1.21824910       1.52873423      -0.41309426
C        0.04241823      11.33547739       7.27857763      -1.54607067       1.38301105      -0.66441625
C        2.46347529      11.38888831       7.41063337       0.67369536       0.53990004      -0.55016851
C        4.89528208      11.41063676       7.52617437       1.05948168      -1.29948645       0.01231764
C        7.33026359      11.32190402       7.63639403       1.77671353       0.85372812       0.55606791
72
Lattice="14.76 0.0 0.0 -7.38 12.782534959858314 0.0 0.0 0.0 15.0" Properties=species:S:1:pos:R:3:REF_forces:R:3 REF_energy=-11166.038551871421 config_type=fd_force_conv_snapshot_105 snapshot_index=105 split=validation degauss_Ry=0.0019000869 kgrid=8 lattice_temperature_K=450.0 trajectory_seed=2 pbc="T T T"
C       -0.01834348       0.00756617       7.13683160      -0.05895102       0.28135428      -0.73174084
C        2.50355134      -0.01706065       7.26561795      -2.18233617       0.66183949      -1.22257781
C        4.87581071       0.01587148       7.52595182       1.24326336       0.16068495       0.18561874
C        7.33690639      -0.01159644       7.70705473       0.54092385       0.59851682      -1.01533609
C        9.78425794      -0.02545441       7.53360285       2.17404076      -0.51452916       0.31725999
C       12.30366096      -0.02860921       7.31359039      -1.72148983       1.90243662       0.00256365
C       -1.29558470       2.16832304       7.26579961       1.70143626      -1.44246369       0.00033270
C        1.20133713       2.10379218       7.28742313      -0.56169065      -0.27685407       0.21766188
C        3.64899998       2.10853029       7.38957736       0.45306026       2.95804390       0.58106006
C        6.09745236       2.14863757       7.47577303       2.89356655      -1.11707182       0.18166232
C        8.62439382       2.07610901       7.37659981      -0.80240504       1.01949485       1.01022988
C       11.02453666       2.12506500       7.47685625       1.70985405      -1.02549015      -0.75747990
C       -2.46833305       4.26482149       7.58543193      -0.17675383      -1.53052603      -0.24212618
C       -0.02828017       4.22915851       7.48440845       0.77079179       1.02176874       0.35797572
C        2.40990376       4.25925542       7.38719046       2.11529028      -1.19671097       1.25034701
C        4.93603333       4.29479176       7.35836177       0.70902566      -1.94167474       0.09519484
C        7.41194277       4.24805007       7.40701732       1.69203965      -1.58210699       0.59181550
C        9.84046033       4.23599204       7.62701672       0.43332781       1.31149350      -0.64168307
C       -3.67661755       6.37623102       7.69838381       0.56909954       1.56374340      -0.10326862
C       -1.22810596       6.37545058       7.76748939       0.43033993       1.73732140      -0.47620147
C        1.22697704       6.43926507       7.56967694       1.90197151      -3.27606160       0.43747192
C        3.70439210       6.35334613       7.34981905       0.30585406       2.42808298       1.60017285
C        6.17304075       6.43138544       7.38531512       1.23947433      -1.87000678      -0.35882290
C        8.67119873       6.40332972       7.65347278      -2.34748609       0.53354864      -0.87129493
C       -4.89130055       8.54797227       7.57994545      -1.78435305      -1.12923391       0.19454921
C       -2.45172068       8.57443228       7.73299744       0.75885107      -0.51704525       0.15331797
C        0.05123029       8.53483799       7.86476727      -1.40059636       0.07339960       0.15646448
C        2.51201224       8.49807864       7.72699075      -0.32694276      -0.24355058      -0.02337827
C        4.92106554       8.56493842       7.35635049       0.12447816      -1.89728053       0.62640481
C        7.36650740       8.54258284       7.48644376       0.27842399       0.61114685      -0.18431853
C       -6.11857430      10.62929961       7.30084225      -0.58954881       1.80610535      -0.62845783
C       -3.70328927      10.64904454       7.56517417       1.01719475       0.51711929      -0.80044638
C       -1.22378045      10.68293053       7.75085275      -0.96905958       0.23650087       0.46133047
C        1.23691509      10.60363446       7.81572562      -0.00369442       1.39448536      -0.31314700
C        3.67931567      10.68227785       7.54113299       0.67075916      -2.29997108      -0.58649383
C        6.18597128      10.66065520       7.25965543      -2.03511763       0.13079330      -0.24671895
C        1.24366121       0.67610346       7.14563508      -0.56465462       0.50377090       0.79756546
C        3.67648050       0.74671110       7.30862078       0.43323217      -2.34591746       0.98545653
C        6.10436050       0.74477775       7.62507648       0.13912085      -1.91176767      -0.44846210
C        8.58614941       0.66879396       7.52730687      -0.70323785       0.48785731       0.22132982
C       11.05053120       0.69186985       7.48055427      -0.72060565      -0.41991437      -0.73012825
C       13.46241940       0.76417552       7.17143439       2.29273214      -2.43711603       0.32546721
C       -0.02924222       2.83175145       7.32806772      -0.38699551      -0.08981172      -0.13170579
C        2.38521954       2.81230138       7.48127932       2.08565574       0.85615524      -1.77887686
C        4.92001839       2.84045707       7.44332463      -2.52657885       1.61492609      -0.55780700
C        7.39803790       2.77213065       7.42259299      -0.74892995       2.34010600      -0.30217713
C        9.83826822       2.84934002       7.43464491      -1.16583536      -1.23556445       0.62661564
C       12.26822894       2.81448988       7.39486763      -1.17783778       2.57950835       0.94443381
C       -1.25548870       4.95738408       7.67900043       1.09278235       0.22904698      -0.80824248
C        1.22977086       4.94406501       7.47239541      -2.16505887       2.26229876       0.00512215
C        3.68866509       4.97015088       7.41880866      -0.01871043      -0.94747311      -1.13496155
C        6.24131147       4.93536272       7.30188716      -3.99872208       2.91259066       0.85933184
C        8.63605383       4.97911888       7.63357000      -0.23061304      -0.41720468      -0.80983450
C       11.08664993       4.96265093       7.64127307      -1.02474042       0.02157541       0.46149451
C       -2.45752982       7.15495060       7.73369954       0.86756374      -2.12738989       0.31908033
C        0.05221671       7.11674147       7.72247166      -3.08914985       0.12310211       0.60204797
C        2.49255980       7.07578851       7.63048021       0.00722197       0.47608577      -1.29642349
C        4.95958182       7.12528650       7.37947384      -1.53458169      -0.74767294      -0.54425240
C        7.39500357       7.14512481       7.47507996       0.99469065      -1.39722076       0.78491846
C        9.87634069       7.12151888       7.64321635      -0.15691185      -0.37601124       0.37094745
C       -3.69756314       9.23404854       7.59471554       1.26417491       1.17372299       0.47919989
C       -1.20238038       9.30139792       7.84927661      -0.29977494      -2.80640024      -0.54385800
C        1.28634356       9.20381641       7.91889456      -0.35267102       0.00534738      -0.98136976
C        3.70271094       9.21247412       7.50752054      -0.66860921       2.19518037       0.53706720
C        6.12422832       9.26279005       7.37726247       2.05195604      -0.33357698      -0.30204934
C        8.60817597       9.25138429       7.53526027       0.58332032      -0.64594699      -0.81213461
C       -4.87721835      11.35939038       7.25463299      -0.91540014      -0.80855307       1.47460300
C       -2.48068885      11.37959331       7.66042455       0.08698016       0.03050074      -0.46916642
C       -0.00196650      11.34251028       7.72944428       0.53960256       0.91110820       0.80286501
C        2.43927542      11.33078307       7.65182740       0.04453922       0.96069912       0.03450420
C        4.90871367      11.35123527       7.30349608       0.91161676       0.03108001       0.54783961
C        7.39715764      11.35771384       7.11334269       0.28178802       0.24557558       1.25361848
72
Lattice="14.76 0.0 0.0 -7.38 12.782534959858314 0.0 0.0 0.0 15.0" Properties=species:S:1:pos:R:3:REF_forces:R:3 REF_energy=-11165.631643857707 config_type=fd_force_conv_snapshot_111 snapshot_index=111 split=validation degauss_Ry=0.0019000869 kgrid=8 lattice_temperature_K=450.0 trajectory_seed=2 pbc="T T T"
C        0.03218973      -0.02151482       7.94798451       0.01189032       0.08291576      -0.98687784
C        2.49158954      -0.01857229       7.64837009      -1.43376514      -0.53601973       0.54164350
C        4.90839976      -0.00293928       7.41253218       0.62084068       0.13480397       0.42082197
C        7.37388525       0.01702747       7.27766127      -0.57268906      -0.35736277       0.64421149
C        9.84418158      -0.01303716       7.43364294       1.90251915       0.20430603      -0.28912158
C       12.30324556       0.00882065       7.74114924      -0.34296228      -0.47133746      -0.45626411
C       -1.26012419       2.11395105       7.77209626       2.02436682      -1.71378244      -0.34105092
C        1.21608941       2.19282794       7.71027389       0.88794333      -3.14666183      -0.10255282
C        3.70219851       2.09274463       7.57391969      -0.13030916       2.57330763      -0.28816719
C        6.16259372       2.15434733       7.42318755       0.66415631      -1.77050020       0.77525497
C        8.65660760       2.09069798       7.52441986      -1.88599313       0.86924653       0.21954958
C       11.07068978       2.11088521       7.64821891       1.17207286       1.07408734       0.15377511
C       -2.46004196       4.18622860       7.51678196       1.68217535       1.39886190       0.21794007
C       -0.00958886       4.28101040       7.58672117      -0.48217954      -1.11840879      -0.30063009
C        2.42777490       4.28683565       7.48352847       1.45812942      -0.22242742       0.89734174
C        4.93886011       4.25351267       7.49605851      -0.19967933      -0.27711761       0.23021298
C        7.43564942       4.29892631       7.52416443      -2.02437144      -3.73665493       0.71316385
C        9.85390809       4.17730438       7.50096573       0.85628405       2.90225611       0.17480699
C       -3.73046741       6.29256255       7.40629108       2.24237271       3.41297412      -0.40852541
C       -1.20523463       6.41457472       7.41254215      -0.96631827      -1.07868962       0.01177154
C        1.19126323       6.45731290       7.36887523       2.15266075      -2.13923111       0.96874488
C        3.69741663       6.39225601       7.28499746      -1.33811804       2.26095099       1.67508014
C        6.11476342       6.43892067       7.48421899       2.15120602      -1.46725838       0.98364879
C        8.60076602       6.36316871       7.54165994       0.29615252       1.44533510      -0.56288082
C       -4.90157841       8.54128832       7.49242594      -0.87123785      -1.03523720      -0.20801099
C       -2.45572387       8.46184952       7.28894849      -0.27521011       2.51062927      -0.10082350
C       -0.02626392       8.56061077       7.28875371       0.20716047      -0.29204338      -0.48694071
C        2.41774658       8.57100450       7.19249050       0.33019135      -0.96888629       1.44023712
C        4.88054034       8.54320879       7.50959416       1.81022066       1.43727572      -0.40514030
C        7.35745182       8.57673087       7.62480468       0.41750113      -1.58967606      -0.41550030
C       -6.14024164      10.62545955       7.80929954       1.45611856       0.61832563      -0.76151371
C       -3.65785256      10.65452419       7.45660771      -0.14015649      -2.16028613      -0.31911195
C       -1.21607374      10.67440151       7.35871847      -1.34995592      -1.55119590      -1.65031964
C        1.21446767      10.72376628       7.09855951      -0.30094685      -2.82376033       0.82976672
C        3.62455722      10.62462593       7.29377785       4.23963110       0.50971349       2.06058723
C        6.13205971      10.69263539       7.76107121      -0.34557503      -0.91166433      -0.82255478
C        1.24928059       0.70212439       7.77201166       0.18640344       0.80333861       0.40573165
C        3.68373970       0.71128527       7.57996385       0.81601209      -1.19432113      -0.65785223
C        6.14322721       0.71936392       7.41265667       0.30930037      -0.22956172      -0.78963823
C        8.62605903       0.67227969       7.40000483      -0.12815792       1.12060786       0.00833526
C       11.10831516       0.76547118       7.60900207      -2.20356936      -4.39202475      -0.04729930
C       13.54801869       0.66869649       7.85268249      -0.05295470       1.01969386       0.32368235
C       -0.03466039       2.81943698       7.64240214       0.49223693       2.02154477       0.86512608
C        2.47314507       2.86351685       7.63372470      -0.43338643      -0.17385825      -0.50793660
C        4.95801075       2.80904881       7.44907614      -2.57996987       1.79396795       0.66794689
C        7.37785219       2.82743648       7.56337906       2.68000146       0.80230194      -1.11122487
C        9.88631235       2.81575390       7.58910684      -2.43420606      -1.30654772      -0.35987114
C       12.30116160       2.77784986       7.68029129      -0.35616027       1.87529220      -0.34871538
C       -1.24058840       4.96842322       7.48011480       0.33201838      -0.01126375       0.40682308
C        1.21314485       4.98983580       7.54424791      -0.38636096       1.19712209      -1.03411877
C        3.67397712       5.00008465       7.46181461       1.07603830      -0.86896319      -0.79562247
C        6.19510436       4.93372339       7.58999534      -2.17566261       3.32993289      -1.46712289
C        8.64094347       4.92981640       7.48994283       1.07117069       1.53627039       0.34563597
C       11.11388410       4.90472878       7.47197338      -2.78235014      -0.58185376      -0.08902008
C       -2.44944466       7.08182872       7.33552211      -1.24262907      -2.10659249       0.30995703
C        0.01707843       7.15462656       7.41327579      -2.15776079      -0.38975199      -0.65285709
C        2.41919637       7.16474420       7.32676101       1.25339274      -1.75644347      -1.06813704
C        4.91397590       7.17231587       7.43710736      -0.81882591      -3.18517053      -0.54548370
C        7.37268146       7.13836885       7.56862997      -0.59853739      -1.09649014      -0.23637514
C        9.82785439       7.09388742       7.42832825       0.16216102      -0.93020455       0.65436144
C       -3.66172191       9.21443189       7.36232881      -0.76917508       0.19428541       0.66074240
C       -1.25112367       9.23489690       7.23877180       0.04411627       0.29865986       0.99681232
C        1.17425910       9.26346557       7.17065741       1.50400999       1.67068355      -0.29293375
C        3.66988097       9.21851216       7.41885519      -1.51304407       1.26922070      -1.82501016
C        6.14127723       9.28014219       7.55292037      -1.19377682      -0.23364463       1.30404810
C        8.59295202       9.24624693       7.65923241       1.51928543      -0.92016234      -0.10762021
C       -4.86352668      11.30613963       7.63407361      -2.22066617       2.18796225       0.56944381
C       -2.45796892      11.34998227       7.36426333       0.85309357       1.62813848       0.52191286
C       -0.02063116      11.37731876       7.20673290       0.71772216       1.23327231       0.25800686
C        2.47327789      11.34191285       7.24897236      -2.12277553       2.39655997      -0.37587343
C        4.86658642      11.37955534       7.61041714       0.58856922      -0.74235744      -0.02504949
C        7.41276499      11.32590863       7.90544628      -1.35968908       1.67356987      -0.01337616
72
Lattice="14.76 0.0 0.0 -7.38 12.782534959858314 0.0 0.0 0.0 15.0" Properties=species:S:1:pos:R:3:REF_forces:R:3 REF_energy=-11165.1871151534 config_type=fd_force_conv_snapshot_117 snapshot_index=117 split=validation degauss_Ry=0.0019000869 kgrid=8 lattice_temperature_K=450.0 trajectory_seed=2 pbc="T T T"
C       -0.02606838      -0.02623153       7.20169742      -1.08549327      -0.04099907      -0.12504997
C        2.44838376      -0.04142739       7.33314126      -0.07432108       1.33305400       0.30303356
C        4.92891229      -0.01973774       7.43625060       0.90482288      -1.11677280       0.44765554
C        7.41888373      -0.05471335       7.44087934       0.92701844       3.17148480       0.46987450
C        9.81060399       0.04784515       7.47910995       3.32387872      -0.31136548       0.04726176
C       12.27705575       0.04423436       7.29222534       0.81673920      -0.76105656      -0.58066694
C       -1.28383009       2.16435023       7.17925330       0.84809869      -2.20836293       1.04510818
C        1.18582097       2.07564446       7.37878055      -0.40084732       1.42587056       0.15087105
C        3.65135359       2.10851273       7.49139685       0.47391576       0.35557174       0.06737267
C        6.09111299       1.99264024       7.42071825       2.16807786       5.80007757       0.79582019
C        8.65240137       2.15409472       7.45747880      -3.91110711       0.07522534      -0.08355185
C       11.02782272       2.18910840       7.28793699      -0.56122631      -1.52441709       0.94755822
C       -2.46333552       4.26577556       7.41955177      -1.89331717      -0.56295641      -0.72254632
C       -0.06964963       4.21232854       7.56298438       1.64196099       3.90540594      -0.14303561
C        2.43176039       4.27987829       7.58362088      -1.67225912      -2.03961526      -0.00925031
C        4.85543330       4.23790631       7.59441058       2.55542535      -0.83860386       0.40712699
C        7.35142196       4.22068411       7.50548094      -0.49047958      -0.82619495      -0.28604345
C        9.77056020       4.32515377       7.33823768       2.18765603      -2.10263788       0.66553288
C       -3.68466659       6.38894103       7.49615458       2.50680013      -0.73233400       0.04247334
C       -1.19340715       6.39424994       7.64518205      -1.35234421       0.38257886      -0.32336713
C        1.20772399       6.44496373       7.67414009       1.26645420      -2.06672883       0.20498737
C        3.64557881       6.38493011       7.73933663       0.99594792      -0.05597883       0.22342192
C        6.14926312       6.37915880       7.56501717       0.82045187      -1.83754300       1.45319368
C        8.60801110       6.39955196       7.44344423      -0.04045039      -0.56454278       0.91697700
C       -4.89873178       8.46557940       7.46501333       0.40663822       2.12374021      -0.53676895
C       -2.39423568       8.56575553       7.68155707      -0.72435407      -1.88431934      -0.85070579
C        0.01764163       8.54630232       7.65693547       0.83420933      -1.24937616       1.48305730
C        2.49050055       8.56357806       7.79603383       0.11444263       0.30217790       0.70767378
C        4.94912666       8.50986512       7.69368760      -1.26811462       0.83766490       1.23627485
C        7.36399205       8.54921346       7.38803383       1.44969595      -1.27195610       1.08141576
C       -6.11711921      10.66495157       7.35574310       0.56440497      -1.56752678      -1.67580107
C       -3.68121140      10.66749742       7.50966456       3.09424886      -2.79005754      -0.91752747
C       -1.17728256      10.65458453       7.64676810       0.52290865       0.74896749      -0.39031249
C        1.28842604      10.66991091       7.69096187       0.33520320      -0.26046869       0.58517665
C        3.73397167      10.72719411       7.58010697       0.91139102      -1.90363707       0.75763340
C        6.18557475      10.65623306       7.34787377      -1.23853047       0.60519963      -0.08873314
C        1.15063672       0.66054937       7.30344890       3.57511046       0.83105022      -0.20284307
C        3.67846145       0.68683863       7.46254287      -0.10430580      -0.32922976      -0.73146059
C        6.21252477       0.64013464       7.44873392      -3.40479287      -1.15525527      -0.48443132
C        8.62504413       0.75974796       7.44872170      -0.56046295      -2.08965638       0.04208073
C       11.08346275       0.76199081       7.38013970      -2.58838663       0.05315370      -0.38792496
C       13.50775658       0.69969745       7.17604166       0.15590527       1.69256415      -0.02889329
C       -0.04845774       2.84803031       7.40382897       0.09399130      -1.88533981      -0.79078571
C        2.41323563       2.79888284       7.45791649      -0.11695306       1.15440912       0.51924740
C        4.89728171       2.83244971       7.53970777      -1.04259184      -2.76992657      -0.63739499
C        7.32528016       2.78250372       7.45049084       1.43539033       0.24294662       0.07087580
C        9.80687409       2.90168784       7.45359904       0.90042295       0.10848950      -1.30696321
C       12.23782357       2.82253167       7.26570699       2.41842926       2.76489081       0.00827201
C       -1.28364589       5.00541800       7.53867161       1.80917679      -2.41110495       0.19289753
C        1.19165723       5.00409838       7.62088750      -0.03170402      -1.39192866      -0.02953066
C        3.65727520       4.92860956       7.69512756      -0.80282413       2.49224923      -0.49533588
C        6.12582478       4.88550420       7.60077395      -0.42102071       3.32717256      -0.55449568
C        8.56810714       4.98541096       7.42020378      -0.86001472       0.20424638       0.04792819
C       11.05520894       4.94298647       7.35939022      -0.12746990       2.44073975       0.70383409
C       -2.38906413       7.12584365       7.59298015      -2.27461949      -0.14786697       0.32766473
C        0.01490439       7.09086554       7.70216927      -1.08595813       2.65763055      -0.44761852
C        2.42539937       7.16373740       7.72442520       2.14156413      -1.87669962       0.29183923
C        4.93793298       7.05475898       7.76689440      -1.41801970       1.57228075      -1.16259654
C        7.40727296       7.10512456       7.57808454      -1.75757578       0.77613917      -1.69746390
C        9.86702642       7.06156196       7.53994491      -1.10744792       0.95859673      -1.03402801
C       -3.63159486       9.19906882       7.50924858      -2.06868286       1.44408323       0.78377560
C       -1.17700513       9.26993979       7.70076452      -0.18280569      -0.79060754      -0.17132726
C        1.25611300       9.22608767       7.81465733      -0.17635634       1.98133709      -1.33828414
C        3.72275237       9.30099315       7.85607305       0.73728543      -1.35214598      -2.00441300
C        6.15465560       9.24822045       7.55726019       0.11702736      -0.18116559      -1.22489103
C        8.62444197       9.23128851       7.26174224       0.40474203      -0.47909653       1.86516025
C       -4.85764812      11.33681502       7.32012425      -2.37195065       0.98476234       0.76754551
C       -2.38662286      11.32754804       7.48680786      -2.81773675       1.50727066       0.55934349
C        0.05505539      11.37550692       7.61491956       0.43174247      -2.01288684      -0.13596636
C        2.54176746      11.41297143       7.62372347      -3.53842185       0.14575584      -0.34113577
C        4.93541142      11.40611864       7.32237756       0.92963557      -0.74034993       0.97986413
C        7.42305119      11.34908772       7.22306037      -1.24786795      -0.27607657       0.74131512
