72
Lattice="14.76 0.0 0.0 -7.38 12.782534959858314 0.0 0.0 0.0 15.0" Properties=species:S:1:pos:R:3:REF_forces:R:3 REF_energy=-11165.047700349303 config_type=fd_force_conv_snapshot_003 snapshot_index=3 split=validation degauss_Ry=0.00285013035 kgrid=8 lattice_temperature_K=450.0 trajectory_seed=0 p4_key=seed0:snapshot003 pbc="T T T"
C       -0.02030902      -0.01939019       7.73003020       0.59096112       2.57076043      -0.83916873
C        2.41023112       0.01619341       7.77390649       0.19538456      -1.66889432       0.18307103
C        4.87394512      -0.04254704       7.61737085       0.42248033       1.65505047       0.70411794
C        7.37294363       0.00436466       7.49248159      -2.18678032       0.91475377       1.48823858
C        9.83420387      -0.02112779       7.44368783      -1.32753281       1.02629362       0.17461210
C       12.29065780      -0.00190723       7.52256476       1.63826657      -0.39222719      -1.11656608
C       -1.25316303       2.09083998       7.33165713       0.99416692       3.05302328       1.77645591
C        1.20614100       2.12256824       7.60126804       0.31421426      -0.49711688       1.24381615
C        3.63964486       2.10617960       7.67694538       0.40987292       0.09159504       0.53944573
C        6.08255997       2.10889677       7.72169411       3.30654074      -2.36489143       0.38115627
C        8.54424248       2.16757104       7.66677632       0.97361815      -1.50567504       0.47294080
C       11.03156658       2.08442245       7.46754416       0.15014523       3.77774681       0.22802574
C       -2.45311913       4.26432704       7.52553388      -1.23746501      -0.25304103      -0.55536214
C        0.03204577       4.27054150       7.47883691      -0.75787868      -1.05670360      -0.78021257
C        2.45681558       4.25018606       7.52926759       0.70328130       0.06419787      -0.09730006
C        4.94369932       4.19885421       7.57506594      -0.13749694       0.68708978      -1.07787946
C        7.38596745       4.28985414       7.50297536       0.75779872      -0.85545204       0.70416396
C        9.83492193       4.31202035       7.64157541       1.06584387      -1.12740945      -0.45601291
C       -3.66233380       6.44065515       7.39854408      -1.03113681      -2.38958996       0.94001049
C       -1.20138258       6.36677816       7.49496579       1.22452516      -0.20618782      -0.31801127
C        1.31532494       6.39493360       7.39684132      -2.48789609       0.01762903       0.36535273
C        3.67829913       6.34491475       7.39922159       1.93766999       0.64510341      -0.41487655
C        6.12972845       6.34499096       7.29193968       2.28926423       1.53080243      -1.32003907
C        8.68234846       6.41038067       7.39088122      -2.08955071       1.82420695      -0.62738465
C       -4.86488628       8.57567154       7.53510509      -1.93858479       0.73579830      -1.43356819
C       -2.41419264       8.45118930       7.41941086      -1.03499064       3.68753298      -0.43511370
C        0.00712576       8.47573810       7.37312224       0.37980053       2.39247628       0.49136250
C        2.47280059       8.56825298       7.32835444      -1.17317586      -1.39541842       1.37938913
C        4.89942204       8.54743323       7.35324693       2.38488922      -1.94320737      -0.07117353
C        7.38645980       8.50203647       7.38311806       0.68994422       1.09839610      -0.32888575
C       -6.21308833      10.67685620       7.54510627       5.16401365      -0.59091433       0.86820394
C       -3.63995233      10.69819496       7.56465906      -2.88830684      -1.41805441       0.24638419
C       -1.20780228      10.66385003       7.46336937      -1.38071248      -0.90441999       0.15656424
C        1.21735949      10.66837405       7.43882658      -2.82910591      -0.33621442      -0.09918030
C        3.69543325      10.65737480       7.37197787      -0.42057257       0.26913639       0.52004264
C        6.18969622      10.69439159       7.51785565      -0.33893747      -2.53762020      -1.07827516
C        1.19066598       0.70034999       7.83198504      -0.08649088       0.95951616      -1.38654297
C        3.61915300       0.68359608       7.68716449       1.78580624       1.11255079       0.15569752
C        6.10319851       0.64905390       7.67041985       0.41402783       2.37156396      -0.76706446
C        8.57088544       0.67962563       7.59380954       2.29880817       2.55977051      -0.76632732
C       11.08586490       0.70213172       7.41551156      -1.71287895      -1.31229337       0.59664326
C       13.54332821       0.73466866       7.52915812      -1.71325536      -2.70460332       0.16593488
C        0.01234253       2.81782343       7.48550528      -1.62046425       1.19646208      -0.70847956
C        2.41364251       2.86592775       7.66039942       1.15858511      -2.03081694      -0.49890431
C        4.92225789       2.76171156       7.70914948      -3.57156260       2.83685624      -0.55544956
C        7.31533492       2.85639684       7.77256109       0.78216326       0.55986697      -1.66018291
C        9.78618998       2.88253619       7.61867788       0.93530151      -1.73191334      -0.18597895
C       12.27755104       2.84716705       7.41349838      -0.39675901      -1.50930312       0.06779665
C       -1.23676540       4.95022534       7.47084750       1.91149539       0.48682836       0.36851365
C        1.27234943       4.97562824       7.38750865      -0.92010500       0.06672964       1.07782110
C        3.71281443       4.91786793       7.50736917      -0.22871428       0.52424768      -0.00837640
C        6.16764961       4.93954411       7.29596553      -1.23448690      -0.56589235       2.05868616
C        8.65582948       5.03286033       7.53723058      -2.03693591      -1.67317032      -0.32424362
C       11.06951224       5.00347468       7.54886120       0.54245289       0.14026062      -0.30484413
C       -2.42282327       7.04360268       7.44865202       0.50135175       2.11673575      -0.24523850
C        0.06893890       7.10030621       7.46494830      -1.48432871      -2.00250241      -0.61411442
C        2.49067840       7.11701277       7.41061773       0.66898639       0.51596924      -0.73881652
C        4.93137515       7.04761947       7.26263116      -1.56656570       2.10667323       1.12228807
C        7.40844067       7.10835102       7.22985010      -0.48868469      -1.57948781       1.47879878
C        9.87532012       7.16677340       7.39023313       0.72425996      -0.51567639       0.64213430
C       -3.65625536       9.29323229       7.43119677       1.07991398      -2.44816818       0.95721656
C       -1.21376784       9.21669641       7.35895946       0.04910781      -0.49249095       0.76033485
C        1.20056817       9.25005959       7.42070891       1.60911386      -0.68076924      -0.82671482
C        3.69516700       9.25158873       7.42774385      -0.30139937       0.31333340      -1.16384224
C        6.17488716       9.24160435       7.40070263      -1.29332043       0.26632335       0.11872275
C        8.60826502       9.27058116       7.50349331       0.21010361      -1.40020504      -0.16595828
C       -4.91647921      11.38244401       7.70917422      -0.93120831      -0.77413885      -0.95071630
C       -2.44422930      11.35333619       7.59864557       0.78416590       0.13749874      -0.73708900
C       -0.04787278      11.42680319       7.49185689       2.68044909      -3.69843085      -0.74321876
C        2.39186173      11.35227318       7.38010074       4.11743942       0.62179302       0.22819055
C        4.95980218      11.32999950       7.44099189      -2.07753183       2.26561625       0.65041377
C        7.41096337      11.40438141       7.52814255      -2.92139746      -0.63728777       1.08856703
72
Lattice="14.76 0.0 0.0 -7.38 12.782534959858314 0.0 0.0 0.0 15.0" Properties=species:S:1:pos:R:3:REF_forces:R:3 REF_energy=-11164.90825479634 config_type=fd_force_conv_snapshot_009 snapshot_index=9 split=validation degauss_Ry=0.00285013035 kgrid=8 lattice_temperature_K=450.0 trajectory_seed=0 p4_key=seed0:snapshot009 pbc="T T T"
C        0.05031630      -0.07045205       7.37873127      -0.67675498       1.95417878      -0.00062401
C        2.49505887       0.02515760       7.11085961      -2.36515523      -0.54262129       0.52416592
C        4.93904808       0.00594069       7.18386985      -0.70460799       0.71879663       0.62783999
C        7.33750455      -0.03399396       7.41086900       1.05124001       0.96403667       1.21458888
C        9.80423785      -0.00285314       7.58540113       1.54873947      -1.09438260       0.43418013
C       12.32885378      -0.04368262       7.49380669       0.63840491       1.29119592       1.15975316
C       -1.16300960       2.09693042       7.38302439      -1.95679848       1.82173972       2.06133157
C        1.26138898       2.17159446       7.38405750      -2.03840761      -1.75361911       0.35074886
C        3.67132893       2.15978939       7.23897215      -0.12977283      -0.17232408       0.47980487
C        6.09470817       2.21358664       7.27916813       2.41755457      -3.32558644      -0.22065027
C        8.58586429       2.13025459       7.41792193       1.03565578      -1.46557045      -0.19848994
C       11.05554258       2.06277532       7.53046012       0.93851925       3.00909367       0.24819424
C       -2.44899189       4.26125618       7.53881241      -0.93335956      -1.50078480       0.44016489
C        0.03258768       4.27956243       7.49234120      -1.31887153       1.57335110       0.20340897
C        2.46862584       4.26002490       7.56272497       0.38316508       3.01939454      -0.17726934
C        4.91346426       4.27112850       7.46304029      -0.80972163       2.39826949       1.40346211
C        7.40306872       4.20914945       7.53507472      -0.71525622       1.79957192      -0.34125224
C        9.82163203       4.33266862       7.48672466       3.40028599      -4.77796045      -0.28358342
C       -3.72486647       6.41102427       7.66619664       1.10015602      -3.08493839      -1.61335026
C       -1.29937967       6.40189236       7.60797069       3.25508988      -0.85081763       0.14704139
C        1.25881106       6.41389652       7.52570789      -2.07134473       1.32234612       1.52401600
C        3.65695699       6.46658128       7.66406837       0.66481786      -1.11905054       0.59108093
C        6.17459717       6.34773942       7.66935895      -0.79258883       1.09438775       0.62267208
C        8.59638481       6.32132219       7.66693087       0.38198443       3.02752899      -1.24635254
C       -4.91505207       8.46231429       7.49360678      -1.89648014       2.14448258       0.04050233
C       -2.51296064       8.48672698       7.48666168       1.95156320       0.92430284       1.35916998
C        0.00485805       8.53023446       7.72960863       1.13543464      -0.78447006      -0.91674252
C        2.49712913       8.58454692       7.70498520      -3.20197114      -0.40470424      -0.88527504
C        4.91887518       8.52399310       7.64840610      -0.62417823      -0.95059443      -0.65714286
C        7.35459130       8.54302772       7.47936502       1.14838194      -1.40302323       1.25750547
C       -6.11598820      10.62518039       7.41699176      -0.15328968       2.49738038      -1.96574798
C       -3.75558523      10.63979046       7.31585760       3.00403888       1.05208667       0.25560108
C       -1.23220500      10.59743287       7.55397908      -0.36941687       1.89734224       0.16473238
C        1.23033418      10.67849256       7.57591859      -0.04318733      -1.01396261       1.02846003
C        3.72013444      10.67728111       7.60838476      -1.37834192      -1.03246504      -0.06160775
C        6.19302427      10.65477409       7.51290674      -1.73421525      -2.17322289      -0.12372945
C        1.23714304       0.71297843       7.30121599       1.20713962       0.27112411      -0.53602230
C        3.68072444       0.72130000       7.13950335       1.68804287       1.30851102      -0.20227768
C        6.15096163       0.72605846       7.28396521      -0.96004401       1.14573268      -0.35510946
C        8.57865677       0.65909782       7.49295132       0.07321448       2.46880848      -0.50782116
C       11.09666462       0.65521493       7.60504017      -1.43625885       0.68135879      -0.91766014
C       13.59062941       0.68274640       7.47538949      -0.68813879      -0.86049501      -0.96417191
C        0.02817197       2.88553450       7.47125319       0.35819504      -1.76522096      -0.80326302
C        2.44141745       2.87487620       7.45200007       2.24414908      -1.12057083      -0.92059403
C        4.89020549       2.90412469       7.26943054      -0.76410281      -1.55302756       0.23519423
C        7.38037143       2.83627839       7.35690002      -1.36146289      -0.04620298       0.44865262
C        9.81628159       2.85770101       7.43867818       0.65563542      -0.99022876       0.56703135
C       12.32007309       2.83693955       7.57613058      -0.06493552      -2.14928823      -1.65570019
C       -1.25937471       4.96172614       7.56071780       2.27607216       1.32070576      -0.22807819
C        1.26529400       5.02446618       7.48083061      -0.51036886      -2.22170155       0.52889803
C        3.69104297       5.04720385       7.65619125      -0.46845037      -2.24892337      -1.40011865
C        6.14782372       4.92313462       7.65246131       1.39222922       0.41929190      -1.10880289
C        8.63422156       4.94836594       7.50769254      -3.36487444       0.63184989       1.15135337
C       11.08604439       4.95668992       7.56553968      -1.24165102       1.87273035       0.46794977
C       -2.50967189       7.07951222       7.56449623       0.04709644       1.42390136       0.46776080
C        0.00835065       7.10871337       7.69679432      -1.42177531      -0.67830021      -1.12468485
C        2.40647413       7.18163018       7.69849949       2.98975075      -1.12954064      -0.67029019
C        4.93973113       7.08985331       7.68105526      -0.56944973       0.76580642      -0.14289240
C        7.39520964       7.09450270       7.67990165      -0.43878807      -0.19964642      -0.90747317
C        9.82861653       7.05593523       7.51565538      -1.37024629       0.51525139       1.46952944
C       -3.72571334       9.21673167       7.54679939       0.25901525       0.08146412      -1.60140723
C       -1.22315697       9.16740070       7.59884756      -2.21144491       1.72472788      -0.17857288
C        1.24207145       9.27612864       7.61225023      -0.26643314      -0.89625879       1.08078198
C        3.68887124       9.25063227       7.57082864       1.76009263       0.68305983       1.30879435
C        6.11267340       9.20320353       7.53083879       2.06056563       1.88281087       0.02928332
C        8.60783626       9.27648710       7.45113090       0.51644335      -4.72120875       0.28736089
C       -4.92294322      11.38047337       7.11575019      -0.20541417      -1.01969669       1.91600664
C       -2.46246711      11.40563354       7.37576549      -0.37024143      -3.66522197      -0.43300900
C        0.00704688      11.35430010       7.65895816      -2.28757553      -0.39408429      -1.96198877
C        2.44229081      11.35556954       7.64617326       1.82291291       1.03286768      -0.82470988
C        4.95938136      11.33895436       7.58248211       0.04151329       0.78793976      -0.55237040
C        7.40815747      11.29593147       7.38511628       0.46827579       1.58228671       0.59181370
72
Lattice="14.76 0.0 0.0 -7.38 12.782534959858314 0.0 0.0 0.0 15.0" Properties=species:S:1:pos:R:3:REF_forces:R:3 REF_energy=-11164.514747708896 config_type=fd_force_conv_snapshot_015 snapshot_index=15 split=validation degauss_Ry=0.00285013035 kgrid=8 lattice_temperature_K=450.0 trajectory_seed=0 p4_key=seed0:snapshot015 pbc="T T T"
C       -0.07223834      -0.01731676       7.63590973       3.46350607       0.26556539       0.01451439
C        2.44340424       0.01282605       7.73679034      -1.50030426      -0.91844022       0.64207079
C        4.92051237       0.02220598       7.72749333      -1.30256200       1.45960241       0.29806002
C        7.41086983       0.04537188       7.71920853      -2.10458343      -2.06243380      -0.68551961
C        9.85194431      -0.02758511       7.53866251      -0.95284209       0.64659671       0.09890468
C       12.28359416      -0.01724090       7.53395477       1.32962389      -0.31088674      -0.36908443
C       -1.24264523       2.18359992       7.45026917      -0.27148381      -2.39281773      -0.23672404
C        1.25376420       2.14714682       7.46594849      -4.68401723      -2.84005675       1.18039578
C        3.67761266       2.16254503       7.66135188       0.20071857      -1.97508494       0.11795656
C        6.17441319       2.14914932       7.59835438      -1.55975382      -0.53129841       0.83926798
C        8.59824405       2.16594401       7.63546186       0.37504630      -0.57962050      -0.13698761
C       11.12114242       2.11592057       7.53153812      -1.80756471       2.68038867      -0.48548341
C       -2.45404103       4.39824284       7.52970448      -1.55463270      -3.81329489      -0.54653091
C       -0.00918587       4.23673284       7.28727698      -1.49274444       0.97349370       1.31952974
C        2.41496765       4.19505608       7.29249092       0.57226946       1.67468110       1.20032311
C        4.94314322       4.22324635       7.45337305      -1.77356779       0.62629862      -0.50827753
C        7.40719918       4.23958560       7.60839004      -1.91973012       2.44252641      -0.56186857
C        9.80053288       4.28603827       7.61175878       3.61234312      -1.41380643      -0.11831420
C       -3.75098624       6.42114205       7.44356931       1.97890123       1.26059337      -0.25118521
C       -1.22088945       6.41535432       7.45173848      -0.01889787      -0.11341933      -1.48545408
C        1.22247849       6.37444336       7.22877032       0.77702491       0.12252746       0.03361306
C        3.70148239       6.32619576       7.31386002       0.47163545       1.62655828      -0.76038165
C        6.14051886       6.39010119       7.42100438       2.02142882      -1.34254394      -0.86000033
C        8.64840403       6.34003148       7.42307418      -0.63826556       1.31827195       0.56243807
C       -4.92967366       8.50258754       7.42623650      -1.55486538       4.21243860       0.84290480
C       -2.50504332       8.54267836       7.42134390       2.04398228       0.46132456      -0.84961153
C       -0.03093599       8.50900762       7.30881624       3.78299109      -0.36450247      -0.04669946
C        2.50083452       8.47447744       7.37759054      -1.56285303       0.83997092      -1.05348330
C        4.94484503       8.57076699       7.32265651       0.18159522      -2.93757098       0.17362583
C        7.38189125       8.49526982       7.53152763       0.65991425      -1.15087668      -1.05210750
C       -6.20036518      10.60703624       7.82523627       3.23061272       2.77239406      -0.23757199
C       -3.72124895      10.64986537       7.66251677       2.17782671       2.20154153      -0.70715416
C       -1.15208069      10.63828771       7.49755135      -1.46676396       2.95056713      -0.08034132
C        1.28733707      10.61268275       7.28850248      -1.15942817       0.84384017       2.08059453
C        3.69929812      10.58767510       7.43204744       1.17828104       2.83593039       1.08125661
C        6.16490795      10.65590687       7.64503611      -0.02559739      -1.66253444      -0.22208752
C        1.18599848       0.71158802       7.61292610       0.46687737       0.00725231       0.13031225
C        3.62205249       0.73011715       7.78536563       3.05729594       0.79817918      -0.78641227
C        6.13719640       0.75326457       7.78203429       1.55221457      -1.10127625      -0.96380450
C        8.58214699       0.74044996       7.63161346       3.11433329      -0.22096446      -0.09909700
C       11.07466693       0.69901268       7.48582198      -0.19852516       0.02052974       0.57129861
C       13.53522426       0.70447197       7.45146414      -2.68110678       0.79504938       1.05413250
C       -0.06082217       2.85128064       7.45713316       4.26374496      -0.01393769      -1.14159603
C        2.42422478       2.79778253       7.58205562       2.14115918       2.82071640      -1.58012210
C        4.93793242       2.82971535       7.53038637      -0.76989550      -0.18574986       0.54268532
C        7.36485012       2.87507629       7.61031802       1.45456716      -1.66722979       0.25083220
C        9.82047794       2.86753525       7.58320403       1.99149346      -1.19355262       0.31253893
C       12.33968478       2.92331752       7.44998969      -2.75897855      -0.51036912       0.82608439
C       -1.21653050       4.98408532       7.42907690       0.21815630       1.98495952      -0.12110102
C        1.18200866       4.95355957       7.26567712       2.04241570      -0.45167032      -0.56890748
C        3.66182944       4.91300267       7.32735807       0.79575823      -0.20885071       0.17183557
C        6.13586316       4.94173878       7.46993277       1.45551950       1.00490847       0.42957760
C        8.63551237       4.95007316       7.61409240      -2.22057001       0.94014495      -0.71347264
C       11.02503930       5.05293660       7.54343964       0.67437928      -2.08716601       0.09558796
C       -2.48824556       7.11256346       7.36229996       0.32145063       0.67865553       1.15004802
C        0.02294208       7.10311019       7.27624428      -1.75376695      -0.43879526       0.73040490
C        2.48567524       7.06982826       7.24799864      -0.27989389      -0.73441608       0.66531382
C        4.95969340       7.11218527       7.28767999      -1.87046187      -0.21742328       0.73622845
C        7.44810772       7.01816451       7.36422314      -2.98147102       2.70979695       1.10059310
C        9.81758001       7.14965858       7.41360370       0.06115189      -2.75168408      -0.17946660
C       -3.73348329       9.27928052       7.43177535       1.12624629      -2.47825034       0.66822945
C       -1.15505867       9.24394501       7.40293618      -5.26004821      -0.08948622       0.12392717
C        1.22758354       9.19812548       7.32316155       1.37174036      -0.36051906      -0.37357229
C        3.71101459       9.22534637       7.38026883      -0.42889677      -1.73418877      -0.25585253
C        6.17964896       9.21184215       7.46362795      -0.60820705       1.22826612       0.71950522
C        8.56502455       9.26177762       7.62345154       1.54104004      -3.58257335      -0.46884426
C       -4.88914607      11.35487767       7.83461781      -3.27452048       0.13104450      -0.62482358
C       -2.46414306      11.44628995       7.55613589       1.19122218      -4.52268462       0.97156486
C        0.08256089      11.37112415       7.51423867      -1.34262930       0.07323273      -0.22940257
C        2.50037669      11.30674584       7.48594757      -0.51738412       1.45213567      -1.05738340
C        4.93287717      11.32921935       7.60223362      -0.71049016       0.59025818      -0.92026416
C        7.38562785      11.33304757       7.77865019      -1.89116310       1.50973481      -0.39716525
72
Lattice="14.76 0.0 0.0 -7.38 12.782534959858314 0.0 0.0 0.0 15.0" Properties=species:S:1:pos:R:3:REF_forces:R:3 REF_energy=-11164.605980131924 config_type=fd_force_conv_snapshot_021 snapshot_index=21 split=validation degauss_Ry=0.00285013035 kgrid=8 lattice_temperature_K=450.0 trajectory_seed=0 p4_key=seed0:snapshot021 pbc="T T T"
C       -0.01569685       0.00632570       7.44741688       0.62296904      -1.03408792       1.26298012
C        2.44051180       0.01191274       7.37604035       1.40461525      -1.31974828       0.54425317
C        4.93756418       0.02700128       7.31334668       0.30579107      -0.61709664      -0.25688303
C        7.38340271       0.01271390       7.32390027      -0.56106382      -0.28190244      -0.21909707
C        9.83344421       0.01106239       7.42093347      -0.01505047      -0.70495921       1.34314223
C       12.29666080      -0.04518715       7.55185463       0.48219883       1.75057544       0.75898991
C       -1.21663214       2.16314572       7.61283745      -0.59394231      -1.42629917      -0.15393735
C        1.28801844       2.11255140       7.55436414      -5.14053099      -0.71525339      -0.19533493
C        3.68661425       2.12929702       7.46600004       0.10587057      -1.07220581      -0.68015192
C        6.05368843       2.13687887       7.03814662       3.66159389       3.15858352       1.66548735
C        8.59109329       2.15959673       7.30102757      -0.66588281       0.49000753       0.24327804
C       10.96267260       2.11221192       7.57546115       4.67162657       1.95818662       0.09973001
C       -2.40119606       4.23090600       7.62429626      -3.09081798       1.91241044       0.23866239
C        0.00460413       4.25601915       7.63156333      -0.99103069       1.48401092       0.52014188
C        2.43362872       4.24822741       7.44392344       1.95961821      -1.43732894       0.79726849
C        4.94602499       4.28201775       7.30224759      -1.78619010       1.66080897       0.34470292
C        7.44838894       4.25461841       7.27919777      -3.91430067       1.60559016      -0.22104082
C        9.79340713       4.27132864       7.56901203       2.92152138       2.42486781      -1.22392404
C       -3.65842221       6.36853710       7.56020163      -2.46391824      -0.77508502      -0.55496902
C       -1.26693222       6.41545543       7.63522689       1.29105914      -1.47652644       1.53689491
C        1.20466638       6.33826240       7.62714382       0.60851301       1.65847801       0.85169078
C        3.64179818       6.42121903       7.58457392       1.94129910      -1.38106112      -0.58509078
C        6.17659014       6.45570042       7.56862898      -0.62525038      -2.93869095      -1.83997938
C        8.60147123       6.38991977       7.45793623       0.53623622      -0.42696896      -0.83322563
C       -4.92868006       8.45470176       7.57886371       1.01732021       0.48340365      -1.38042194
C       -2.46611831       8.52471705       7.67713487       1.18375518      -0.92136922      -0.11491031
C        0.02136961       8.50540618       7.72952911       1.47752685      -0.45707169       0.15307474
C        2.46969284       8.55099313       7.64328108      -2.02237961      -0.56210203       0.11296964
C        4.91306215       8.51872608       7.45829196       0.09503003       0.01676102       0.73951920
C        7.42512472       8.57024172       7.41662729      -1.07037184      -2.34625145       0.10736361
C       -6.14980819      10.62442561       7.49429595       0.92244137       1.74787861       0.51543856
C       -3.70831122      10.67744769       7.41320332       1.30142531      -1.53132487       0.24908899
C       -1.19415495      10.58431556       7.40905041      -0.78222985       2.59711321       0.14810017
C        1.26378838      10.64519498       7.55524487      -0.46214628       1.65571690      -0.55367935
C        3.71608554      10.65376772       7.60024856      -1.37514784      -1.03067761      -0.08824309
C        6.12926244      10.60199115       7.69057802       1.61595993       1.93469599      -1.18179188
C        1.24327776       0.69300889       7.41975737      -1.62038043       1.16286291       0.41278907
C        3.68671502       0.66457214       7.40706425       0.56511870       2.93288849      -0.28819290
C        6.18008044       0.79920132       7.23696907      -1.85824707      -4.30496386      -0.20669587
C        8.57635511       0.74719722       7.39159791       1.82679939      -1.25973950      -0.78701853
C       11.06654074       0.69910662       7.55809961      -1.12998364       0.02829833      -0.81201917
C       13.52610591       0.72121493       7.54299630      -0.11989080      -0.56744478      -0.05774286
C       -0.01368428       2.89317785       7.61935285       1.90600428      -3.38757702      -0.28711380
C        2.44326522       2.76913916       7.55120954       2.77173688       3.83369299      -0.73506117
C        4.87714444       2.88830426       7.26229987       0.05821029      -1.84089469      -0.44479828
C        7.36681470       2.86867791       7.14582165      -0.53524506      -1.23428455      -0.07485124
C        9.80732340       2.91778294       7.48377396      -0.81702819      -4.41294325       0.00366922
C       12.31989743       2.84786064       7.63392079      -2.30492919      -1.60097734      -0.13009988
C       -1.23438493       4.99774330       7.71328309       1.05826426      -0.87703851      -1.21642027
C        1.23738906       4.91399870       7.57079899      -0.57972720       2.18944167      -0.09910883
C        3.66458144       4.98991490       7.41363061       0.26143208      -0.30626569       0.50189322
C        6.16084481       5.00376026       7.33993185       1.51798548       0.00271586       0.58472954
C        8.61653566       4.99287159       7.39804264      -0.22028646      -0.64627686       0.72510071
C       11.07250654       4.96349498       7.54160254       0.76180501      -1.11001723       0.89019228
C       -2.48240019       7.07640549       7.67159861       0.69586881       2.54590866      -0.31045582
C       -0.02258015       7.06773051       7.77169960       1.09267154       0.58416672      -1.24595299
C        2.44414311       7.12563275       7.67190129      -1.21996197      -0.70298897      -0.60735447
C        4.92132240       7.09697612       7.54529506      -0.74711424       1.41360486      -0.01746628
C        7.41077954       7.11039242       7.42789063      -0.85148612       2.12486558       0.60913908
C        9.83386461       7.04009533       7.42841988       1.01138174       1.46143278       1.68424869
C       -3.70647005       9.16944498       7.55353413       0.79704789       2.76674200       0.16330619
C       -1.13592804       9.21612108       7.69492756      -5.15663227      -0.16703172      -1.02847983
C        1.21844235       9.28120320       7.63453883       1.52212752      -3.21773149       0.56269004
C        3.66178664       9.23557727       7.56423221       2.40744319      -0.06929637      -0.02870354
C        6.16914985       9.24122136       7.44639652      -0.66347291      -1.35109594       0.84903766
C        8.65604643       9.22059157       7.47603629      -0.98160065       0.20485419       0.32139484
C       -4.90622810      11.38614257       7.44563057      -1.66025336      -1.24575065      -0.52632796
C       -2.46053735      11.39551036       7.29567402       0.98724988      -2.47789090       0.99981872
C        0.01452842      11.31121201       7.38527176       0.15635007       2.46971994       0.40748051
C        2.51543429      11.35705941       7.55074039      -2.25370562       1.22254618      -0.54858960
C        4.91437973      11.31663173       7.64614551       1.22700499       1.55345102      -0.23519860
C        7.38027400      11.34049221       7.62828393      -0.47067437       0.19993978      -1.17793446
72
Lattice="14.76 0.0 0.0 -7.38 12.782534959858314 0.0 0.0 0.0 15.0" Properties=species:S:1:pos:R:3:REF_forces:R:3 REF_energy=-11165.089146552296 config_type=fd_force_conv_snapshot_027 snapshot_index=27 split=validation degauss_Ry=0.00285013035 kgrid=8 lattice_temperature_K=450.0 trajectory_seed=0 p4_key=seed0:snapshot027 pbc="T T T"
C        0.07398286      -0.05536097       7.38403688      -3.89648062       3.59046329       1.27424953
C        2.44344303       0.06692209       7.46474295      -1.26187532      -2.80819255      -0.34539454
C        4.81490413       0.01891656       7.62178147       3.29644916      -1.92067217      -0.37644653
C        7.30905493       0.00032304       7.64238226       1.61639059      -0.91351372       0.04879928
C        9.83757405      -0.00482807       7.56237337      -1.51174335      -0.93422165      -0.25528380
C       12.31495626      -0.04494564       7.40401795      -0.44285324       0.05034169       1.29939723
C       -1.22964352       2.13520992       7.43805203       1.03580130       0.60507365       1.36642023
C        1.19893692       2.13654689       7.56301022       0.06311287       0.22047390       0.23296457
C        3.65390564       2.15559962       7.64668553       1.27690959      -1.23298666       0.24123504
C        6.17530137       2.09656267       7.71368458      -0.46430395       1.97367340      -0.28435347
C        8.63372397       2.14143457       7.72288140      -0.43688236      -0.52205401       0.16071966
C       11.06927332       2.09052149       7.50496948       1.95152309       1.62021845       0.65207496
C       -2.49223400       4.30825503       7.31429718       3.23089348      -0.35128957       0.62839381
C       -0.01402649       4.29992256       7.51252288       0.08038246       0.30690024      -0.57337632
C        2.43590023       4.30204981       7.61320484       0.89318350      -1.17285422      -0.38158025
C        4.92041848       4.21681970       7.69678328       1.44555390       2.38038181       0.73035862
C        7.44566210       4.29614786       7.78451329      -1.98510607      -1.08255322       0.09144925
C        9.92125728       4.22876236       7.57032315      -2.35694518       0.68178277       0.42593975
C       -3.69899480       6.37926080       7.24554967       0.32064279       0.40400207       0.04985832
C       -1.22246512       6.46624199       7.15989652      -1.04013798      -3.86435828       0.61439030
C        1.16608874       6.45022017       7.34057834       2.16799918      -1.73277929       0.32452901
C        3.72867341       6.40599799       7.51748988      -1.43293878       0.06476609       0.55604400
C        6.19116899       6.42708271       7.75434908      -0.57297574      -1.14634768       0.46188814
C        8.69289722       6.41362160       7.63487378      -2.04930703      -3.35444322       0.26629867
C       -4.96977260       8.48565742       7.44461723       1.55889353       0.52004392      -1.51038761
C       -2.45231099       8.45294604       7.25968821      -1.28542688       1.50069455      -0.23734008
C       -0.02568981       8.51053137       7.37563216       0.05905978       3.53022466      -0.69467505
C        2.45959055       8.55084038       7.32665265      -1.14317649      -0.68544222       0.11821392
C        4.86369392       8.53804305       7.63112846       2.94959937       0.16452001      -0.97512327
C        7.38964965       8.49396191       7.54880069      -1.29306177      -0.11882867       0.24872466
C       -6.18031467      10.64484003       7.32220796       2.40716011       0.44032687      -0.06923595
C       -3.66101876      10.59723860       7.39241111      -1.96560554       0.89809482      -0.53133312
C       -1.21313784      10.64727401       7.33063382      -0.44697009       0.31253224       2.37649739
C        1.25047750      10.67527074       7.45512210       0.10076925      -1.03825439       0.13769157
C        3.68838190      10.62264266       7.45138215       1.23132033       0.47167479      -0.43714050
C        6.18164253      10.59991423       7.49094509      -1.11240578       1.77404447       0.11708187
C        1.20348664       0.73122450       7.48903910       1.19964048      -0.30270292      -0.46745844
C        3.63677958       0.70532511       7.62702554       0.47431351       2.75180081      -0.19062982
C        6.08232812       0.70950686       7.61109572       0.41046196      -0.85476427       0.82754889
C        8.55225467       0.72242715       7.68581666       1.55299979      -1.09044007      -0.42309791
C       11.04625251       0.68007666       7.47772609       1.95126855       0.14697557      -0.00704919
C       13.54529578       0.68674783       7.51099553       0.16225718      -0.16095260      -1.71172556
C        0.02203657       2.88557940       7.56700875      -2.20822923      -1.04792663      -0.76924064
C        2.41664720       2.81142530       7.61666020       1.19440777       3.15720438       0.15787370
C        4.94163491       2.82362389       7.69718919      -1.22327123      -0.52581991      -0.00367128
C        7.42081227       2.85173508       7.74156343      -0.85554923       0.05856690       0.22235594
C        9.88878814       2.81186396       7.68958807      -0.35793381       0.46529125      -1.00926829
C       12.33644178       2.90832281       7.48809236      -2.03691071      -2.99825467      -1.05011695
C       -1.23068826       5.02999370       7.32423852      -0.14979221      -0.42099372      -0.41891395
C        1.21932336       5.01054668       7.47749102      -0.45951398       0.61910827       0.16286524
C        3.72401909       4.98029550       7.64162532      -1.60472010      -0.32724641      -0.54489261
C        6.15766015       4.99279883       7.81417024       0.74062709      -0.47724585      -0.80035433
C        8.67552714       4.95306683       7.70263745       0.85416341       1.04801327      -0.32098680
C       11.07355188       4.99164476       7.32477962      -0.71048939      -0.91375387       0.25300118
C       -2.47223956       7.06070028       7.13989207       0.10127293       1.17799771       0.41049127
C       -0.04014488       7.15514959       7.27074845       1.24896555      -0.99516065       0.03010685
C        2.42243306       7.11050733       7.35743277       1.70147560       0.69623082       0.37853169
C        4.93859274       7.15158353       7.68099371      -0.47283847      -1.77083110      -0.46346114
C        7.45993655       7.07433911       7.71312779      -1.50850813       1.34543180      -0.42838512
C        9.85645377       7.08068973       7.41978094       0.52403196       1.05775313       0.17252077
C       -3.70101285       9.11366247       7.30996493      -0.34274245       3.57104580       0.64944318
C       -1.26286434       9.23215794       7.32571133       0.78547947      -0.72070310      -0.40000195
C        1.19017679       9.27021827       7.37562766       1.66154482      -1.67979837      -0.10819793
C        3.70801772       9.23851895       7.37916872      -2.34653915      -0.89479866       0.91376801
C        6.13330569       9.21470629       7.56286518       0.88245377      -0.90384458       0.28553103
C        8.56271970       9.21196790       7.38062668       1.63451687       0.65259252       0.66470344
C       -4.92993388      11.42257727       7.28349398       0.63788581      -2.96450020       1.35921960
C       -2.46366081      11.34974406       7.52201431      -0.35929161       0.09018941      -1.17913388
C        0.03370083      11.32591880       7.58406710      -2.25062209       2.24215931      -1.41561520
C        2.50553242      11.32987455       7.43477243      -2.08591645       2.26689538       0.75786660
C        4.91931113      11.29046149       7.50643027       1.36771555       1.98243521      -0.74563252
C        7.40657403      11.37169108       7.42431725      -1.10006269      -2.91139638      -0.53954343
72
Lattice="14.76 0.0 0.0 -7.38 12.782534959858314 0.0 0.0 0.0 15.0" Properties=species:S:1:pos:R:3:REF_forces:R:3 REF_energy=-11165.790053704368 config_type=fd_force_conv_snapshot_033 snapshot_index=33 split=validation degauss_Ry=0.00285013035 kgrid=8 lattice_temperature_K=450.0 trajectory_seed=0 p4_key=seed0:snapshot033 pbc="T T T"
C        0.02021281       0.02025784       7.55962945      -0.21368284       0.89585950      -0.99906795
C        2.49189723       0.01992459       7.42047033      -0.23402618       0.14461195       0.09084119
C        4.94933201      -0.02728551       7.34428411      -0.02295455      -1.91178052       0.29084473
C        7.41723417       0.01851308       7.31143044      -0.80254723      -1.80802494       0.18265760
C        9.83683843      -0.06207677       7.48683809      -0.75560300       2.61282188      -0.14045474
C       12.27253482      -0.02783751       7.64337446      -0.80588426       0.12722564      -1.18709941
C       -1.30015513       2.09711132       7.57559667       1.41312663       1.46216554      -0.17611337
C        1.19232124       2.09706729       7.38209307       2.38537207       0.96370809       0.45382645
C        3.69477591       2.09377976       7.30640048      -0.28083286      -0.19995752       0.48569707
C        6.08366936       2.04202034       7.29268955       2.43093484       2.57640940       0.40912396
C        8.58874316       2.17215835       7.47771297      -1.47359204      -1.49358571       0.00054893
C       10.96170795       2.16045089       7.75408103       3.38610147      -0.46558127      -1.30605433
C       -2.47363288       4.35432717       7.65117460       0.57211699      -3.21636058       0.60331116
C       -0.01192055       4.23989092       7.61800651       0.57845733      -0.53759042      -0.17533767
C        2.48117488       4.20293654       7.34411008      -0.62771453       1.88352127       1.01013475
C        4.94502754       4.22008365       7.27855102       0.52394017       1.25700308      -0.53472261
C        7.39728152       4.24021325       7.26563484      -1.31352698      -0.14062777       1.54688082
C        9.81963376       4.31916156       7.64828693      -0.35874037      -0.44835103      -0.21386745
C       -3.67137735       6.38588046       7.69957323      -1.47889751       2.63837993       0.90703686
C       -1.21111204       6.43265227       7.86903388      -2.04472584      -2.62062209      -0.63544506
C        1.22304701       6.42029996       7.62869729       0.43494195      -2.62022512      -0.59444214
C        3.66655792       6.41491613       7.32030322       1.52997839      -1.45257224      -0.35110573
C        6.13004421       6.42510708       7.24610836       1.19088768      -0.54628486       0.08937952
C        8.54975786       6.42155770       7.50477397       1.26577877       0.58109348       0.01128046
C       -4.87828048       8.47090881       7.60405750      -0.68302281       3.95348120       0.23286661
C       -2.43106326       8.52367000       7.74165752      -2.59284390      -0.67075453       0.08286537
C        0.00101895       8.48100327       7.61431269       0.31407851       0.57843882       0.29994721
C        2.45330733       8.52459584       7.48141651       1.53598474       0.37017535       0.75412950
C        4.94651120       8.55982181       7.40550444      -0.30764689      -0.70493581       0.23875033
C        7.41126136       8.57715178       7.46428098      -1.52729158       0.09753943      -0.45032795
C       -6.11387346      10.65706679       7.44770792      -0.24800244       1.27219830       0.18741105
C       -3.67812509      10.69600644       7.59344890      -0.27816842      -1.59649745      -0.19776566
C       -1.19805142      10.63473671       7.63143535      -0.12325509      -1.66444888      -1.55207779
C        1.25725990      10.63378415       7.46987920      -1.25846809      -0.91687236       0.69826611
C        3.67491712      10.64981235       7.45193817       2.05558386      -1.36430704       0.57384246
C        6.18323408      10.69633515       7.45910064      -0.59005121      -0.67064938      -0.49317101
C        1.28347101       0.72026406       7.44190083      -2.57629679      -0.81066574       0.19246173
C        3.73227137       0.65780180       7.35938617      -0.14167524       2.06347869      -0.31513317
C        6.15894120       0.66836404       7.26917238       0.03701874      -0.71415193       0.29463377
C        8.61902652       0.73946886       7.34690339       0.78734918      -1.08428897       0.97367060
C       11.01486476       0.71045938       7.63178672       0.85403485      -0.30531490       0.39372151
C       13.47343251       0.68764347       7.59536582       1.65569890       0.10937010       0.33609743
C        0.00040945       2.78048237       7.46522796      -2.85860083       1.88865679       0.76606147
C        2.45280154       2.79824317       7.38625982       0.14910959       0.04312563      -0.93236120
C        4.92188219       2.80107203       7.31666805      -1.36268442       0.04343930      -0.52718799
C        7.29794986       2.79284902       7.43314000       2.00848305       1.23782188      -1.48071502
C        9.77612180       2.88992448       7.66039486       0.37964729       0.60392488      -0.10877643
C       12.27546192       2.88214219       7.63435905      -1.77395345      -0.32192217       0.62624771
C       -1.22215758       4.99265718       7.75395819      -0.12058217       0.31370081      -0.18740848
C        1.22881151       4.94651772       7.58528063       0.86062613       0.56846088      -0.72234989
C        3.73052850       4.94532551       7.26677708      -1.68348045       0.58130457       0.55019576
C        6.18284544       4.96745783       7.20662325      -0.93363235       0.43417422       0.27962418
C        8.58602135       4.99891160       7.49166638       0.05216588      -0.28709992      -0.42955421
C       11.05506464       5.02586931       7.68650889      -0.00570733      -1.70790387       0.00397698
C       -2.46041270       7.11215261       7.84756837       0.13818291      -0.31606520      -0.68967965
C       -0.02803888       7.07388011       7.70938006       2.87577529       1.77690045       0.18335617
C        2.45697378       7.12158117       7.44343303      -0.85330749      -0.76393466       0.42028306
C        4.91930455       7.12230432       7.28257802      -0.88097230       0.32860627       0.35161558
C        7.35642143       7.19385074       7.37949528       0.08540048      -3.00930450       0.09487268
C        9.81996408       7.11052263       7.66121919       0.59169903      -2.11469276      -0.54345896
C       -3.65348760       9.26600346       7.68666287      -1.19788211      -1.11134983      -0.29031509
C       -1.23939881       9.14124961       7.61096773       2.83442783       4.24595961       0.87174795
C        1.24317578       9.21647856       7.59644474      -0.97518009      -0.14397766      -1.01653089
C        3.72030667       9.24306369       7.52280159      -1.48753050      -0.56087510      -1.26617575
C        6.16210599       9.27892297       7.45005278       1.00488662       0.07620261      -0.28023225
C        8.63665301       9.22919755       7.48447257       1.47118986       0.83119549       0.33574725
C       -4.90902738      11.43430373       7.49769945       0.27024094      -3.45686337      -0.01976741
C       -2.42835315      11.30966958       7.50941346       0.30978502       2.29993174       0.25762197
C        0.02975715      11.33313261       7.45137768      -0.18993330       1.35303353       0.10223580
C        2.46892619      11.31118315       7.48618393      -0.52383553       1.73321227      -0.51687890
C        4.92063645      11.32388979       7.43184404      -0.29761753       2.33863944       1.25726456
C        7.41503539      11.42827498       7.42343133      -0.09865374      -2.52733167       0.89250010
72
Lattice="14.76 0.0 0.0 -7.38 12.782534959858314 0.0 0.0 0.0 15.0" Properties=species:S:1:pos:R:3:REF_forces:R:3 REF_energy=-11165.337524445033 config_type=fd_force_conv_snapshot_039 snapshot_index=39 split=validation degauss_Ry=0.00285013035 kgrid=8 lattice_temperature_K=450.0 trajectory_seed=0 p4_key=seed0:snapshot039 pbc="T T T"
C        0.00101552      -0.03168405       7.52349020       0.81332580       0.73097620      -1.25018477
C        2.45712180       0.01474553       7.57968238      -1.66051612      -2.43550087      -0.43059165
C        4.84999859       0.05229050       7.56534611       1.81081459      -0.91302984       0.13698015
C        7.36989598      -0.03898842       7.57601200      -0.05101583       1.65928431       0.40156081
C        9.82456710      -0.01744156       7.41313399       0.41295465       2.10742965       0.77525265
C       12.32375462       0.00601072       7.33910051      -2.18746552      -1.76091153       0.25616929
C       -1.21166690       2.08389291       7.35772234      -0.50841225       0.75439381      -1.59120355
C        1.26175715       2.11250369       7.60156744       0.03245015       0.62714323      -1.44829547
C        3.70895072       2.11587343       7.73163937      -0.74430454       0.96108402      -0.29763579
C        6.15785000       2.09639640       7.69732221       0.87323637       0.88715760       0.57455825
C        8.58670839       2.10713738       7.57833910       0.92543902       0.30902757      -0.15576797
C       11.08173455       2.14405833       7.37060885      -1.91042041      -0.79469276       0.16513913
C       -2.43043947       4.26711338       7.24636956      -0.92571412      -0.97968981      -0.52667660
C        0.02019364       4.22890413       7.37804751      -0.05590298       0.09814929      -0.03175390
C        2.49244435       4.23300800       7.67292220      -0.66978420       2.93111545       0.49417348
C        4.94325190       4.24796325       7.79444821      -0.67117980       0.33217907      -0.64006019
C        7.40376997       4.23874583       7.69303288      -0.22358982      -0.40425146      -1.33086753
C        9.90336936       4.27787857       7.41967740      -2.99201100      -2.13802295      -0.31858282
C       -3.65106928       6.37640974       7.30803164      -0.93229023       1.68254405       0.06134601
C       -1.23620008       6.37176859       7.41780057       0.06696721       1.09821689      -0.39933037
C        1.17888887       6.42136694       7.57986621       1.40050895      -1.29384673       0.09526349
C        3.69653874       6.45702247       7.51270375      -0.28443574      -1.04122273       1.54801159
C        6.16562123       6.38819064       7.63417133       0.55140058       0.70082050       0.13699300
C        8.61577132       6.27110393       7.43068647       1.14601858       5.08889553       0.59206335
C       -4.94534978       8.52827032       7.32053350       1.05278884      -1.12878525      -0.37217001
C       -2.46864514       8.52210101       7.30233264      -1.28457533       0.51042131       0.29222773
C       -0.06403704       8.56566912       7.46917642       1.27424875       0.36694656       0.55574986
C        2.41504568       8.54838813       7.78573052       0.70808618      -0.49963399      -2.14289236
C        4.93155675       8.60294107       7.62410123      -1.46091213      -2.40495308      -0.54322988
C        7.44391046       8.50095703       7.52176718      -3.27315008      -0.15941277      -0.04332206
C       -6.18545652      10.69908900       7.27429190       2.98244521      -2.58950198       1.05059132
C       -3.67387323      10.66527846       7.30215238      -0.51392418       0.07715443       0.69399139
C       -1.29012945      10.70086169       7.62043595       2.03914655      -1.08265735      -1.80458506
C        1.26681753      10.65067971       7.68712868      -2.61565961       1.63054452      -1.33756808
C        3.66322220      10.65018295       7.57250658       0.96855642       0.68515194      -1.04198404
C        6.13697189      10.67510059       7.34975295       0.81654765      -1.79497556       0.04707484
C        1.23919932       0.69203150       7.56156041      -0.95923231       0.35116821       0.65592750
C        3.59836572       0.73715509       7.59839817       4.22772689      -0.19944587       0.43756576
C        6.14741486       0.69860494       7.67741921      -1.26530054      -0.51257204      -0.87000320
C        8.59312282       0.69884376       7.51995089       0.15458732      -0.85953547      -0.14898232
C       11.06914451       0.72088942       7.42977908       0.65918123      -0.67962638      -1.04443713
C       13.54661564       0.65461891       7.38440656       0.06964013       1.88797494       0.52377922
C        0.03450831       2.78973325       7.29656201      -0.21471462       0.68532755       2.05781558
C        2.52312856       2.86030802       7.64946485      -1.99989248      -1.99664184       0.57258082
C        4.93863642       2.78676029       7.78958374       0.04407925       1.93429027      -0.19131424
C        7.40038887       2.82808212       7.66623050      -1.69418318      -0.33305633       0.40467004
C        9.79678192       2.82453327       7.49856183       3.17985606       1.13751620      -0.71473197
C       12.29153379       2.82708980       7.19022343       1.77086504       0.22157433       1.55001705
C       -1.22304513       4.96090662       7.27260992       1.27715102      -0.15499407       0.82540073
C        1.23038179       4.93381753       7.63972620      -0.37534609       1.41458779      -1.44671270
C        3.69139867       5.01457880       7.74539313       1.28658928      -0.64344402      -1.18125015
C        6.18021743       4.95545841       7.65688864      -1.00721449       0.19212054       0.96712842
C        8.60761210       4.91855159       7.42179099       1.60592338      -1.16799046       1.17404952
C       11.09890060       4.99123620       7.29776132       0.75195203      -1.57272889       0.14534240
C       -2.44462439       7.11098005       7.37275241      -0.05877053      -0.73727900      -0.69269684
C       -0.04107212       7.14018686       7.49028430       0.29059662      -0.62601066       0.01245005
C        2.41669155       7.14400663       7.57363179       0.63796371      -0.68452973       0.79619609
C        4.95274654       7.16200259       7.54943535      -0.72079617      -0.94600244       0.72941708
C        7.44917831       7.06373650       7.68801944      -1.35349452       0.20822567      -1.91963344
C        9.86785465       7.06382832       7.33184263      -1.38240761       0.26625650       0.14479502
C       -3.70929604       9.24570348       7.25777403       0.38373406      -0.67741241       0.20530876
C       -1.30205980       9.27513509       7.41312392       1.73978323       0.11750250       0.72883061
C        1.22138217       9.27083864       7.61225277      -1.45517086      -1.54490004       0.98363902
C        3.65376231       9.25344084       7.67652370       0.58994810       0.02912006       0.44160754
C        6.12573083       9.25138475       7.47667662       3.16433199       0.28685978       0.27809977
C        8.59154607       9.23213518       7.32386079       0.91979339       1.12145452       0.05299558
C       -4.89910122      11.35079014       7.45789889      -1.39567399       1.10833444      -1.30697890
C       -2.45559135      11.41856065       7.42465778      -1.98429206       0.05339744       0.77820916
C       -0.01081896      11.36147728       7.61261971       0.32138944      -1.23876856       0.61026419
C        2.45052517      11.38526261       7.51083722       0.52574277      -1.32630511       0.89772355
C        4.91810372      11.32386391       7.34198497      -1.20350794       2.18552870       0.87230614
C        7.38687495      11.36079624       7.33788065      -1.44050811       0.88245660       0.50017727
72
Lattice="14.76 0.0 0.0 -7.38 12.782534959858314 0.0 0.0 0.0 15.0" Properties=species:S:1:pos:R:3:REF_forces:R:3 REF_energy=-11165.528078147056 config_type=fd_force_conv_snapshot_045 snapshot_index=45 split=validation degauss_Ry=0.00285013035 kgrid=8 lattice_temperature_K=450.0 trajectory_seed=0 p4_key=seed0:snapshot045 pbc="T T T"
C       -0.00190559      -0.03874888       7.47161482      -0.11045639       1.68608189       0.87607435
C        2.50120468       0.04827649       7.57373200      -4.13360035      -1.92829420      -0.34680968
C        4.90809255      -0.00612513       7.59212762      -0.49281980       1.02841787      -1.97674870
C        7.32429062       0.06615076       7.34914755       0.87216576      -1.27793443      -0.53334835
C        9.78668730      -0.05786650       7.53704728       0.31018997       1.52250162      -1.79374915
C       12.27662927      -0.03369305       7.63258621      -0.27342139       0.44434473      -2.20996550
C       -1.22239854       2.10419383       7.50067722      -0.78094559       0.19930755       1.55876652
C        1.22042043       2.10110375       7.50611326       0.35329323       1.85879960       0.18816567
C        3.69472217       2.09426988       7.44659630      -2.26025062       1.87575140      -0.25931967
C        6.06652504       2.11961003       7.36824760       3.16560186       1.40847602       0.14903605
C        8.58113210       2.15032612       7.47224079       1.93302915      -1.09143509      -0.70935785
C       11.05225673       2.07890834       7.68122619      -0.02729663       1.73607570      -1.07291286
C       -2.46255508       4.25561150       7.65636664      -0.69144266      -0.42830722       0.02458926
C       -0.01536795       4.24776817       7.46063711      -0.60829704       0.89984214       0.10627115
C        2.48499282       4.25376756       7.44100389      -1.40294661      -1.30335081      -0.32796298
C        4.96913671       4.25197506       7.42346034      -1.53571478      -0.18884804       1.04740212
C        7.44418135       4.19717765       7.40269709      -1.72368093       3.86145422       1.31674086
C        9.86229964       4.29800190       7.56299682      -0.79130636      -0.65987028       0.12415292
C       -3.70687627       6.42387306       7.71208615       3.52308007      -1.67346111       0.38027156
C       -1.27573073       6.39311440       7.61362521       0.93482714       0.21302155      -0.49235006
C        1.21231909       6.42707001       7.42311024       0.85876131      -3.10743734      -0.57382163
C        3.71358677       6.37827147       7.30195829       0.78055761      -0.81033510       0.90920841
C        6.21451954       6.36536988       7.45985472      -0.64792802       0.89949016       0.83021281
C        8.64236420       6.43735815       7.55488632      -0.45403239      -1.10679255       0.59323166
C       -4.89695501       8.53757161       7.70115507       0.08171120      -1.04053342       0.32600020
C       -2.39529772       8.56339907       7.70050951      -2.45396550      -0.70500729       0.11889192
C       -0.02973361       8.49238239       7.40801593       1.54679906       2.27153082       0.53898036
C        2.46850385       8.49324383       7.32818606      -0.88014235       0.41504084       0.63952617
C        4.93601521       8.52472557       7.42990152      -0.57996271      -0.99972436      -0.14514443
C        7.37345031       8.56115618       7.62293115       0.10092120      -0.24719511      -0.78853214
C       -6.16730804      10.69872578       7.59836494       1.72365727      -2.05438830      -0.30516783
C       -3.67435966      10.65719625       7.63295217      -0.54055233       0.67805801       0.44462473
C       -1.20905157      10.66356278       7.44120931      -0.19100134       1.37634186       0.75714412
C        1.23840975      10.62948906       7.34686647      -2.06406208       1.29189424       0.12173556
C        3.73398259      10.63185452       7.32124411      -2.13061791      -0.20181437       0.41666501
C        6.09766915      10.69355690       7.32277106       4.78226705      -2.22508384       0.67614717
C        1.22957593       0.71716546       7.59453644      -0.37252122      -1.33995947      -1.04052134
C        3.65161142       0.72042203       7.45346710       3.89565323      -0.74550576       1.35271214
C        6.08273975       0.74490241       7.32372202       0.42324883      -1.53552426       1.44621390
C        8.57575762       0.73039848       7.37536698       0.55388710      -0.77873393       1.18265500
C       11.03485189       0.66865596       7.55824811      -0.23004251      -0.37977302       1.45804972
C       13.48909933       0.65121802       7.55930668       1.89672003       1.97089353      -0.32576134
C        0.01199090       2.85261192       7.51459982      -1.27692373      -1.77446664      -0.59594546
C        2.45009384       2.81426196       7.44187866       0.75116270       0.23655306       0.36793258
C        4.87929438       2.80838264       7.45130458       1.26508123       2.06185144      -0.48844507
C        7.39064810       2.83642945       7.41557951      -2.35386114      -1.52731472      -0.46193725
C        9.83219371       2.84621931       7.51668351       0.36341052       0.21188101       1.04862288
C       12.30325657       2.82913671       7.67324579      -0.20450477      -1.22301670      -0.73785930
C       -1.29722610       4.98623258       7.51940330       2.95117186      -0.74110557       0.58087057
C        1.22423703       4.91834214       7.41909413       0.17403772       3.14768873       0.31576798
C        3.70239451       4.94732450       7.42154829       1.52066045       0.89033754      -0.61026393
C        6.21308260       4.94860988       7.54830975      -0.57975522      -0.71634379      -2.06277755
C        8.59973622       5.01798288       7.49843536       2.23635324      -1.70997129      -0.17408888
C       11.09535836       4.98724220       7.70188122      -1.26994858       0.25148217      -0.47618785
C       -2.45410842       7.14243273       7.73457911      -0.27856514      -0.31295262      -0.32921999
C       -0.03048784       7.10472147       7.48186059       0.23852818      -0.72557817       0.03145822
C        2.49083051       7.06591125       7.30162886      -1.76367444       1.18456456       0.44663379
C        4.96476271       7.08071732       7.40606550      -0.12373640       0.22128431      -0.18749898
C        7.42326771       7.13441870       7.57981473      -1.21116700       0.16193271      -0.37717543
C        9.88726225       7.08219969       7.68750999      -2.82444913       2.93507624      -0.29929723
C       -3.66732852       9.23244630       7.73508765       0.35064988       1.17131567      -0.58991854
C       -1.21189845       9.26730559       7.52065086       0.59461826      -0.99824494      -0.24061386
C        1.23567880       9.23949998       7.39659756      -0.84178817      -2.44912823      -0.90999388
C        3.66886663       9.19834767       7.42407539       2.05367971       1.23564055      -1.34150984
C        6.12259726       9.28002169       7.43961361       0.95593281      -1.03734602       0.21273205
C        8.62972389       9.22641569       7.66348120      -0.49236266       1.91275343      -0.18579563
C       -4.92638412      11.41323403       7.56885597       1.01666330      -1.43194917       0.78290785
C       -2.42281469      11.37725375       7.62806374      -1.46298907      -0.80707365      -0.63646116
C       -0.02650410      11.42756277       7.34567021       1.35149498      -1.74012442       0.22139127
C        2.43746158      11.30863286       7.36009142       2.24925144       1.16456626       0.49537650
C        4.96220537      11.37605769       7.29657308      -4.48701905       0.47670001       1.48594825
C        7.38232132      11.35577262       7.44502232      -1.26131636       0.12297329       0.03335184
72
Lattice="14.76 0.0 0.0 -7.38 12.782534959858314 0.0 0.0 0.0 15.0" Properties=species:S:1:pos:R:3:REF_forces:R:3 REF_energy=-11164.94169990008 config_type=fd_force_conv_snapshot_051 snapshot_index=51 split=validation degauss_Ry=0.00285013035 kgrid=8 lattice_temperature_K=450.0 trajectory_seed=0 p4_key=seed0:snapshot051 pbc="T T T"
C        0.05936977       0.10415540       7.52483351       1.13138669      -4.49004472      -0.48243614
C        2.54109217      -0.00388008       7.52024331      -2.25211770      -1.05963517       0.40776128
C        4.96353353      -0.01716286       7.59068249      -1.13447844      -0.29162686      -0.81573776
C        7.39923850      -0.02795397       7.58473559       0.05153108      -1.01583155      -0.61068431
C        9.89155988       0.04490481       7.53905676      -0.46014776      -0.11506072       0.05121303
C       12.38395130      -0.02334921       7.54647434      -0.40299342       2.49679468      -1.19643740
C       -1.22647143       2.19354259       7.46630499       0.97725189      -1.91210551      -2.07633730
C        1.26055207       2.16432144       7.54443638       1.09576766      -1.14643125       0.36695170
C        3.77099428       2.10663440       7.60260182      -4.96682521       0.09665728       0.64521988
C        6.16103390       2.06504696       7.82735353       0.18203102       1.47019818      -0.54640082
C        8.58699164       2.18749610       7.60878399       1.36161561      -2.68694961      -0.67392573
C       11.08900182       2.13645715       7.37161103       0.46161895       1.65311417      -1.00397645
C       -2.46957967       4.29563526       7.19311347       0.20807552      -2.87053255      -0.45518039
C        0.00325661       4.30542933       7.34728468      -0.81737426      -1.53214634       0.61401774
C        2.40629816       4.26770858       7.66468444       2.29152449      -0.30023749      -0.78281427
C        4.92991110       4.18871764       7.81624786      -1.69011518       2.12362220       0.05484703
C        7.36609558       4.23538202       7.73360917      -0.11826612       1.51922783      -0.76258894
C        9.81748843       4.26635849       7.16705526      -1.19269568      -1.98356161       1.15574610
C       -3.78545459       6.33406605       7.18851203       1.31871213       1.10857946      -0.45030866
C       -1.30825604       6.39934684       7.29101970       1.72305872      -1.07287224       1.15002950
C        1.16400362       6.43115214       7.48571072       3.05674881      -1.80447733       0.35059177
C        3.64448294       6.37061321       7.66639758       0.96289793       2.02465298       0.04010072
C        6.06641676       6.34943432       7.59860310       2.04373005       1.96371681       1.16381705
C        8.54698242       6.36799439       7.40270036       0.14338400      -0.62529820      -0.39682021
C       -4.97006286       8.49898840       7.24847404      -0.05648225      -0.09365192       1.05234635
C       -2.46222380       8.43587692       7.30524840      -2.03866446       3.66227831      -1.02760514
C       -0.02063131       8.52905200       7.49446037       0.67907694      -0.19885246      -0.20136906
C        2.42585426       8.53885373       7.67635219       1.30049200       1.36257438      -0.32901533
C        4.89693055       8.57164366       7.50512292       0.88641610       0.49245213       1.56332097
C        7.36844184       8.52026016       7.51678857      -0.24851255       0.02626048       1.54594160
C       -6.14267702      10.64291248       7.56132801      -0.52039796       0.98416713      -0.27501188
C       -3.65827799      10.55998308       7.43703199      -0.75174711       3.24057112      -1.19879870
C       -1.20792428      10.61751966       7.32329047      -0.34310857       0.07115168       0.15280555
C        1.26504555      10.66834746       7.59767436      -0.41832723       0.55420026      -0.67093657
C        3.73889396      10.72024881       7.66720991      -1.15271476      -1.72763400      -0.82441652
C        6.16383995      10.70798013       7.49594988       2.17809719      -1.33687826       0.55362742
C        1.31092970       0.72048059       7.59301112      -0.37532321       1.41046606      -0.84191107
C        3.72033799       0.71957191       7.56283269       1.92060429      -1.62391441       0.03951374
C        6.17708995       0.66216907       7.67315971       0.37812237       0.92974510       0.23539246
C        8.59623162       0.71611654       7.53926334       1.74446444       0.84074096       0.74263461
C       11.17050591       0.76674627       7.51605733      -1.90743664      -2.78089695       0.12774577
C       13.60681282       0.70535906       7.39508154      -2.32254511       3.10539203       1.75181600
C        0.03336997       2.87144537       7.45896387      -0.95027767       0.50254268      -0.06316429
C        2.50316521       2.84076404       7.62454617      -0.70272157       0.37870216      -0.40008988
C        4.90409944       2.77767423       7.79470315       4.18020673       1.31047483       0.19824568
C        7.37705020       2.85126811       7.74976445      -1.22397623      -1.53287808       0.36942742
C        9.82953994       2.84389149       7.37756868       0.05411349       0.29617411      -0.21765365
C       12.32080358       2.86631027       7.15662727      -0.48942517      -0.17623678       2.38785730
C       -1.27340823       4.96152638       7.34375390       1.55382820       2.20736020      -1.15259161
C        1.21802373       4.98591056       7.41726536      -0.44432699       1.16830491       0.92780006
C        3.66199309       4.96221755       7.73522543       0.65593135      -0.89964982       0.03941887
C        6.13142947       4.95018541       7.80273133      -0.74565848      -0.69083691      -0.59700167
C        8.54731387       4.93461533       7.39012921       1.56950704       0.69999672       0.21880474
C       11.06235179       4.90961360       7.09469889      -1.91205383       3.12301797       0.47338123
C       -2.54460833       7.08318976       7.29458121       0.49118252      -2.39259044      -0.60927123
C       -0.02715992       7.08533415       7.45012180      -2.51707837       1.83808808      -0.48969231
C        2.43015780       7.12845988       7.63176068      -0.86420228      -0.82682255      -0.22663040
C        4.89040584       7.15771322       7.62096151      -0.95587316      -2.39483424      -0.45571801
C        7.34944340       7.06177140       7.58917393      -1.61841225       1.17988695      -1.12828723
C        9.75951668       7.07592532       7.19023410       0.36551960      -0.57361132       0.67049614
C       -3.74566848       9.18200711       7.22166422       2.86145913      -0.57145056       1.04165005
C       -1.23997835       9.18971073       7.30566923      -0.40647238      -0.01496665       0.75266088
C        1.21526227       9.28674866       7.63202530      -0.02947718      -2.77028575      -0.26320949
C        3.68226250       9.30089516       7.62143923      -0.40153432      -1.38486044       0.14940166
C        6.16216994       9.29821322       7.60877120      -0.41376840      -2.11676506      -1.62186036
C        8.61747563       9.23008947       7.57689930      -1.01907396      -0.98711284      -1.86838030
C       -4.91000969      11.32003521       7.49752229       2.04808061       0.71694363       0.24920160
C       -2.39797594      11.37589952       7.35927296      -2.14124222      -2.35597793       1.02683638
C        0.00789040      11.30095361       7.44530074       1.13720870       2.36187424       0.66393211
C        2.50278010      11.38984723       7.58779107      -0.27836203       1.42893455       0.59347977
C        4.97390947      11.36785773       7.54357112      -1.54571508       1.49950644       0.46258748
C        7.39678500      11.40688414       7.48686945       0.81627975       0.50914810       0.72564193
72
Lattice="14.76 0.0 0.0 -7.38 12.782534959858314 0.0 0.0 0.0 15.0" Properties=species:S:1:pos:R:3:REF_forces:R:3 REF_energy=-11164.261698710005 config_type=fd_force_conv_snapshot_057 snapshot_index=57 split=validation degauss_Ry=0.00285013035 kgrid=8 lattice_temperature_K=450.0 trajectory_seed=0 p4_key=seed0:snapshot057 pbc="T T T"
C       -0.06500252      -0.04056957       7.49007497       1.16610096      -0.58469354      -0.93965979
C        2.37648510       0.06794747       7.62183463       2.58814109      -1.45971374      -0.99593455
C        4.85140167       0.08564842       7.50659673       2.85211420      -2.27133542       0.20877358
C        7.33570443       0.05652048       7.47359757      -0.34000474      -1.65318488      -0.98162096
C        9.85498631      -0.05980778       7.47706816      -3.27306086       1.84350179      -0.59010597
C       12.25342863      -0.01341404       7.37977129      -0.29822817       1.17750766       0.93678504
C       -1.22446306       2.06347228       7.64690231      -1.11584952       2.09832306      -0.19915277
C        1.19759557       2.12224859       7.58170709       0.15057229       0.53696358      -1.02448948
C        3.68498961       2.20587569       7.47233549      -1.68754767      -2.41989041       0.14830020
C        6.10896153       2.24236990       7.35967257       0.31098701      -3.49528285      -0.05152979
C        8.60538409       2.17478726       7.47787661       0.35243679      -2.04871053      -0.45662638
C       11.10574490       2.11593193       7.63925883      -1.92598484       1.85525559      -1.09303020
C       -2.41843403       4.27352168       7.77178690      -0.68573892      -1.51326262      -0.30021023
C        0.00239182       4.20436876       7.73027876      -0.38677362       3.72662968      -0.58963572
C        2.41775485       4.23133850       7.36566651       1.63930529       1.94712214       2.24852305
C        4.94512145       4.28737661       7.29859424      -2.15953691       0.05354117       0.09180432
C        7.39210733       4.28074974       7.33735628       1.42205608      -2.03550766      -0.02432906
C        9.89404454       4.25576065       7.55829393      -0.68514089      -0.84212730      -0.26712168
C       -3.55977193       6.36344668       7.74019532      -2.01029208       0.91288303      -0.82508140
C       -1.18848724       6.41278937       7.66874478      -0.90695767      -0.97526262      -0.08847192
C        1.20091664       6.33764966       7.51194996       1.46477624       2.51711334       0.59265085
C        3.66368095       6.35914328       7.38255805       0.62111630       2.46063674       1.13003789
C        6.15767285       6.35747021       7.36705758       3.24039165      -0.74324730      -0.07782344
C        8.73355237       6.35128123       7.45522724      -1.46125511      -1.72787440       0.06215796
C       -4.91103580       8.45180953       7.47210578       0.94929474       1.79189564       1.84924281
C       -2.46480803       8.57261276       7.58200367      -0.10063632      -0.24009733       0.16698647
C        0.00509570       8.54433228       7.58127266      -1.11434876      -0.72348735      -0.85050190
C        2.48998236       8.58850326       7.48722661      -1.73672773      -3.98809159      -0.18045442
C        4.96436472       8.44028374       7.29952681      -1.25354160       2.79760604       0.39929952
C        7.40732501       8.52238559       7.48284097       1.23415137      -2.62445947      -0.48755186
C       -6.18206309      10.64817304       7.50062156       1.55221792      -0.63218439       1.07296557
C       -3.75038742      10.69426821       7.57795597       1.35919363      -0.28424857       0.68003905
C       -1.25888131      10.76420648       7.56395072       0.82560154      -3.92718370      -1.34346182
C        1.20859817      10.60545827       7.46810864      -1.21694555       2.23448045      -0.67316314
C        3.73480034      10.68207511       7.45788948      -2.40263831      -2.94664157      -0.91541480
C        6.19090835      10.59298012       7.30723897      -3.74130040       1.35711644       0.90406286
C        1.17188461       0.70870963       7.35514627      -0.99446182       0.55695545       3.02138072
C        3.68309340       0.76551065       7.58631720      -3.41416917       1.23547935      -0.32462980
C        6.10379559       0.78386890       7.44344320      -0.10235279       0.72695011       0.04355397
C        8.55942396       0.69838795       7.45147048       2.68625079       1.50347417       0.53728240
C       11.01670857       0.75737645       7.42749072       1.88215164      -3.98725496       0.74394356
C       13.47764954       0.64130998       7.51862716       0.98255427       1.86367184      -0.27404489
C       -0.02151649       2.85723416       7.64558764       0.31634570      -4.26099748       0.25031129
C        2.43784060       2.85450652       7.56200393      -0.53568317      -0.86986333      -1.11818588
C        4.85090833       2.88992405       7.26506139       2.67562648       0.84426389       0.89372754
C        7.36857411       2.87048502       7.39285970       0.26857538       0.25985934      -0.19265816
C        9.88008028       2.84939180       7.51140725      -0.52497633      -0.65460955       0.94389388
C       12.31296933       2.84043225       7.70003995       1.43249141      -1.15122044       0.11120304
C       -1.20527105       4.96536085       7.73430650       0.36171256       0.55303683       0.37234562
C        1.22090328       4.94472112       7.57868184      -0.34810449      -0.93140655      -0.71017160
C        3.68890875       4.99657598       7.42564462      -0.52923176      -2.70168281      -1.54532299
C        6.18857469       4.92417401       7.30474851      -1.64944341       3.01517999       0.13223723
C        8.64371901       4.88575209       7.39499897       1.32660079       3.69467087       0.69838361
C       11.11140431       4.95573388       7.71598076       0.89795984       0.45485257       0.12067061
C       -2.39360404       7.14854586       7.67152378      -0.30282993      -0.88774664       0.22421125
C       -0.00138581       7.08906526       7.54742904       1.07458922       1.35224368       0.55405576
C        2.44604683       7.09724871       7.53164894       0.15243865       0.30158552      -1.23092772
C        4.95288932       7.05428267       7.38415226      -1.21380495       0.05957195      -0.54829418
C        7.49186994       7.02246494       7.41995375      -2.74315239       2.57439006       0.11837153
C        9.96588552       7.03843239       7.59286682      -1.60330574       0.82988808      -0.56181149
C       -3.73468701       9.24883874       7.58364782       0.83234323       0.12581256      -0.69265982
C       -1.25579686       9.28367299       7.53471759       1.29789133       0.45447205       0.80809541
C        1.23232705       9.23123628       7.49650467      -0.37094051      -0.57165805       0.46946595
C        3.68965249       9.22370298       7.33965789       3.36677526       0.75406496       0.73842288
C        6.19425604       9.20623883       7.32812546      -1.35152969      -1.77273912       0.21256518
C        8.63614081       9.21482108       7.56297927      -0.60546317      -0.30660997      -1.29772010
C       -4.98049813      11.40995348       7.66413671       0.26478506       0.02753857      -1.18296096
C       -2.46449603      11.40673729       7.54307568      -3.37742708       1.68301071       0.31113562
C       -0.02822108      11.37353303       7.37003867       0.92201945       1.60152576       1.87779311
C        2.42469643      11.28193685       7.46302417       2.59049802       2.85107598       0.15640740
C        4.91891029      11.38699722       7.40444940       1.12177899      -1.97665228      -0.89789453
C        7.33669858      11.29095942       7.45310433       1.98754116       2.57477701      -0.29843437
72
Lattice="14.76 0.0 0.0 -7.38 12.782534959858314 0.0 0.0 0.0 15.0" Properties=species:S:1:pos:R:3:REF_forces:R:3 REF_energy=-11165.247954773617 config_type=fd_force_conv_snapshot_063 snapshot_index=63 split=validation degauss_Ry=0.00285013035 kgrid=8 lattice_temperature_K=450.0 trajectory_seed=0 p4_key=seed0:snapshot063 pbc="T T T"
C        0.01732493       0.03093968       7.45763579       0.20627395       0.43000029       0.89240831
C        2.46506844      -0.00521080       7.42881065       0.58370829       1.76291776       1.49839033
C        4.97237293       0.03785377       7.43843436      -2.11049209      -1.86196051      -0.11578655
C        7.41507777      -0.05005184       7.49380605      -0.85683016       2.25874961      -0.84722966
C        9.85273149      -0.01145343       7.57029040       1.75119328      -0.22458432      -1.85674760
C       12.29531044       0.01829460       7.55153475       2.52652769      -1.67357758      -0.92591698
C       -1.26457527       2.12973373       7.35137830      -0.43420250       2.59490309       0.41356863
C        1.25313709       2.15282664       7.37596606      -1.32736286       0.74934879       0.20501488
C        3.75142879       2.17395034       7.48746448      -3.56223875      -2.51298646      -0.34530892
C        6.14146865       2.13158907       7.58266060       1.44740690      -0.34012764      -0.72950681
C        8.55755473       2.13465055       7.60366277       3.23568628      -0.88258361      -1.88498937
C       11.02674585       2.12178850       7.48483436       1.70658155       0.43669519      -0.82704213
C       -2.48955094       4.36887205       7.45071377       0.42536819      -4.60395462      -0.73191542
C       -0.02776766       4.25725378       7.28324985       0.51857274       0.98812688       0.06079528
C        2.48424738       4.24038897       7.39831966      -1.30463739       1.74293052      -0.61825107
C        4.95001927       4.26188260       7.60609403      -1.61157620      -0.91220760       0.39496130
C        7.35559797       4.26585007       7.62521148       2.48556307       0.23145842      -0.11819001
C        9.85333671       4.28023189       7.49237663      -1.13312039      -0.60444527      -0.35211001
C       -3.72890387       6.39389959       7.44079567      -0.39276275       1.08617153      -0.36215351
C       -1.27868632       6.39916513       7.20054801       3.09038655      -2.49393227       1.25536837
C        1.22007487       6.40696454       7.40551087       0.55957978      -3.24006307      -0.85559448
C        3.75184198       6.34884728       7.61548547      -2.29456173       1.73488065      -0.36994344
C        6.12493855       6.36749643       7.71715108      -0.20521131       0.43199727       0.73670385
C        8.59626054       6.39778280       7.52430086      -1.63755643       0.77462967       1.05331669
C       -4.91794256       8.51454286       7.60726808      -0.98026908       1.58780790      -1.05190772
C       -2.44932809       8.44627678       7.35605309      -1.32361985       1.02223514       0.97793940
C        0.00517446       8.51024851       7.48113024       0.27365794      -0.90008125      -0.31067874
C        2.48643720       8.48816194       7.49049683      -1.67167908      -2.12636556       0.67866196
C        4.90970948       8.54881118       7.60126109       0.68195580      -0.49026335       1.30893756
C        7.34289873       8.51759246       7.53293679       0.30892833       0.78614307       1.81265550
C       -6.14667119      10.67949927       7.61848710      -1.14426381      -0.56221079      -0.13952323
C       -3.70207500      10.69958973       7.52559700       1.08030761      -2.34609821      -0.34117665
C       -1.23008629      10.63855467       7.51829658      -0.29851793      -1.26550957      -0.50395267
C        1.23588210      10.64171235       7.46260856       1.36086742      -0.46364858       0.38139127
C        3.67595751      10.61414259       7.61917046       2.10270602      -0.06635477      -0.74599273
C        6.17490924      10.62576463       7.66685690       0.12650496       5.60597111      -0.53242841
C        1.24896819       0.74332565       7.49840686       0.29902521      -0.27830880      -1.35043980
C        3.73159341       0.73334755       7.48180539      -0.83158424      -0.24734552      -0.60897170
C        6.15441950       0.71254927       7.41902754       2.77429359       0.61226605       1.27273026
C        8.64889461       0.68334853       7.44905846      -2.12278556       0.70390300       1.68908005
C       11.10845760       0.69522825       7.45534025      -2.48488919       0.72894811       1.38934727
C       13.56079517       0.75161645       7.42767792      -1.91859857      -1.89202237       0.36063553
C       -0.04807731       2.88391493       7.34824632       1.75362657      -2.61616252      -0.28374900
C        2.48272556       2.86689246       7.37427363       0.52544710      -1.87667494       0.53548880
C        4.92959414       2.82534827       7.57991025       1.79334651       2.18323605      -0.10338843
C        7.39111850       2.86424003       7.57252349      -2.22191496      -0.95800178       0.67717484
C        9.82589919       2.82699982       7.46210582      -1.54795168       1.26244045       1.24651735
C       12.22739241       2.88022149       7.41068980       1.53473699      -0.01390453       0.29640731
C       -1.25845674       4.97489191       7.31878162       0.89883067       1.26313259      -0.55275684
C        1.23687511       4.92970527       7.27308164      -0.44383051       1.90956757       1.04849870
C        3.68902676       4.95988821       7.52252322       2.41432963      -0.68112611       0.50814846
C        6.16145588       4.94129348       7.74036342      -1.43109685       1.34482708      -0.81909330
C        8.60143587       4.99961759       7.51637423       0.24394730      -1.45791448       0.39804379
C       11.06346028       5.03434376       7.44996970      -1.86069373      -1.98640679       0.25517787
C       -2.48065821       6.99725110       7.31366903      -1.27958354       4.78729767       0.01410250
C       -0.01800922       7.07514057       7.35422169      -0.05395280       1.73761965      -0.18545470
C        2.48606432       7.02388808       7.49351790      -0.03341251       2.40729869       0.23956819
C        4.93914078       7.14210379       7.72815738      -0.53583230      -1.99184133      -1.03004075
C        7.29746634       7.07962856       7.70821641       3.70688953       1.39964608      -1.91915985
C        9.80392868       7.12260996       7.51661018       0.54671192      -0.70351039       0.03161480
C       -3.68031672       9.20529632       7.49328598       0.24552055       1.22639075       0.24502047
C       -1.24996881       9.17289847       7.49232499       0.91819699       1.53397594      -0.57489404
C        1.26936339       9.21032277       7.50525187      -1.55135043       0.25896305      -0.36777291
C        3.65855715       9.16495306       7.62752339       1.72904451       2.90177634      -0.65116324
C        6.13533438       9.30593033       7.65537358       0.45853414      -5.50688542      -0.79160333
C        8.58980413       9.26358216       7.56982002       0.22261383      -1.88476851       0.41351952
C       -4.96098175      11.37600768       7.58318580       3.04543004       0.45877556      -0.82590493
C       -2.42242793      11.37125160       7.42756376      -1.70594623       0.38131517       0.78418389
C       -0.00004833      11.34434422       7.50255787       0.66376011      -0.96395260      -0.13672767
C        2.51692363      11.34755278       7.45946762      -3.11331976       0.19404733       1.17500546
C        4.94044801      11.33333470       7.58744929      -0.98178500       0.86461057       0.79207409
C        7.41988216      11.41980674       7.61524504      -1.83863238      -1.75522322      -0.27498617
72
Lattice="14.76 0.0 0.0 -7.38 12.782534959858314 0.0 0.0 0.0 15.0" Properties=species:S:1:pos:R:3:REF_forces:R:3 REF_energy=-11164.88082776226 config_type=fd_force_conv_snapshot_069 snapshot_index=69 split=validation degauss_Ry=0.00285013035 kgrid=8 lattice_temperature_K=450.0 trajectory_seed=0 p4_key=seed0:snapshot069 pbc="T T T"
C        0.03531212      -0.00118765       7.47621843      -1.66889818      -2.51916945       1.26467705
C        2.46277373      -0.02617878       7.52434423       0.57423815       0.16559884      -0.82722416
C        4.88111868      -0.02520399       7.35567639       1.48370650       1.03825234       0.30305516
C        7.39143909      -0.00230881       7.31761859      -1.22144884       0.61982947       0.34412082
C        9.84210386      -0.01497918       7.37276240       0.40925020      -0.21539982       0.01683635
C       12.31493799       0.03958818       7.51917964      -0.36961999      -3.12410066      -0.59963679
C       -1.18091000       2.10040565       7.60268492      -1.64426649      -0.38014532       0.36815215
C        1.23757940       2.15950184       7.56063405       1.06678798      -1.59389576      -0.13003123
C        3.68283112       2.15588240       7.29843199       1.53893920      -1.46986780       0.78741860
C        6.10702562       2.12432228       7.33221369       3.26915278      -1.65739480       0.11428476
C        8.59315565       2.11291701       7.38531514       0.84280170       0.03538301      -0.31381445
C       11.10706981       2.10858101       7.63115012      -2.98390483      -0.07104395      -1.09563473
C       -2.52446442       4.22083359       7.76701944       2.09685341       0.46307882      -0.24188501
C       -0.02178111       4.32809468       7.72785150       2.24698450      -2.38241221      -0.02602676
C        2.50370567       4.28023900       7.39399997      -0.53306759       0.38359034       0.82654693
C        4.96195948       4.26403570       7.27605754      -1.46501921       0.11512474       1.15317885
C        7.31934296       4.21687629       7.47940283       2.21598239       2.38009745      -0.65863487
C        9.76406335       4.27494477       7.76362729       1.84299760      -2.25550668      -2.11688539
C       -3.67505475       6.38454806       7.60308869      -0.55997238      -0.32909632       1.26230341
C       -1.27506832       6.38246226       7.73142017       2.91818280      -0.01389913       0.44390765
C        1.21317698       6.45235132       7.54357717       2.15566406      -1.16580271       1.19222414
C        3.72027706       6.40033882       7.36813294      -1.32763128       1.00097777      -0.21460767
C        6.16520583       6.43683707       7.40603579      -0.49783165      -0.67478654      -0.10351004
C        8.60773602       6.37648100       7.60163537      -1.87390072       0.69684558       0.12306945
C       -4.98382607       8.46607914       7.59464663       2.66448460       2.24922933       0.82215163
C       -2.44431713       8.50663572       7.75036025      -0.38626943       0.80101536      -0.84787937
C       -0.01866425       8.49864255       7.70042167       0.83082448       2.32918164      -0.17313706
C        2.46544619       8.59625643       7.43863309      -1.06636195      -2.84384656      -0.51938444
C        4.86550459       8.52262239       7.33342279       2.60778920       0.28098018      -0.15739137
C        7.38508622       8.59989619       7.27752395       0.27843762      -2.57039019       2.04312301
C       -6.14314324      10.71158393       7.43079516      -0.51629140      -2.65323345       1.24889228
C       -3.65422806      10.59648546       7.51026380      -0.46224475       1.48893587       1.00605518
C       -1.21819672      10.64189312       7.55911710       1.56104143       1.98644973       0.06266318
C        1.22754756      10.63241813       7.51585707       1.20606927       2.14399176      -1.86723899
C        3.69385155      10.64328266       7.23247507       1.09383933       0.75323270       0.85313548
C        6.09058152      10.58970346       7.46959503       2.84372211       4.30837597       0.06167202
C        1.24047498       0.66421785       7.59221122       0.65766891       2.98013919      -0.89478967
C        3.66575416       0.71201222       7.32035499       0.06708625       0.05221911       0.95192986
C        6.11660501       0.69298808       7.34365965       0.47446315       0.03083010      -0.52666014
C        8.60720105       0.69057477       7.34714351       0.61073007       0.61585248      -0.09746692
C       11.07574935       0.70868657       7.53396428      -0.31219594      -0.36672699      -0.49035360
C       13.55346077       0.63728696       7.49110368       0.64722380       4.43543269       0.65347852
C        0.01134128       2.84352311       7.67358661       0.04419264       1.48702065      -0.33990421
C        2.49091759       2.85870563       7.39553689      -1.68018018       0.13319420       0.29797980
C        4.96695727       2.83146057       7.40891360      -3.67731567       1.52333774      -1.79121250
C        7.36981701       2.83343540       7.33365506      -0.87633249      -0.78521773       0.74754722
C        9.82848875       2.80501806       7.46923957       0.28989342       1.77995981       2.36855474
C       12.30355863       2.79324558       7.68010726       1.53841135       1.14993180       0.34161913
C       -1.25958329       4.97910634       7.78940176      -1.05951099      -0.81678754      -0.50256582
C        1.29788958       4.99693698       7.63235320      -2.63504264       0.89071935      -0.92987751
C        3.73288437       4.99313285       7.34725346      -0.46403244      -0.75683301      -0.50789006
C        6.13634235       4.99118390       7.36283198       1.13710868       0.16019875       0.34447717
C        8.58238701       4.98019933       7.60257557      -1.89306521      -1.50084522       0.40115071
C       11.02626824       4.95585711       7.73869440       0.27128044       0.42448399      -0.06141620
C       -2.41033595       7.10290558       7.58947970      -3.59722246       0.03591574       1.29315665
C       -0.02002684       7.11355477       7.80680127       0.10973185      -0.86550686      -1.67246584
C        2.48310752       7.16964979       7.39869874      -1.22082843      -1.51307956       0.72317727
C        4.92042178       7.13112838       7.36972716       0.36185500      -0.78349767      -0.17189342
C        7.37700417       7.14484876       7.46531126       0.92659318       0.18250513      -0.75409324
C        9.81368637       7.05275188       7.71433225       1.33469230       1.19377862      -1.53912534
C       -3.67490620       9.21165141       7.71135444      -1.58167530      -1.48492752      -1.14240361
C       -1.24493706       9.25529934       7.69604492       1.11431225      -1.53857153       0.21817533
C        1.23885962       9.25717603       7.53112613      -1.90769838      -1.81335921       0.75756938
C        3.66594857       9.21985361       7.28670614       1.46909364       2.41827730       0.19915277
C        6.14433837       9.24108887       7.35573186      -1.91870425      -1.85187022      -0.61035289
C        8.62260565       9.27132732       7.46111345      -0.67501588      -0.64091894      -0.77277205
C       -4.90557564      11.32626806       7.48714950       1.17051554       1.40952040      -0.08133299
C       -2.41372929      11.36264063       7.53829267      -2.33936758      -1.21156706      -0.91236290
C        0.05289880      11.40247287       7.43002169      -2.38588346      -2.74976398       0.83208817
C        2.47679693      11.32461184       7.27318883      -0.87388223       1.21485267       1.15377792
C        4.94747501      11.38327482       7.40356041      -2.56189681      -0.90422767      -0.28329469
C        7.36067609      11.34816173       7.56758299       0.26397696       0.14535089      -1.60614603
72
Lattice="14.76 0.0 0.0 -7.38 12.782534959858314 0.0 0.0 0.0 15.0" Properties=species:S:1:pos:R:3:REF_forces:R:3 REF_energy=-11165.412928414236 config_type=fd_force_conv_snapshot_075 snapshot_index=75 split=validation degauss_Ry=0.00285013035 kgrid=8 lattice_temperature_K=450.0 trajectory_seed=0 p4_key=seed0:snapshot075 pbc="T T T"
C       -0.02674263       0.00073296       7.32327264       0.08509452      -2.03682227       0.42137553
C        2.43745688      -0.00408466       7.38674640       0.32279532       0.02757791       1.55673663
C        4.88483642       0.01825300       7.62541538       1.28787252      -0.15218360      -0.04752170
C        7.40739472       0.01684172       7.61084420      -1.51450806      -0.23445813      -0.72138778
C        9.85437634      -0.03424613       7.50882773      -0.29892262       1.31192596      -0.26032599
C       12.30326622      -0.07425197       7.51447061       0.39183895       1.97723618      -1.10442662
C       -1.27204695       2.13447523       7.25063249       3.07812393      -1.60992735       0.16127990
C        1.19467000       2.06480100       7.27178898       2.37077026       1.82198783       1.20631892
C        3.67470554       2.13809923       7.53445030       1.50870431      -0.58815039       0.98068071
C        6.10182433       2.15276308       7.77223542       1.45046857      -0.76412980      -1.16581633
C        8.56922184       2.14532798       7.53565405       1.17943598       0.61126255       0.35122529
C       11.08186457       2.11320029       7.36599308      -0.79282409       1.66024976      -0.53925315
C       -2.42823620       4.27460944       7.23025654       0.19536013       1.60181244      -0.75509597
C       -0.01122180       4.27816490       7.30309063       1.18644969      -0.52946136       0.24980581
C        2.43950638       4.21277230       7.48062437      -0.27286424       3.82780157       0.78807963
C        4.88655540       4.24043973       7.76219399       0.48437398       2.79877820      -1.14432166
C        7.38542896       4.22220092       7.61779228       0.73025012       2.88392028       0.21360159
C        9.86387949       4.29600143       7.39015385       1.07535644      -1.40255092       0.00186199
C       -3.64683326       6.44134728       7.44093856       2.39708601      -2.37336527      -1.29253727
C       -1.17454093       6.46360667       7.32731983      -0.85804732      -0.75467457       0.32338590
C        1.19819959       6.45534914       7.53965606       1.03834850      -1.93716708       0.10162799
C        3.70655409       6.41056174       7.60565500      -1.04914893      -1.60601079       1.10246718
C        6.15861507       6.38167919       7.62337822      -0.08101495      -1.60636303      -0.08607102
C        8.62476923       6.41646964       7.52281122       1.66416632      -1.98170964      -0.78535066
C       -4.91733152       8.50639845       7.37126360       2.16905719       0.40301502       0.99436001
C       -2.46787179       8.55459604       7.36263851       1.87159212      -0.21838642       2.38267370
C       -0.00054275       8.62541701       7.58371847       1.23174790      -2.40713286       0.52021285
C        2.51166743       8.50681713       7.65632244      -3.35278151      -1.63607162       0.36354730
C        4.91610353       8.52371518       7.69661326       0.24502047      -1.86781234      -0.88020174
C        7.30813121       8.49426154       7.44839780       4.43925515      -1.56212823       0.02536342
C       -6.15104826      10.64436379       7.39620624      -0.72575969      -1.78982719       0.75996127
C       -3.73011895      10.66930645       7.46976730       1.55690324       0.65657156       1.18351401
C       -1.27702840      10.66931925       7.66798029       1.48474651       0.03563806      -0.82236940
C        1.22995569      10.63864624       7.58915836      -0.22909789       0.16799305       0.14455230
C        3.70644962      10.61441239       7.65127738      -1.31957062      -0.80390657      -0.65738223
C        6.13843814      10.58341714       7.43255698       1.59648948       1.73824391       0.77439905
C        1.19168888       0.65331203       7.31494855       1.24501120       1.89191824      -0.40349505
C        3.67229969       0.71863655       7.62380585      -1.25184853      -0.05464880      -1.74660154
C        6.12929189       0.71316225       7.62381020       0.60159546       0.89458963       1.03582753
C        8.63163040       0.75756056       7.52388640      -0.35676885      -3.02418399       0.37245258
C       11.08771549       0.70379202       7.42760739      -0.13178986      -1.67937619       0.77911059
C       13.51855940       0.68076917       7.33987344      -1.47224735       0.52588444       0.23433728
C        0.01321731       2.79909277       7.31224366      -1.55766326       1.52786340      -0.96151031
C        2.50871154       2.83808508       7.44530356      -4.44284929      -1.78708125      -0.95433539
C        4.89311082       2.87332968       7.69235954      -0.17472651      -2.13805508       0.42597780
C        7.36025878       2.86091445       7.68934767      -0.91271154      -2.19826621      -0.16931511
C        9.79148943       2.84282959       7.44220455       2.86322933       0.39843846      -0.61409179
C       12.34187266       2.86867881       7.19632133      -3.29683842      -0.86677981       1.03042950
C       -1.20194813       5.02088406       7.21120831      -0.21580117      -0.31675400       0.79404305
C        1.20288618       5.01064478       7.47242462       0.08757820      -1.37788529      -0.71604272
C        3.63857281       4.97968304       7.64200123       1.82882876      -0.80535924      -0.22060785
C        6.16415439       4.95001984       7.65736363      -1.21750682       0.07404211       0.62155982
C        8.66112822       4.95601344       7.53195073      -2.22417984       1.75404309      -0.07964043
C       11.12798207       5.01292956       7.25525350      -1.44999343      -0.66670479       1.47698178
C       -2.40529893       7.14406355       7.42020767      -1.16032472      -0.03591111      -0.98848452
C        0.01345442       7.20733697       7.48354438      -0.26507739      -0.87811606      -0.26074431
C        2.44809760       7.06430480       7.66991466       1.32609736       2.39209936      -0.79730835
C        4.95104075       7.10223580       7.68084676      -1.16328971       0.03909182      -0.18478827
C        7.37313185       7.05529749       7.50017389       0.43758016       1.96815247       0.40007162
C        9.93288549       7.09856654       7.40904966      -4.66431126       0.96433261       0.55727967
C       -3.65382398       9.26740161       7.49053431      -2.96767577      -0.61360045      -1.61669244
C       -1.24576478       9.24084126       7.63437840      -0.43102385       1.88667447      -1.39181810
C        1.28839839       9.23946195       7.66584253      -1.66783194       0.26122331      -0.46296363
C        3.67982304       9.17706653       7.65276991       2.31395891       2.50644686       0.50121034
C        6.13593298       9.18049666       7.50419946      -0.91580869       1.61222284       0.33392691
C        8.62668222       9.15766142       7.42979208      -2.61729997       2.50342478      -0.59330442
C       -4.97495033      11.37073254       7.50848127       2.07038982      -0.32354582      -1.35617721
C       -2.46568415      11.39423901       7.56882234      -2.10906744      -0.68878928       0.18764502
C       -0.02260249      11.35848038       7.56205921       0.79652519       0.56290370       1.02957486
C        2.45938937      11.30219681       7.55680766       0.89792076       2.33829080       0.40969809
C        4.93106849      11.29276300       7.57179574      -0.16117989       0.74541243      -0.27209162
C        7.39529100      11.35185000       7.41876348      -2.18766760      -1.05377332      -0.74508178
72
Lattice="14.76 0.0 0.0 -7.38 12.782534959858314 0.0 0.0 0.0 15.0" Properties=species:S:1:pos:R:3:REF_forces:R:3 REF_energy=-11165.161599991146 config_type=fd_force_conv_snapshot_081 snapshot_index=81 split=validation degauss_Ry=0.00285013035 kgrid=8 lattice_temperature_K=450.0 trajectory_seed=0 p4_key=seed0:snapshot081 pbc="T T T"
C        0.05054598       0.01036086       7.65828525      -0.43200267      -0.82104451      -0.52670822
C        2.57072040       0.05486791       7.47177532      -5.07615931      -2.14998397       1.45766354
C        4.90718307       0.01436575       7.54459463       1.20875093      -1.67576354       0.41844961
C        7.29920677      -0.08510692       7.36896116       3.77931107       1.23883232       0.80245210
C        9.82730389      -0.00363607       7.62929942       0.16723483      -1.38097576      -2.27639123
C       12.26686465      -0.01759407       7.66141562       2.08440645       1.56057529      -0.55278127
C       -1.22349539       2.11882767       7.79186485       0.25317859      -0.54157897      -0.50417148
C        1.22462071       2.13877423       7.60650299       1.26857382       0.05310562       0.59842735
C        3.70756652       2.16929363       7.52032850       0.56876247      -1.23773112       0.11797815
C        6.19363845       2.09307528       7.45401431      -1.32925931       0.86603650       0.05229984
C        8.55879529       2.12087605       7.57420842       2.57282323      -0.64007947      -1.79372369
C       11.01991920       2.15591992       7.72809964       3.57341508      -1.18754447      -0.61851178
C       -2.47677919       4.28327063       7.70771035       0.55995284      -1.97058191       0.63690519
C        0.01892034       4.26952671       7.61323179      -0.54014918      -0.54318000       0.15063245
C        2.51070540       4.21806359       7.32053496      -1.72258872       2.75556696       0.83838326
C        4.95192652       4.27276969       7.24939639      -0.42996687       0.33312550      -0.27637662
C        7.28639439       4.28813721       7.42468710       4.03833326      -1.15227973       0.14614587
C        9.79354887       4.27297284       7.71696395      -0.27854355      -2.07245776      -0.92378940
C       -3.72909281       6.34576141       7.86045679       1.55402514       1.57938445      -0.34093908
C       -1.23037679       6.40944816       7.62662534      -0.84258599      -1.08027985       0.55074084
C        1.23321558       6.36409095       7.40297322       1.61860200       1.17641725      -0.31617010
C        3.64371674       6.39469934       7.10486536       4.47412316      -0.28410073       0.23140211
C        6.13400330       6.48942454       7.22180784       1.10612920      -2.09915635       0.00111560
C        8.57331892       6.38255665       7.65203632       0.20053679      -0.05993061      -0.70454732
C       -4.90715045       8.48503138       7.65659525      -1.02261874       1.27016790      -0.11896366
C       -2.49339644       8.53126189       7.63797001       0.90025069      -1.38455448       0.03531693
C       -0.05479362       8.49120345       7.40364629       4.43307447      -1.59277373      -0.63345966
C        2.47350785       8.52783939       7.18919697       0.13136280       0.38740328       0.73606107
C        4.89629132       8.56428123       7.25499913       1.12146095       0.33744212      -0.66897662
C        7.39165713       8.54606743       7.35599405       0.23913342       2.04484822       0.07279333
C       -6.09246733      10.68198641       7.57715146      -1.95728391      -0.52548566      -0.77100108
C       -3.69364985      10.61505796       7.62945168       0.61910853       3.31652125      -0.29046652
C       -1.24069765      10.60520876       7.48418617       0.54187028       0.25042853       0.03894527
C        1.20465856      10.60037764       7.25602247       2.60347438       1.91507205       0.97007697
C        3.71828243      10.66617148       7.39118291      -1.68705325       0.52205710      -0.50803713
C        6.10321436      10.64006391       7.34828744       3.26644027       3.54973650       0.64334040
C        1.29823025       0.74443282       7.60437727      -0.67911191      -1.15475905      -0.30743195
C        3.72021602       0.71087834       7.54752873       1.62853674       3.53660716      -0.28083697
C        6.13737336       0.66434544       7.50291486       0.35474976       1.20476032      -0.60608023
C        8.59442919       0.64404759       7.39922191      -1.82754527       2.06360571       1.77818909
C       11.06142907       0.73548198       7.64623222      -0.96420688      -0.97792449       0.99628499
C       13.55806538       0.68364655       7.71991641      -0.94411911       0.57397950       0.19050280
C        0.01075223       2.82137794       7.69891985      -0.67167859       1.52929987      -0.17366285
C        2.46574842       2.85520017       7.56982001       0.90221090      -0.71576350      -1.23812347
C        4.96811060       2.84178787       7.43153126      -0.89731269       0.33930746      -0.31396975
C        7.37323367       2.86990133       7.45860041      -0.99888566      -1.61543312       0.16432794
C        9.85961901       2.84149177       7.55114111      -3.84309757       0.49545646       1.67735813
C       12.31817842       2.82802668       7.76705926      -1.54450229       1.39517802      -0.16364455
C       -1.22840028       4.98315709       7.64601354      -0.36235174      -0.16356587       0.25398771
C        1.25175461       4.98229029       7.47308894       0.60318363      -1.93512074      -0.54829726
C        3.70266425       4.97888464       7.13680117       0.10198461      -1.54185303       0.79261300
C        6.16864980       5.01931802       7.23245876      -2.88510813       1.39501347       0.21719960
C        8.54767222       4.92238719       7.57894647       0.31548310       3.01026789       0.67400621
C       11.01489944       4.93515634       7.80186330       1.33367055       1.39231201      -0.08266868
C       -2.47498312       7.12810421       7.77438175      -0.63411374      -1.71931262      -0.56374548
C        0.00634500       7.03470919       7.50592828      -0.24112268       2.92900946      -0.42547104
C        2.52475239       7.10331765       7.24127663      -5.07536278       0.68903379      -0.11808665
C        4.91210456       7.16043140       7.15380485      -1.06078703      -0.75705027      -0.11202065
C        7.38380945       7.16252660       7.38970575      -0.27558189      -1.87125377       0.24193052
C        9.83588165       7.08212669       7.78595947      -1.27724692      -0.77491635      -0.43473806
C       -3.70880936       9.23566214       7.62739932       0.21621332      -1.21137320       0.56196319
C       -1.22513863       9.15203697       7.45572663      -2.66723851       3.05960608       0.77526396
C        1.24594898       9.23020230       7.22512262      -2.22728059      -2.52827090       0.49930849
C        3.67752756       9.28217277       7.28544110       0.56614149      -1.78962253      -0.59835664
C        6.16079681       9.29460968       7.23517560      -0.96617069      -3.60753181       0.63868311
C        8.63458752       9.23608889       7.50511293       0.35001353       0.24987266       0.46877253
C       -4.87853361      11.41275216       7.58997111       0.36347763      -1.20401496      -0.27511884
C       -2.44401090      11.37631406       7.61101484      -0.67869950      -2.02823144      -0.70081922
C        0.00530138      11.29878404       7.41485436      -2.17374251      -0.09390543      -0.76761185
C        2.47730466      11.32677150       7.40558052      -1.27584721       1.44935373       0.34367242
C        4.91897365      11.39034073       7.41032059      -0.50755016      -0.62202930       0.77392005
C        7.38768923      11.35705884       7.52146487       0.37687693       0.24203131      -0.01141544
72
Lattice="14.76 0.0 0.0 -7.38 12.782534959858314 0.0 0.0 0.0 15.0" Properties=species:S:1:pos:R:3:REF_forces:R:3 REF_energy=-11165.559686346325 config_type=fd_force_conv_snapshot_087 snapshot_index=87 split=validation degauss_Ry=0.00285013035 kgrid=8 lattice_temperature_K=450.0 trajectory_seed=0 p4_key=seed0:snapshot087 pbc="T T T"
C        0.01858634      -0.05487843       7.29021660      -0.55573649       2.60291105       0.01047236
C        2.46476209       0.00039879       7.36297848      -0.03054908       1.22760483       0.04334211
C        4.85439952       0.00231083       7.62078113       1.89331743       0.79906827       0.11724873
C        7.32975180      -0.03163245       7.72724663       0.69052400       0.62416846      -1.14831149
C        9.87549374      -0.00933898       7.50628319      -1.31430140      -0.06555028       0.55098946
C       12.33135228      -0.04615243       7.38172497      -0.38822424       1.10039024      -0.38088271
C       -1.21530785       2.11939176       7.25721649       0.35300912       0.88098284      -0.29025364
C        1.28363468       2.13212049       7.29986336      -2.21405201      -0.48753772       0.70423621
C        3.70712923       2.20451886       7.58419540      -0.35694985      -3.07393252       0.03796285
C        6.11130675       2.10705670       7.55625602       0.53643008       1.02178725       1.29267251
C        8.57153098       2.13827790       7.56423178       0.09638911      -0.86213486      -1.29052384
C       11.07063086       2.14613241       7.46317571      -0.55088533      -1.79055069      -1.78776516
C       -2.49837202       4.23948374       7.21833168       1.09620372       1.27310667      -0.11917886
C       -0.03242131       4.27623563       7.35085067       2.16529824      -0.32111150      -0.36763741
C        2.44725670       4.26957046       7.51458304       1.41268723       0.20865402       0.98735169
C        4.95724594       4.27480590       7.73032249      -0.15294516      -0.08879742       0.80164014
C        7.36944320       4.27119869       7.78354718       2.27120866      -0.31711858      -2.42386971
C        9.87681301       4.25494544       7.46361583      -3.78587304       0.20722937      -0.89295338
C       -3.72766017       6.37599013       7.33738333       3.11515939       1.56670634      -0.19662331
C       -1.21032773       6.38106983       7.33850324      -0.48242611       1.06919325       0.18711923
C        1.20581788       6.34775480       7.51303657       2.61571437       2.96076439       0.38331986
C        3.70583691       6.39817933       7.84448324      -1.02411564      -1.79348458      -1.02058860
C        6.10117079       6.41784854       7.78486619       3.66142574      -1.45217424      -0.31448448
C        8.60648039       6.39364589       7.47756328      -0.51477265       0.33831064       0.71841919
C       -4.88081098       8.51258468       7.31845812      -0.39702795       0.59235723       0.58186713
C       -2.39440412       8.54583475       7.31988828      -1.80701990       0.02687728       0.70398116
C        0.03135367       8.55342186       7.41613463      -0.03424787      -0.67399258       1.66424474
C        2.43647557       8.50665145       7.71431614       0.28224748      -0.78639813      -0.61429594
C        4.85630357       8.53571326       7.71371374       1.97559222      -1.00664937       0.29015619
C        7.37699124       8.52636129       7.61843642       0.10567003      -0.15959660      -0.81183945
C       -6.16078485      10.61589490       7.35836260       1.82779775       0.50979679       0.07952628
C       -3.67243766      10.66825966       7.46282401      -0.34717657       0.19809424       0.17654171
C       -1.24204336      10.68583118       7.50009420       0.62939577      -0.34684310       2.03076269
C        1.26018314      10.68964588       7.63751401      -1.67150810      -1.80572817      -0.15981232
C        3.67259255      10.67055978       7.55311169       0.14040306      -2.59739732       0.15456932
C        6.12349032      10.64101745       7.47805050       1.48677151      -0.81991580      -1.01357489
C        1.21259964       0.69565197       7.32216483       1.57805699       0.34589899      -0.44072951
C        3.71033727       0.73954209       7.44798547      -2.64055509       0.86499161       0.77080979
C        6.07660617       0.67897529       7.61976687       2.33635142       1.24668807       0.29579411
C        8.58761476       0.65272830       7.58699762       0.30709796       2.44800903       0.31482721
C       11.12175118       0.67536342       7.46895712      -1.40048066       1.59354043      -0.11715463
C       13.54473105       0.71241117       7.28091856       0.28557269      -1.78020329       0.29465511
C        0.04670819       2.86663951       7.29901055      -1.52484107      -1.29080460      -0.36744149
C        2.47011710       2.83744562       7.49824672       0.17535772       1.53274592      -0.59705335
C        4.91839923       2.86260992       7.78151550       0.66214391      -0.17192273      -2.05290529
C        7.33315709       2.88211178       7.53182258       0.63317555      -2.73001071       1.53373657
C        9.80598187       2.84789655       7.36962115       1.09294484      -1.21696072       2.08896733
C       12.27542938       2.82778475       7.20598146       0.97186208       0.13626950       1.38310232
C       -1.23812032       4.96830759       7.24545689      -1.25391981      -0.32375794       0.46444433
C        1.23275815       4.99960215       7.45469378      -1.14065115      -3.17143338      -0.13473095
C        3.71931215       4.96337788       7.73768136      -1.17448635       0.26390908      -0.42196637
C        6.21124048       4.97049755       7.73732499      -3.99258845       2.01790846       0.93059356
C        8.60164407       4.97333751       7.54048273       1.10580087       0.06398884       0.86695645
C       11.03402663       4.97418264       7.32130202       2.11959945      -0.45513051      -0.03247406
C       -2.42968606       7.13589991       7.32411985      -0.84937267      -1.85361806      -0.28417580
C        0.02794769       7.08838614       7.48875375      -1.42809560       1.28590819      -1.21758807
C        2.48356716       7.05123734       7.63697721      -1.68689179       1.72530638       0.93501972
C        4.91411224       7.08736218       7.86064468      -1.20042081       2.49147455      -0.41619013
C        7.35485833       7.12073221       7.65228814       0.49450773      -0.80386003      -0.14277927
C        9.86885613       7.11061594       7.37838349      -2.00754589      -0.77951297      -0.21358668
C       -3.66522228       9.24277678       7.32450427       0.84778810       0.34059301       0.25756206
C       -1.19673872       9.27669202       7.48030626      -0.20416256      -1.03226758      -1.53249113
C        1.25386861       9.26122429       7.59806315      -0.83300966      -0.63608064      -0.21968945
C        3.63602252       9.23084313       7.71378418       1.18637025       0.67019326      -0.35907898
C        6.12153415       9.21744971       7.56120019      -0.09351591       0.63103896       0.86931955
C        8.64035631       9.19378739       7.43962060      -1.05071267       0.91550016      -0.11667486
C       -4.92399721      11.38315574       7.36734795       0.49953912      -1.73487268       0.20962127
C       -2.44949493      11.41133763       7.69361133      -1.77900850      -2.90219209      -2.19711949
C       -0.01269754      11.33835880       7.66917761       0.69003575       1.12578092      -0.40645104
C        2.47288034      11.34827348       7.56184872      -0.05180824       2.16956010       0.09579982
C        4.89678444      11.31033769       7.39439859       1.08453708       1.65562434       0.78138808
C        7.41129163      11.34347270       7.34287900      -2.48610815      -1.40139238       0.49385390
72
Lattice="14.76 0.0 0.0 -7.38 12.782534959858314 0.0 0.0 0.0 15.0" Properties=species:S:1:pos:R:3:REF_forces:R:3 REF_energy=-11165.958279377475 config_type=fd_force_conv_snapshot_093 snapshot_index=93 split=validation degauss_Ry=0.00285013035 kgrid=8 lattice_temperature_K=450.0 trajectory_seed=0 p4_key=seed0:snapshot093 pbc="T T T"
C        0.02017850       0.03937658       7.56391452      -3.66647744      -1.35293454      -0.41062112
C        2.40163391      -0.01175772       7.47707309       2.27744076       0.83997632       0.93798188
C        4.93301010      -0.02053530       7.39480376      -2.38921253      -0.72493745       0.47859466
C        7.31938026      -0.03932314       7.43993972       1.65182528      -0.22512811      -0.78465646
C        9.84603787       0.00907552       7.48080584      -0.32116935      -0.41655522      -0.39158724
C       12.24320970       0.05179216       7.58400337       0.90806967      -1.03668011      -0.85183502
C       -1.21723537       2.12860651       7.62960611      -1.10085973       2.57122220      -0.12781108
C        1.23505269       2.13475941       7.57670552       0.02341247       0.97919435      -0.34095039
C        3.73514688       2.09149364       7.44769408      -2.91169385      -0.16350236      -0.16078882
C        6.12669875       2.07343215       7.33028642       2.32051908       1.81841940       0.04054758
C        8.65463529       2.11973200       7.47160920      -1.79874814      -0.45109671       0.37776962
C       11.10498704       2.17964609       7.70544495      -0.84753639       0.22441540      -1.19396657
C       -2.41891464       4.34458529       7.71908510      -0.22420945      -2.41277900      -0.53272358
C       -0.00120182       4.28830399       7.61498082       2.13738146      -1.71017210      -0.21922948
C        2.50833568       4.26652787       7.42437334      -1.72547299      -1.09547969       0.15486371
C        4.91910606       4.20157330       7.42932586       1.56608182       1.97894288      -0.33774731
C        7.37490143       4.27872440       7.51051606       1.26572426      -1.77870974       0.05249704
C        9.86243937       4.25152300       7.63967563      -0.34596456       1.34399558      -0.23378013
C       -3.72217738       6.39648746       7.75211369       3.68928801       0.60210608      -0.43925086
C       -1.22395942       6.42429214       7.66721104       1.59584002       0.68417235       0.33914882
C        1.26397635       6.35307264       7.42559584      -0.94541263       0.96109893       0.56881672
C        3.68861234       6.36359053       7.26718200      -0.16624162       0.12926170       1.35490966
C        6.12008423       6.36938867       7.38327561       1.77133607       0.96051503       0.39420411
C        8.64518334       6.36881027       7.57423171      -1.94434252       0.91690835      -0.05451819
C       -4.92330164       8.53375430       7.64545077       1.07733619      -0.91111283       0.49790595
C       -2.44947563       8.56684858       7.57849442       0.40381695      -2.19807157       0.67220207
C        0.02760985       8.54839360       7.39790845      -0.93655878      -2.87009212       1.05725202
C        2.46241831       8.54649786       7.27179897       1.17304808      -2.75323754       1.27807224
C        4.88329358       8.49703102       7.27512541       2.27101069       0.26141203       0.50607486
C        7.37637213       8.52554928       7.52096038      -0.23130338       0.36735639       0.34789623
C       -6.16213869      10.65993413       7.53552548      -0.39675464      -0.26119246       0.56020430
C       -3.69948143      10.69806343       7.52555335       0.24774327      -1.68856480       0.30969683
C       -1.25509789      10.62047973       7.34798805       0.08815284       0.66408972       0.88617776
C        1.18535384      10.59634562       7.36527227       1.80701218       2.66874286       0.76060816
C        3.65818788      10.63610461       7.40403145       1.13627899       1.28731484      -0.50017238
C        6.08012166      10.66025960       7.50929903       2.76047237       0.55426685      -0.66765558
C        1.21428639       0.72361310       7.56876040       0.41644672       0.28154711      -0.34248457
C        3.68778022       0.64372031       7.53183160      -0.46453586       2.12680882      -1.36822849
C        6.09615532       0.68817592       7.31847783       2.63557434      -0.29284171       0.63798711
C        8.59469857       0.62856872       7.42668521      -0.51281475       3.13333889       0.57931788
C       11.06312053       0.80061291       7.55979656      -0.94231059      -2.92058679       0.47923615
C       13.44474943       0.77607912       7.57264743       3.72047318      -3.35181812       0.43352347
C        0.01790492       2.83865243       7.62342733      -0.75001316       0.81147050      -0.01911949
C        2.44288338       2.85889381       7.44632574       2.75152441      -1.74942641       0.62748724
C        4.94391400       2.79499134       7.32942414      -1.19962968       0.38569324       0.89180539
C        7.37906588       2.82561877       7.43686456       0.66764350      -0.39847317      -0.10001514
C        9.87786552       2.86773857       7.63572961      -1.30836241      -1.31229902      -0.27646969
C       12.30835096       2.86347913       7.62053919       1.63236126       2.29029782       1.26776135
C       -1.15958009       5.03331826       7.73769060      -2.88090412      -1.09270162      -0.49934706
C        1.25767888       4.93131863       7.45266685      -0.10337095       1.31931762       0.42356482
C        3.72377862       4.95940824       7.44144270      -0.09049460      -0.62325983      -1.04318217
C        6.17502795       4.97078219       7.46268476      -2.29879454      -0.99360796      -0.40917384
C        8.62311106       4.96596198       7.59794288       0.07910359      -0.57877512      -0.29033000
C       11.08378003       4.99770602       7.64264151       0.28196491      -0.39855827       1.18996156
C       -2.41846266       7.14225154       7.77632385      -2.54303700      -0.36879312      -1.09068459
C        0.02879153       7.08533885       7.51770727       0.01744519       1.59965965      -0.49809956
C        2.47347144       7.09156291       7.39592941      -0.07472500       0.45510171      -1.64993938
C        4.89308658       7.05682211       7.27447560       0.82635410       1.52666758      -0.09371388
C        7.38258602       7.10469213       7.49524469      -0.21199080      -0.71618618      -0.21635962
C        9.85873245       7.06991148       7.62887791      -1.41465618       2.64527126       0.49369397
C       -3.66459552       9.24017209       7.63665098      -1.94564709       1.61419770      -0.65014611
C       -1.23070078       9.23446276       7.41860665       0.82717377      -0.38418889      -0.07244752
C        1.26226272       9.20015028       7.43941366      -1.47242013       1.34884391      -1.54772646
C        3.70406843       9.22914430       7.28716205      -1.47772123       0.11877545      -0.05556437
C        6.12534025       9.25537955       7.43179744      -0.38906087      -1.90619789      -0.15458269
C        8.61838258       9.23750717       7.67946268      -0.77676266      -0.03132915      -1.43113953
C       -4.94846066      11.38660106       7.53099213       0.16734591      -1.15689795      -0.33926529
C       -2.45043575      11.36115990       7.43757053      -0.90030751      -0.57444127      -0.32410966
C       -0.04032017      11.30928696       7.44229836       0.53883843       0.87558301      -0.92944788
C        2.44046018      11.36870497       7.37417147      -0.31790199      -1.06353528       0.54090740
C        4.89906069      11.37636780       7.45903731      -2.03382410       0.89038614       0.62691388
C        7.36917801      11.37052418       7.48183785      -0.67279548       0.72779369       0.88128623
72
Lattice="14.76 0.0 0.0 -7.38 12.782534959858314 0.0 0.0 0.0 15.0" Properties=species:S:1:pos:R:3:REF_forces:R:3 REF_energy=-11164.784224764455 config_type=fd_force_conv_snapshot_099 snapshot_index=99 split=validation degauss_Ry=0.00285013035 kgrid=8 lattice_temperature_K=450.0 trajectory_seed=0 p4_key=seed0:snapshot099 pbc="T T T"
C       -0.00439881      -0.00027786       7.40269054      -0.19640991       0.28539554      -0.10048565
C        2.49125589       0.03025644       7.59830443      -0.92963017      -0.83412192      -0.41643669
C        4.93731321      -0.03705472       7.59655213      -0.18877245       1.56071567       0.86057857
C        7.38359964      -0.02572690       7.51274825       0.63352933       0.27691887       0.41882705
C        9.82656964      -0.00789343       7.50678153       1.57353596      -0.05795035      -0.36339432
C       12.31128064       0.02837171       7.35089034      -0.19334721      -1.45078944      -0.05790253
C       -1.22585465       2.13079191       7.38826940       2.32212113      -0.65218629      -0.84081681
C        1.22070166       2.13926198       7.41584465       1.92724622      -2.81796686      -0.14941683
C        3.72953113       2.14949124       7.49370457      -0.63585438      -0.61276613       1.45210996
C        6.16244437       2.16152424       7.58864425      -0.00703300      -2.29601492      -0.92880099
C        8.64233774       2.13674997       7.47676223      -0.14547147      -1.72269311      -0.40422035
C       11.11324804       2.12638696       7.27844105      -1.55149312      -1.30358170       0.90793777
C       -2.47022263       4.22894329       7.42893913      -0.07092671       0.35450293       0.06081713
C       -0.03686920       4.23710829       7.31653516       1.55570485       0.98007239       0.85436164
C        2.42642103       4.23859543       7.52398493      -0.02051895       0.71433653       0.54074979
C        4.89804753       4.27573961       7.67251791       0.04900600       1.82545368      -0.27122284
C        7.38167778       4.26381673       7.45068864       0.59368340       0.61624406       0.20480251
C        9.88843130       4.22773422       7.43569229      -2.94408693       1.39956509      -0.33229889
C       -3.75046668       6.32686193       7.45038531       1.81377830       3.34443623       0.60348136
C       -1.27641697       6.41429674       7.42035451      -1.32357305      -1.41199946       0.54179726
C        1.16646818       6.41954611       7.46969681       1.11620690      -0.59328565       1.13826157
C        3.67925938       6.40417900       7.70522378      -1.92382974      -0.03700846       0.02064107
C        6.13927733       6.40048413       7.70029881       0.03413448       1.74294209      -0.89484752
C        8.64603670       6.46863713       7.40511314      -3.86303725      -5.15932241      -0.27310875
C       -4.85295667       8.52002533       7.47837099      -2.69989332       1.31739161       0.09142894
C       -2.50686727       8.49114916       7.48450097       1.38630489       1.72266534       0.17149772
C       -0.05801850       8.49700618       7.50851470       1.11502573       0.83339249      -0.12462394
C        2.49774253       8.49302084       7.62174486      -1.65074619       1.45646412       0.48859985
C        4.93113660       8.56290435       7.58544364       0.73344754      -0.04133768       0.88771348
C        7.42141979       8.48303901       7.35565644      -1.02590564       3.41307620       1.37378593
C       -6.17095363      10.71319456       7.38924659       2.42643490      -1.84230649       1.22638741
C       -3.64933629      10.68713766       7.40914463      -1.39293422      -1.08614325       2.45542897
C       -1.22390870      10.66345517       7.54390415       0.90141386      -2.04894682      -0.62617649
C        1.20177034      10.60430129       7.60974686       2.94767002      -0.64886776       0.34201200
C        3.65578680      10.60731575       7.61666491       1.87984048       4.77072434      -0.23432571
C        6.14351386      10.71259790       7.55294639       1.14429106      -2.58816423      -0.57273791
C        1.20061989       0.65820443       7.37336469       3.08360655       3.16879877       1.48066591
C        3.74946029       0.73194424       7.69754571      -1.65582000      -0.25181564      -1.83167163
C        6.13935403       0.65012851       7.57183614       1.35682050       3.19941161      -0.06148999
C        8.61935300       0.68010068       7.49452285      -0.85029235       1.63782665      -0.00772102
C       11.07140567       0.70187389       7.27627397      -0.03440007       0.28159262       1.08547939
C       13.55489871       0.74776240       7.35461649      -1.35200483      -1.99005184       0.18013226
C        0.03687475       2.80505807       7.33193507      -2.56585940       2.49016098       0.39758485
C        2.47151986       2.81734389       7.54162209      -0.59411561       0.34536523      -1.10175267
C        4.92953939       2.89552666       7.51759099       0.78192955      -1.46373726       0.75915138
C        7.41613337       2.81568986       7.46941966      -1.24559535       1.56596098       0.62334674
C        9.86716823       2.82470882       7.43487068       0.79907238       0.04390621      -0.62307214
C       12.33930176       2.78486912       7.37111127      -1.81178029       2.95357430      -0.23165665
C       -1.28059624       4.95501531       7.38716126       1.38268349       0.56519147      -0.19389075
C        1.22374606       4.98383996       7.45630729      -2.28539549      -0.57243684      -0.75622829
C        3.60832736       4.97257360       7.68264929       3.33650669       0.33431823      -0.18875008
C        6.16184778       5.01579808       7.67404602      -1.07623113      -2.36924508      -0.53248266
C        8.61832810       4.97530783       7.32873498       0.82040379       0.22766733       1.39747042
C       11.06406530       4.98071104       7.49611509       0.71329575      -3.58578388      -0.75534691
C       -2.53692415       7.10319853       7.48193317       0.98571827      -1.87193331      -0.45528349
C       -0.07618396       7.12502660       7.52053696       0.80589377      -2.22093742      -1.01559552
C        2.41093580       7.12119561       7.63700597       1.50802785      -2.03100720      -0.51828992
C        4.88317257       7.15700860       7.72078428       1.47903738      -1.90537205      -0.47456702
C        7.37499084       7.09391119       7.45410495       0.29917922       0.40967212       0.33018904
C        9.82455336       7.07203668       7.47574311       2.43295110       3.13072176      -0.34742649
C       -3.66835621       9.26661404       7.56269581      -0.40840637      -0.55470445      -1.56338679
C       -1.26680745       9.20621238       7.42389686       0.05898239       1.35430262       1.16137424
C        1.21897598       9.11538216       7.57874769       0.11817896       4.17203860       0.11277244
C        3.72058183       9.27339036       7.66987670      -1.53864378      -3.53402295      -0.46302046
C        6.18012029       9.25100954       7.54414512       0.21483650      -0.01490777      -0.71849092
C        8.65213838       9.28284791       7.38738490      -0.29397865      -2.42617033      -0.22703741
C       -4.90703742      11.37297912       7.55660928       0.58361831       1.14727200      -1.40520481
C       -2.42153368      11.35829568       7.58649533      -1.09198325      -0.22570301      -1.04393448
C        0.04775699      11.34041738       7.54070452      -2.66599512      -0.13202820       0.17375258
C        2.47020669      11.38284575       7.69548143      -1.76084083      -2.45220121      -1.34321114
C        4.91699665      11.35519099       7.45837235      -0.91637279       1.25026422       0.79196559
C        7.39606507      11.39412847       7.50080908      -2.00293847      -0.08483201      -0.68477759
72
Lattice="14.76 0.0 0.0 -7.38 12.782534959858314 0.0 0.0 0.0 15.0" Properties=species:S:1:pos:R:3:REF_forces:R:3 REF_energy=-11165.247848785277 config_type=fd_force_conv_snapshot_105 snapshot_index=105 split=validation degauss_Ry=0.00285013035 kgrid=8 lattice_temperature_K=450.0 trajectory_seed=0 p4_key=seed0:snapshot105 pbc="T T T"
C       -0.05942639       0.01456584       7.62309192       1.47317655      -0.48669877      -0.21081143
C        2.34767430      -0.04565794       7.54916564       4.30276659       0.01860347       0.53926523
C        4.86867143      -0.02046340       7.48771535       1.44328233       0.24170092       0.03168628
C        7.33380384      -0.05415484       7.60837195       1.42091836       2.72958827      -0.20798065
C        9.85504784       0.01642063       7.53077943      -1.43613981       0.76457460      -0.27175301
C       12.33679820       0.07298551       7.47864967      -2.09628211      -1.79405125      -0.04920243
C       -1.21340144       2.15699314       7.54444589       1.10795314       1.53846611      -0.31957218
C        1.24961820       2.09343006       7.47093440      -0.35664672       2.23685281       0.48837462
C        3.65305214       2.03568620       7.44344610       1.31122790       1.54433774       0.64133983
C        6.15167811       2.13255864       7.52490672      -0.04186039      -1.64840546       0.01401791
C        8.62818133       2.08969887       7.73265764       0.11891429       2.19699351      -1.53371677
C       11.13540776       2.13025848       7.59189569      -0.83998557       2.63781403      -1.01077573
C       -2.43572831       4.29460784       7.58304361      -1.59450871       0.06834584      -0.61891415
C       -0.02247239       4.28694307       7.55514625       1.46452299       1.15508121      -0.91554567
C        2.46950826       4.27431594       7.50157634      -1.31335446      -0.86910049      -0.46786184
C        4.90124602       4.16095041       7.42341566       0.33595654       3.63327061       0.34327672
C        7.40309687       4.24030907       7.48468269      -0.49827439      -0.14631043       0.31859465
C        9.86640389       4.22920691       7.58271258      -0.53851601       1.64522680       0.08372309
C       -3.66975488       6.36408332       7.53116109      -1.82808700       0.81236781       0.28435398
C       -1.25620482       6.41880204       7.50815816       1.44228423       0.88376529      -0.08010375
C        1.25277477       6.45822101       7.38476261      -1.81668776      -0.28698036       0.40779933
C        3.68921118       6.42705992       7.43037944      -0.69578474      -1.34871741      -0.66498395
C        6.15138552       6.38052032       7.46981788      -0.33477820      -0.42242505      -0.37510313
C        8.59995297       6.38585477       7.41310236       1.33110484      -2.01094103       1.35052721
C       -4.86634230       8.51922861       7.51071616      -2.15967832      -1.30525523      -0.57818068
C       -2.45767755       8.52321016       7.49727322       0.36652027      -1.58365248       0.64309486
C        0.07687152       8.54243371       7.46424015      -4.16504828      -0.52691365       1.10496604
C        2.47711819       8.61530333       7.30521930      -2.05430346      -2.36750316      -0.08258332
C        4.94623906       8.59369469       7.37867868      -1.96925805      -4.69050361      -0.24307081
C        7.35361847       8.49366408       7.43529691       2.61541355       0.09135207       0.13365494
C       -6.16844493      10.62736267       7.57861171       1.29230793       0.42778477      -0.49683869
C       -3.67588445      10.60611836       7.55763241      -0.55188575       2.58622356      -0.38200422
C       -1.27815056      10.58895322       7.48498077       1.56404705       1.47404352       1.22151363
C        1.21395484      10.70175301       7.56591709       0.28703693      -0.87823896      -0.88566842
C        3.75161817      10.64428256       7.43682365      -3.35295326       2.53352263      -1.10519846
C        6.10805327      10.63049590       7.38774951       2.98974509       1.90847383       1.33036077
C        1.18813080       0.70257208       7.57916354      -1.24247275      -0.67610834      -0.25115821
C        3.62460588       0.64005027       7.54365754      -0.21885127       0.32394923      -0.84481231
C        6.17124514       0.69553270       7.49171102      -3.26247100       0.14012949       0.61267229
C        8.55888514       0.71135831       7.65049276       2.44736214      -1.87616920      -0.00594208
C       11.09086442       0.75503912       7.46191454      -0.00987509      -1.52395224       0.90294341
C       13.51600117       0.76732892       7.57248445       0.83373316      -0.86175305      -0.21799998
C        0.03011881       2.86275943       7.51422750      -0.16174116      -0.40543957       0.28814276
C        2.49943472       2.79922187       7.44474460      -2.64985039       1.17698829       0.23445864
C        4.87156049       2.78293143       7.48439826       1.60425961      -1.19690689      -0.47469044
C        7.39931076       2.80510542       7.59733166      -0.34167467       1.23574340       0.06540706
C        9.90012252       2.86188372       7.58429121      -1.16145909      -3.46232748       1.21949660
C       12.36302572       2.90037400       7.50342777      -1.46859844      -1.82891824       1.07203535
C       -1.25558634       5.01516300       7.49081958       1.47748443      -0.53659052       0.89352880
C        1.21622666       5.05848419       7.49146997       0.84234353      -2.96155037       0.04184213
C        3.69080917       4.93155741       7.47760615       0.32046384       1.93451524      -0.36264150
C        6.14226032       4.96072025       7.40706716       0.24772682      -1.68680797       0.55192432
C        8.64099409       4.93001130       7.53100537      -1.31441247       1.20504468      -0.69773286
C       11.05518336       4.97116625       7.60907697       2.06530572      -0.47540083      -0.51751550
C       -2.47211795       7.11289582       7.51322858      -0.25524678      -0.56908797      -0.05733611
C       -0.00569433       7.15093735       7.48037349       1.03205778      -1.37552888      -0.70069786
C        2.44430556       7.17939232       7.28864181       1.88739901      -0.50335438       0.86799029
C        4.91169223       7.09693800       7.42368274       0.96942056       1.92499471       0.06583490
C        7.40666530       7.08095681       7.48078144      -2.37842340       0.36842880      -0.65996901
C        9.82215791       7.05265301       7.51544982       2.00648274       2.34943062      -0.57673109
C       -3.64421167       9.23955703       7.50515066      -1.69940586      -1.60219939       0.31053347
C       -1.23686283       9.15402762       7.61606969       1.66413367       3.32242707      -1.84648633
C        1.21970199       9.28868951       7.43757774       2.42574662       0.50907483      -0.08341096
C        3.69110340       9.24145494       7.29208873       2.46039814       2.21363575       0.99571729
C        6.15921240       9.21661812       7.42088731      -0.34097610       1.50100694      -0.41675191
C        8.61690772       9.20451505       7.42814330      -0.11372298       0.27380217       1.08672355
C       -4.87472143      11.34370932       7.60335753      -4.13760536      -1.45977184      -0.14496831
C       -2.50089536      11.35507044       7.46954186       1.94863137      -1.23603445       0.42672368
C       -0.00839220      11.36313133       7.59627858      -2.35438179      -2.30682872      -0.52495833
C        2.42399423      11.39919135       7.42113401       3.13884053      -0.87407326       1.22016791
C        4.94157140      11.41523655       7.43973426      -0.54409814      -1.17755445      -0.25060440
C        7.36489270      11.36518841       7.57582975      -0.93966879      -0.64550502      -0.65841478
72
Lattice="14.76 0.0 0.0 -7.38 12.782534959858314 0.0 0.0 0.0 15.0" Properties=species:S:1:pos:R:3:REF_forces:R:3 REF_energy=-11165.320213106845 config_type=fd_force_conv_snapshot_111 snapshot_index=111 split=validation degauss_Ry=0.00285013035 kgrid=8 lattice_temperature_K=450.0 trajectory_seed=0 p4_key=seed0:snapshot111 pbc="T T T"
C       -0.03920572       0.00784365       7.45300729       0.79559702       0.14170944      -0.91222226
C        2.47718363       0.04218616       7.43502171      -2.23556160      -2.31113044       0.30660071
C        4.88851145      -0.05403249       7.34804058       1.71503020       3.71194920       0.71010913
C        7.39428185      -0.07346374       7.46656374      -1.23184406       2.39727190      -0.14778418
C        9.78476911      -0.05736604       7.45638098       2.08502300       1.12485352      -0.02266659
C       12.32618081      -0.02856285       7.55625644      -1.73606208      -0.00074536      -1.88306413
C       -1.30331758       2.14750791       7.37751275       2.20010172      -1.53252532      -0.28496899
C        1.19453445       2.14107745       7.33213145      -0.41887024      -0.80686102       0.32656507
C        3.68332005       2.10241757       7.53953174       0.34601572       0.34690429      -1.38551659
C        6.16884770       2.18842528       7.46024118      -1.65070531      -3.24389890       0.43581304
C        8.60428026       2.11375722       7.51427029       1.21268343       1.74657326      -0.13901518
C       11.09542357       2.11724812       7.51476495      -2.55069632      -1.21620533      -0.49956586
C       -2.48918432       4.25505673       7.49551858       0.53036356      -0.73472024      -0.71056652
C       -0.00786474       4.28379979       7.48299146       1.30080465      -1.57814646      -0.18267071
C        2.47842624       4.23555200       7.53209586       0.17939358      -1.06305680      -0.29412880
C        4.95134841       4.26354713       7.54045193      -2.90293976       1.08764991       0.77193336
C        7.38521723       4.26773241       7.47185867       0.29861383       2.48234405      -0.46691259
C        9.78933608       4.25076085       7.53292047       2.20125743       1.76802552      -0.85333500
C       -3.72514479       6.37619020       7.47537587       0.83859409       1.18151806      -0.04917492
C       -1.26979465       6.32810891       7.41865366       2.50072924       1.54872713      -0.16951772
C        1.27357325       6.37842816       7.42135441      -0.86880455       1.51378867       0.80478100
C        3.69173375       6.42511876       7.65527488      -0.74338357      -1.58967580       0.21771536
C        6.11078888       6.39567526       7.60725145       2.17372117       2.12794808       0.01311288
C        8.65586985       6.47264770       7.62575290      -1.96401840      -0.64612054      -0.71336851
C       -4.85667560       8.61671995       7.63199068      -1.90047950      -0.36219156       0.95325835
C       -2.37951125       8.47768162       7.50082727      -1.98908640       0.26534427      -0.63968635
C        0.02842446       8.49790728       7.48114106      -0.42635781      -0.90693067      -1.09328731
C        2.49206486       8.53739338       7.54595946      -0.86569712       0.05703530      -0.46777751
C        4.91634236       8.53886755       7.68783040       0.37561452       0.19381696      -0.81231305
C        7.40771930       8.56470865       7.68049749      -1.47922095       0.21986917      -0.55026827
C       -6.15808101      10.71224017       7.64214385      -0.13645127       0.74790074      -1.00634083
C       -3.65108396      10.65220697       7.46506150      -2.73214884       0.12263057       0.58225588
C       -1.26594752      10.58183023       7.37424184       1.86165738       3.14253958       0.44861508
C        1.24449300      10.59629150       7.47357710      -1.62247845      -1.07943370       0.20473772
C        3.69427576      10.63919388       7.52557339       0.58783620       1.39777535       0.51892627
C        6.16107964      10.63716045       7.50629009      -0.77480271       0.79134981      -0.37915236
C        1.20666614       0.72014833       7.43875177       0.09672439       0.11492265      -0.51720337
C        3.67809541       0.69871255       7.41004019       1.55641010       0.27341934       0.25448445
C        6.15881042       0.69929760       7.45557898      -0.46436848      -0.45333460      -0.57894044
C        8.59668674       0.72967372       7.43131550      -0.09849331      -2.90809791       0.66430209
C       11.05780686       0.64858207       7.42032384      -0.24778133       0.94114408       1.45894858
C       13.50087438       0.70829582       7.35171931       0.18976773       0.71846701       1.43507151
C       -0.08521637       2.84706702       7.38220721       2.72193950       0.80962830       0.00839182
C        2.47225420       2.77325214       7.33772527      -1.16345401       2.68982565       1.88611397
C        4.89318587       2.85392720       7.55614643       1.85509772      -0.19766770      -0.57398207
C        7.39152587       2.85466850       7.46614137       0.30087255       0.46902270       0.17365591
C        9.86939918       2.87158448       7.58784804      -1.94214191      -2.94420160      -0.73115309
C       12.27078788       2.82655572       7.43598429      -0.26932254       1.40180915       0.58709855
C       -1.23510278       4.93189728       7.49170539      -0.80777094       0.90064844      -0.29767641
C        1.30411864       4.97492220       7.52660004      -3.41313045      -0.57991952      -0.80608404
C        3.64790034       4.97567166       7.68335507       3.20763657       0.10299736      -1.29228607
C        6.14355641       5.02109749       7.47606251       0.59846977      -2.70133365       0.58765134
C        8.61818124       5.04202673       7.43902304      -0.73874093      -1.36294050       1.49611542
C       11.05422885       4.94996511       7.41626729      -1.26010409       0.81383591       1.29814613
C       -2.46016059       7.03873727       7.39840061      -0.81097556       1.50667082       0.93508322
C       -0.00817408       7.09918328       7.39342296       0.39142140      -2.45211816       0.56669531
C        2.49239060       7.14258631       7.52360114      -0.72060180      -1.29029167       0.21900940
C        4.90397054       7.11482840       7.69654652       0.55941754       0.39837264      -0.13918101
C        7.38272853       7.14276998       7.63823873       0.07374541      -0.33282828       0.24581109
C        9.85983250       7.21049755       7.64313376       0.54250405      -2.27015322      -0.77810478
C       -3.61575661       9.25386437       7.57996432       0.55781163      -0.84051573      -0.57545197
C       -1.17096622       9.21113881       7.42081043      -2.09521845      -1.26682521       0.44633322
C        1.22426852       9.17358946       7.44108323       2.24395137       1.48576595       0.73147191
C        3.70807564       9.27060837       7.60842957      -0.43486970      -2.09830352      -0.04943152
C        6.12869684       9.26028667       7.54270848       1.70726444      -2.21356916       1.38240067
C        8.60621949       9.33463544       7.71853322       1.57844394      -2.64907624      -0.52907390
C       -4.90181824      11.37389893       7.54910906      -0.05810205       0.86418557      -0.49532611
C       -2.50251505      11.36558572       7.33634946       3.19110181      -1.97638643       0.16723972
C        0.01354759      11.29003282       7.48768750      -1.45421363       0.52761891      -0.91700683
C        2.42965207      11.28944658       7.51874599       1.38003114       2.17749272      -0.52251758
C        4.95536629      11.33496288       7.54119303      -1.80484191       0.79873094      -0.02249021
C        7.33866805      11.37526247       7.42688906       2.05809120       0.49712228       1.65076573
72
Lattice="14.76 0.0 0.0 -7.38 12.782534959858314 0.0 0.0 0.0 15.0" Properties=species:S:1:pos:R:3:REF_forces:R:3 REF_energy=-11165.323901337815 config_type=fd_force_conv_snapshot_117 snapshot_index=117 split=validation degauss_Ry=0.00285013035 kgrid=8 lattice_temperature_K=450.0 trajectory_seed=0 p4_key=seed0:snapshot117 pbc="T T T"
C        0.01342284      -0.04101902       7.68727052      -0.96696516       0.64556775      -0.47387360
C        2.48083332      -0.01406132       7.55392383      -1.66433421      -0.64679854       0.15297858
C        4.93554257       0.02079314       7.38128615      -0.98541462      -1.27249578       0.90155141
C        7.30724508      -0.02065746       7.43095882       2.21919344       2.01518901      -1.01731019
C        9.90790423       0.00791755       7.36170249      -3.55581176      -1.03696036      -0.43482368
C       12.28427369      -0.03871546       7.57575240       1.94392265       3.74195500      -0.96252306
C       -1.15890606       2.17558403       7.65382375      -3.53392293      -2.00709286      -1.11124878
C        1.28613230       2.12075531       7.65874133      -0.75940129       0.64214458      -0.33883489
C        3.69076925       2.10460470       7.49957622       1.10494984       0.96025149       0.78604614
C        6.14069488       2.19826470       7.58068297       1.97057085      -2.23186435      -1.34482708
C        8.60352195       2.12222604       7.31779849       0.49614886      -0.79730937       0.96361424
C       11.06074565       2.07566540       7.45566970       0.11367027       3.74823878       0.57802898
C       -2.45873294       4.26639836       7.53778144      -1.51034596      -0.81256810      -0.67654260
C       -0.00709020       4.28023564       7.51660619      -0.50218298       0.85716517      -1.03155590
C        2.40512224       4.31158371       7.46361100       1.49418143      -1.52578955       0.81115194
C        4.90445271       4.22238186       7.57425461      -0.11434776       2.73042337       0.33224309
C        7.40007678       4.28351316       7.49766063       0.68366661      -1.24755145       0.46849073
C        9.80806640       4.22557593       7.43052874       3.61160470       1.21670438       0.80760973
C       -3.67726075       6.36257155       7.54603295      -0.80899632       2.35736607      -0.82294713
C       -1.25315206       6.39106304       7.36708146       1.29554340       1.23975741      -0.11441872
C        1.28268443       6.46035517       7.28140958      -4.01824061      -0.65145429       0.34655360
C        3.62921701       6.38145001       7.41739759       1.37592483       0.73116260       0.74620973
C        6.06777060       6.37821245       7.48971031       1.57436720      -1.70594135       0.78884736
C        8.58273250       6.33372502       7.56165078       1.32533349       2.92081921      -0.73033445
C       -4.90327988       8.52511427       7.61871411      -2.74828045      -0.82628442      -0.82770161
C       -2.49198705       8.52990177       7.56636582       1.34396962       0.16652264      -0.68377049
C        0.00681367       8.54733669       7.38730314       0.70275834      -0.24820941       0.65892309
C        2.50642467       8.59669102       7.43846463      -1.45840633      -2.10314722       0.01490546
C        4.97837888       8.51625166       7.55916754      -3.63389591      -1.57995883      -0.50518963
C        7.35795801       8.52056192       7.61086732       0.63115800      -3.13777764      -1.30081776
C       -6.18025941      10.63050089       7.54930940       1.27775702      -0.78333183       0.49209758
C       -3.71596143      10.67988385       7.47975541       2.16509101      -1.10512724       0.57590294
C       -1.20980276      10.56792932       7.43840122      -0.82820426       4.53034933       1.02578917
C        1.23172977      10.72387752       7.51753527       0.72912552      -2.39870967      -0.84853166
C        3.73432616      10.62717451       7.50991985      -0.53119763       1.66126997      -0.70137792
C        6.17235043      10.63202841       7.59815612      -2.05857174      -0.05565410      -0.93019581
C        1.23520752       0.68331448       7.68231920       0.89401011       0.64900712      -0.32886183
C        3.67613338       0.68029116       7.46042760       0.81781855       1.09142198       0.03165594
C        6.10727845       0.75655725       7.42619150       1.67827962       0.30322768       0.49038702
C        8.60489826       0.68168163       7.27823490      -0.17884619       0.16676972       1.18277405
C       11.07964116       0.71536856       7.43728536       0.96973167      -1.80340852       0.29312427
C       13.55235695       0.70848553       7.59842725       0.08160681       0.00427549       1.07953577
C        0.04179184       2.86888046       7.57180725       0.85921691      -0.54232485       1.02043074
C        2.52687562       2.86896201       7.61375785      -3.03785094      -0.74256725      -0.91281773
C        4.92967043       2.85344103       7.57439383      -1.53627810      -1.20750703      -0.22249890
C        7.41853926       2.85892892       7.47862794      -2.02295065       0.08325078      -0.03939650
C        9.82891361       2.83584962       7.47003366       0.20720340      -1.83154076      -1.47670410
C       12.25564527       2.83585492       7.55395910       3.05174621      -0.11585288       0.26980874
C       -1.25819511       4.97015967       7.42031457       1.26557154       0.12061225       0.74665041
C        1.17914155       5.02195771       7.38792529       1.76350140       0.28743828       0.16321594
C        3.64259833       4.98052951       7.52698163       0.76149159      -0.56548354      -0.85559654
C        6.16811163       4.93148527       7.59537225      -2.29156845       1.25319245      -0.96082074
C        8.66270274       4.96265650       7.48970936      -3.16799607      -0.52610967      -0.16295472
C       11.07535737       4.98337888       7.48206183      -0.86744367      -1.97763676       0.20358149
C       -2.45272254       7.12753261       7.44904449      -1.15158502      -1.15980972       0.86860581
C       -0.01976905       7.16208806       7.30459094       1.36153565      -2.49531218       0.07675926
C        2.47446237       7.15738565       7.34319791      -0.32234769       0.19679018       0.10792643
C        4.84127693       7.07625790       7.53227844       2.28289921       1.17724592      -0.50069380
C        7.32500807       7.01819345       7.48749117       0.63893970       2.81391737       1.17273415
C        9.84414526       7.10826861       7.54307551      -0.59531143      -1.32276161       0.82971273
C       -3.73198622       9.24010907       7.55690168       2.15466595       0.97514075       0.12362584
C       -1.20601162       9.21672085       7.53239122      -2.06261532      -1.23193122      -0.67721289
C        1.25081807       9.25189925       7.47701008      -0.03536964       1.89984520      -0.36024755
C        3.73286914       9.23176081       7.53898227       1.05776110       0.60149056      -0.17461570
C        6.15958548       9.20792096       7.51796060       0.40830635       1.12397446       1.04371850
C        8.56577635       9.20977236       7.57412704       2.01884974       0.28425577       0.36131918
C       -4.92751681      11.34022003       7.52015788      -0.97033999       0.94254071      -0.04135208
C       -2.41174547      11.37291680       7.49102585      -1.83933789      -1.13835078      -1.12143678
C       -0.02757135      11.36716087       7.45728771       0.46699152      -0.79625059      -0.01622700
C        2.50562218      11.35773224       7.40874919      -0.31990205       0.49487719       0.88215835
C        4.94688308      11.39510834       7.46521389      -0.02825694      -3.57766048       1.42231036
C        7.36145041      11.29661241       7.63781200       1.30745532       2.57437386      -0.11271793
72
Lattice="14.76 0.0 0.0 -7.38 12.782534959858314 0.0 0.0 0.0 15.0" Properties=species:S:1:pos:R:3:REF_forces:R:3 REF_energy=-11165.60146071861 config_type=fd_force_conv_snapshot_003 snapshot_index=3 split=validation degauss_Ry=0.00285013035 kgrid=8 lattice_temperature_K=450.0 trajectory_seed=1 p4_key=seed1:snapshot003 pbc="T T T"
C        0.03804084      -0.00661988       7.50975502       1.53657738       0.08692103       0.45797261
C        2.47029267       0.02801093       7.55287577       0.63100219      -0.69661778       0.72686552
C        4.92822469      -0.01806277       7.61040178      -0.47660591      -1.12923108      -1.69255490
C        7.40888825       0.00453487       7.39050723      -1.14636928      -1.24660091       1.15035861
C        9.84128537       0.01934332       7.56072876       0.78301533      -1.33926321      -0.13283142
C       12.29913251       0.03250534       7.49031645       1.45651709      -0.10532447      -0.26104719
C       -1.23835167       2.07068717       7.64361992       1.39219323       2.90908907      -0.85587242
C        1.22348786       2.16968550       7.57729420      -0.24106638      -1.80113721       0.50814923
C        3.71681294       2.11578130       7.66447689      -1.41211773       0.49540761      -1.18499882
C        6.15483855       2.12158610       7.36641342      -0.16595211       0.10031982       2.04505494
C        8.63535455       2.13178821       7.54442275       0.79098395       0.29568946       1.09148960
C       11.09528641       2.15676771       7.66638498      -1.55574444       0.41579880       0.27252125
C       -2.44057077       4.26503817       7.55041212      -0.43313627      -1.31166628       0.60354153
C       -0.00526347       4.22019620       7.71936709       0.30289524       1.41907900      -0.76621394
C        2.48972706       4.26572284       7.63141426      -1.10538770      -0.86747067       0.41711264
C        4.91051840       4.28036399       7.41178780       0.16868776       0.44738892       2.04057068
C        7.39474146       4.25308477       7.54956429       0.57872190       0.91309155      -0.00677177
C        9.82158234       4.29118174       7.66099647       0.98774687       1.10542318      -0.28268894
C       -3.70079537       6.37641264       7.38354730      -1.28182271       0.61634639      -0.36759062
C       -1.29912099       6.34647776       7.51583597       1.21439399       1.91082767      -0.66210252
C        1.19976549       6.38121445       7.68563209       0.22901947       0.02945404      -0.10331695
C        3.66712030       6.37829964       7.72213913      -0.30513312       2.69848667      -1.11080758
C        6.14499618       6.44710720       7.43654293      -1.10238671      -1.94083707       0.10264358
C        8.55816936       6.46227422       7.41397589       0.98743423      -0.75604960      -0.07324224
C       -4.92773816       8.48431210       7.39942606       2.22177046       1.33275446      -0.12900022
C       -2.46428702       8.53518455       7.29758962      -0.54837748      -1.36986988       0.13744680
C       -0.02044388       8.47304209       7.36488527       0.49505691       0.07799390       0.71516494
C        2.49475038       8.53040505       7.36969656      -2.37730472      -1.34202329       0.04504521
C        4.93519093       8.51429119       7.34722367      -0.11364482       0.56944433      -0.09077922
C        7.40179884       8.56395988       7.51860542      -0.33353070      -0.23555136      -1.16726129
C       -6.19143798      10.63163047       7.57967442       2.61679938      -0.14471428       0.00750454
C       -3.75777890      10.62173356       7.45997477       1.71411360       1.64759016       0.19597128
C       -1.27160349      10.60431279       7.36038873       1.93837061       0.65675642       0.86492913
C        1.23590089      10.64094907       7.29245493      -0.29574088      -0.76628799       0.77793020
C        3.70824106      10.62857301       7.31191100       0.79045327       2.06050958      -0.57184934
C        6.17508514      10.66602858       7.37377305      -1.03382310       0.46801148      -0.05471025
C        1.29961303       0.74729722       7.61502509      -3.43941895      -0.64428374      -1.00923050
C        3.70653558       0.71226093       7.58075829       0.70880378      -0.54383228       0.76553697
C        6.12850388       0.67580628       7.45634692       1.88585249       1.46038634      -0.19488345
C        8.63972249       0.73593764       7.52454351      -1.00809921      -1.63089110      -0.66829090
C       11.06080107       0.73883542       7.65018209       0.97030142      -0.42774081      -0.79507560
C       13.60995504       0.71441662       7.48945699      -3.28575414      -1.72361125       0.68178020
C       -0.03358715       2.82806790       7.62578307       0.89985011      -0.29628107       0.45013537
C        2.44595534       2.80140325       7.60065136       2.08941650       2.89515241       0.38392252
C        4.90365233       2.86767352       7.52671994       1.60012400      -0.97396319      -0.95099218
C        7.43277516       2.79647127       7.55273453      -2.92989161       2.19720820      -1.36566356
C        9.82186596       2.88602517       7.71489136       1.41758313      -1.14549999      -0.80857415
C       12.33196219       2.82928366       7.60019620      -1.11217258       0.19631221       0.50093137
C       -1.22449900       4.95074076       7.61278791      -0.52515476       0.07377652      -0.03254785
C        1.23896372       4.94735467       7.69060520      -0.15095692       0.02897350       0.31115413
C        3.69698918       5.01562066       7.65378798      -0.05482003      -2.86586163      -0.80174941
C        6.15242431       4.96838973       7.49130231       0.63468864       0.95656762      -0.75024585
C        8.63488601       5.06922761       7.55945110      -2.37514139      -3.01575257      -0.00050548
C       11.08487077       4.96905857       7.56672967      -0.43783650       0.07692226      -0.44482682
C       -2.51384136       7.11395641       7.24747555       1.56285097      -1.54914288       1.75890684
C       -0.04810437       7.05319577       7.56988070       0.01601000       0.67825521      -0.64756601
C        2.42915269       7.12300129       7.66261571       0.66930957      -0.55829680      -0.50140445
C        4.87303204       7.09959430       7.49172623       1.71402104       0.44767508       0.19123171
C        7.34213743       7.18312287       7.35635384       0.28836567      -1.60963116       1.14114994
C        9.80057429       7.11243224       7.35305938       1.10328916      -1.52012566       0.34368193
C       -3.67856874       9.22039983       7.36542675      -1.98707425       0.15921479       0.05452667
C       -1.24631774       9.19024549       7.41169066       0.66666185       0.60986593      -1.31307087
C        1.22004730       9.19355237       7.26839103       0.56345212       0.58992085       0.58018074
C        3.70035675       9.22078097       7.21534216       1.11124107       0.34100670       1.29463760
C        6.18214962       9.26199603       7.39365410      -1.30582370      -0.81831349       0.17330495
C        8.66734402       9.18691283       7.53220116      -2.72463144       2.63616210       0.05591121
C       -4.98164191      11.39302211       7.58633962       1.32556797      -1.75459947      -0.66650939
C       -2.45932038      11.32548963       7.43504493      -2.31488553       0.63472438       0.74849364
C       -0.00846679      11.31645391       7.43665538       0.27854432       1.65986641      -1.36869514
C        2.48314734      11.34857238       7.40670059      -0.53764210       0.61963175      -0.29946513
C        4.97322128      11.42029230       7.30847855      -2.33662627      -1.97058011       0.74499437
C        7.38186784      11.33642335       7.51299411       0.11238652       1.58304596      -0.20781687
72
Lattice="14.76 0.0 0.0 -7.38 12.782534959858314 0.0 0.0 0.0 15.0" Properties=species:S:1:pos:R:3:REF_forces:R:3 REF_energy=-11165.520812299394 config_type=fd_force_conv_snapshot_009 snapshot_index=9 split=validation degauss_Ry=0.00285013035 kgrid=8 lattice_temperature_K=450.0 trajectory_seed=1 p4_key=seed1:snapshot009 pbc="T T T"
C       -0.03009734      -0.07972680       7.58578154       1.98405500       1.06579888      -1.38869113
C        2.39038321       0.00127236       7.38764585       3.05231469      -0.54192633       0.84756853
C        4.89386550       0.05998281       7.38529430      -1.00526097      -1.81423955       1.59436961
C        7.37718251      -0.00789917       7.47759034      -0.67534935       1.32015683      -0.02171374
C        9.80452214       0.01830330       7.63156822       1.04116720       1.28903645      -0.88072933
C       12.35941298      -0.03091415       7.57268996      -1.86051453       0.76290082       0.19638934
C       -1.24437310       2.14019327       7.42087664       1.20162769      -1.85649898       0.19556119
C        1.23949306       2.15189095       7.44642328      -0.59245724      -1.35391181      -0.07591054
C        3.69858510       2.17695730       7.56224000       0.22301106      -0.18709712      -0.82596329
C        6.17592244       2.11617254       7.40985694       0.24826521       0.52048075       0.57047380
C        8.62915174       2.18950930       7.33194177       0.00595802      -2.26851517       0.96166894
C       11.10242224       2.13195374       7.46387053      -2.18716393      -1.00780430      -0.43710554
C       -2.46416471       4.23529620       7.61284306       0.79123643      -0.22459743      -2.08015384
C        0.00779195       4.21508390       7.38790977      -0.26327042       2.09292117      -0.37195378
C        2.40754239       4.31419977       7.23474223       2.84754303      -0.60681326       0.87103422
C        4.86286731       4.28719245       7.52401281       1.81977360       0.98284943      -1.13988933
C        7.34540843       4.24408771       7.55416790       0.67638037       1.39184998       0.34619904
C        9.84243730       4.27116807       7.48318539      -0.27126604      -0.25311945       0.41782355
C       -3.63633596       6.39025658       7.53176102      -2.13002656      -0.23388837      -0.30735661
C       -1.20135620       6.36038552       7.62293268      -0.97315355      -0.04096359      -0.85077289
C        1.19876097       6.42670593       7.31020863       1.44142780      -0.40150501       0.81331038
C        3.70051320       6.42534593       7.32889373       0.17747220       1.37166168       0.41610091
C        6.19054375       6.42659638       7.50933028      -1.36039099      -2.14426533       0.39322632
C        8.67586993       6.39023448       7.49380892      -1.96863481      -0.58151232       0.44576758
C       -4.95908787       8.51425730       7.41216175       1.03001169      -0.21503858       0.04596464
C       -2.47614266       8.48533779       7.65071117       0.17400609       1.26792744      -0.71467772
C        0.01476972       8.51177292       7.59311564      -0.56202361       2.35325205      -0.17944526
C        2.46683221       8.53297554       7.45747297       0.96013142       1.39848214       0.12085136
C        4.93137896       8.56496191       7.55768074       0.37314806      -2.69909576      -0.00066849
C        7.37713147       8.44572469       7.54525868       0.29403187       1.75103695       0.42847717
C       -6.14195378      10.61678972       7.45829159      -1.05217949      -1.12332783      -0.18733546
C       -3.75096187      10.59388215       7.43540117       2.72359503       2.07632932       0.17847878
C       -1.28741972      10.65640708       7.60512955       1.08294762       0.72950476      -0.34796796
C        1.21598251      10.68755644       7.61946015       1.35810400      -0.23877449       0.12744367
C        3.70429182      10.66198012       7.61460252       0.99969016       0.62021050       0.70302265
C        6.20507554      10.60888263       7.82172284      -2.06232813      -2.20637984      -1.20834649
C        1.19550908       0.66716160       7.41404965      -0.68771302       1.68374733       0.89207792
C        3.63598087       0.75411935       7.55159794       0.46712316      -0.39330525      -1.66860944
C        6.13949297       0.69815334       7.45013755       0.15759705       0.85866490      -0.71057887
C        8.58308216       0.73878765       7.40054477       1.00514913      -0.21061449       0.93429107
C       11.04982886       0.71870076       7.54426941       1.95141176      -0.99090419       0.06163628
C       13.58538766       0.69162376       7.50163056      -2.70245568       0.29881207       0.45684467
C       -0.02406847       2.83519577       7.43843889       1.61013664      -0.74540317      -0.35771295
C        2.47134983       2.90300779       7.45856263      -0.90164397      -0.94109601      -0.51576689
C        4.98930416       2.85856105       7.45449961      -3.29340343       0.13641759       0.82840481
C        7.39848017       2.83971395       7.45770603      -0.68696765       0.56886840      -0.58531755
C        9.86244641       2.85915221       7.43055978       0.16399190      -0.06549860      -0.14093322
C       12.29785338       2.81364026       7.39808532       0.73867305       1.36713011       1.36832079
C       -1.21257734       4.92034860       7.49180092      -0.50962376       1.25688147       1.05887670
C        1.22130731       4.97687755       7.21825206      -2.29317925       1.35364828       0.67878178
C        3.64381017       5.06134160       7.31132931       0.67698303      -3.80432662       0.47097288
C        6.12405668       4.99840361       7.57907733      -0.21741351      -0.78682956      -0.46452661
C        8.59725910       4.96571831       7.59133529       0.83856658      -0.01632111      -1.20704629
C       11.08446036       4.95355379       7.52275205      -0.07915193       1.30043390       0.59704101
C       -2.43284710       7.08460799       7.60286718       0.39930955      -0.76033023       0.47480202
C       -0.02331071       7.12516926       7.54277914       1.47385146      -1.49617378      -0.50237093
C        2.47201940       7.14455084       7.41387193      -1.40463531      -1.41167550      -1.22956787
C        4.95550851       7.09606638       7.43163415      -0.70913236       2.22624984       0.29981608
C        7.41922369       7.07352401       7.54464906       0.61000888      -0.45649371      -0.50967621
C        9.85868641       7.14051938       7.42902041       1.23801728      -3.26331509       0.58908267
C       -3.72872803       9.18542033       7.51131484       0.90067004       0.83082370      -0.06422693
C       -1.25225304       9.22303374       7.63906002       0.30046297       0.11113773       0.22944345
C        1.27078038       9.26354949       7.50498455      -2.24662814      -0.45769904       0.71470472
C        3.70960629       9.26033535       7.49988955      -0.71779235      -0.22702944       0.56371900
C        6.18073480       9.16362462       7.75123618      -0.63718698       1.62659016      -0.81011681
C        8.57573113       9.16428431       7.41423001       0.54914084       2.43010335       0.56799294
C       -4.92622310      11.34203530       7.38182387      -1.55977927       0.00878803       0.06082767
C       -2.49346706      11.39663908       7.47216617      -0.90095954      -1.46146929      -0.13444633
C       -0.02529954      11.39068466       7.61010983       0.02400408      -1.72622298      -0.23534336
C        2.49171342      11.40640545       7.71717661      -1.88741161      -1.50056702      -1.13906889
C        4.99880579      11.32536874       7.68564581      -2.02140953       0.89120966       0.23788104
C        7.36011023      11.26646220       7.59232703       2.80951050       2.77064416       0.53474215
72
Lattice="14.76 0.0 0.0 -7.38 12.782534959858314 0.0 0.0 0.0 15.0" Properties=species:S:1:pos:R:3:REF_forces:R:3 REF_energy=-11165.618260890951 config_type=fd_force_conv_snapshot_015 snapshot_index=15 split=validation degauss_Ry=0.00285013035 kgrid=8 lattice_temperature_K=450.0 trajectory_seed=1 p4_key=seed1:snapshot015 pbc="T T T"
C        0.01430251       0.00209595       7.63074718       0.32984451       1.19223262      -0.30238976
C        2.48356117      -0.01172923       7.58653828       0.34679682       0.33731408       0.13662971
C        5.04562689      -0.01456808       7.43782847      -5.55915621      -1.53369363       0.48813062
C        7.42621664       0.00956193       7.45999566      -0.67192182      -0.09836089      -0.28070404
C        9.83365366      -0.01032366       7.56398025       2.33487303       0.77931525      -0.23378733
C       12.34342616      -0.03424946       7.61216207      -1.60492862       3.28186098      -1.59590456
C       -1.24493015       2.15000491       7.50834489      -0.36968350       1.21826144      -0.23776199
C        1.23746432       2.14383372       7.64227145      -1.08686856       1.69224174      -0.86269510
C        3.69082595       2.11224730       7.50406410      -0.20620376       1.16131922       0.71787591
C        6.12528010       2.12215496       7.34938826       0.42758988       0.46974466       0.24696449
C        8.56449673       2.06888223       7.42736690       1.80089270       3.24708398       0.12998752
C       11.03705690       2.14300512       7.66421499       1.75854740       0.89194371      -1.42835476
C       -2.51514260       4.30209670       7.43443973       3.09168342      -1.10072269       0.09838352
C       -0.01317556       4.33454143       7.56522821      -1.50074443      -2.59568779      -0.13609569
C        2.44801439       4.27723064       7.63382906       0.82669837      -0.77089309       0.21196534
C        4.97803905       4.26705484       7.54713585      -2.07816329       0.12103751       0.58129017
C        7.41597740       4.24296718       7.42454184      -1.25136491      -0.30273994      -0.60392719
C        9.80880633       4.26097860       7.46360954       1.78471660      -1.30937285      -1.08103986
C       -3.75584165       6.40637820       7.22609132       1.62376323      -1.61716527       0.27853789
C       -1.26565799       6.40591404       7.42932805       1.12633010       0.44656231       0.19081596
C        1.26460346       6.36813558       7.68311670      -0.59515485       1.52108391      -1.20948652
C        3.70420597       6.33261586       7.43127292       0.05685660       2.61462011       1.51412445
C        6.12253028       6.37051332       7.46926501       1.24354335       2.17706360       0.94629349
C        8.55465113       6.37597977       7.36375381       0.22462777       1.09148291      -0.19232289
C       -4.92845495       8.51804966       7.43816774      -0.96359753      -1.17434700      -0.17086909
C       -2.54241904       8.54730619       7.41894947       3.11115412      -2.02500239       0.29864572
C       -0.01259885       8.51853443       7.49229971      -0.60580718      -1.57451118       0.29184386
C        2.48069733       8.53282934       7.47947064      -0.53588989      -1.28103827       0.43401430
C        4.93853756       8.56201004       7.43984675      -0.09329196      -2.01319023       0.42885641
C        7.40062087       8.51987650       7.52416247      -0.83616491       1.03781062      -0.24901803
C       -6.15752815      10.60774508       7.60140579       0.37979667       3.31405890       0.90391503
C       -3.73141997      10.61536894       7.67900811       2.72164639       1.09459498      -0.65035257
C       -1.19887140      10.66530483       7.48323436      -0.68821747      -1.45552233       0.00851806
C        1.24112028      10.63017308       7.39815930       0.57512158       0.84040492       1.75464395
C        3.69727547      10.64794503       7.35008214       1.36535194       0.98367090       1.36754535
C        6.13531323      10.66064548       7.59409577       1.59262692       0.09580856      -0.01331446
C        1.26905016       0.75958969       7.61276068      -0.93136849      -2.83714883       0.17018209
C        3.72335347       0.68736316       7.47434399       1.04424301      -0.04373729       0.27725388
C        6.19340079       0.70003348       7.38854800       0.93831073       0.90304985       0.01168386
C        8.62702154       0.72487928       7.51398389      -0.05516225      -3.09180246      -0.16879884
C       11.09497278       0.75656377       7.54913276      -0.73757314      -3.37707098       1.19092727
C       13.53280618       0.74078498       7.48964070       0.89022647      -1.99916666       1.71490087
C       -0.03794085       2.87409819       7.51806691       1.84204089       0.36347351       0.83560981
C        2.45776980       2.86252091       7.63389563       0.40398818      -0.92759283      -0.37530599
C        4.91109194       2.86981991       7.52413338       0.85943468      -1.99963075      -1.01003499
C        7.36461297       2.79470866       7.26725154      -0.24380691       1.69249628       1.56911341
C        9.79746188       2.79344017       7.56805381      -0.52868154       2.12501188      -0.40626541
C       12.29651581       2.90145757       7.52046441      -1.47984290      -1.89176500       0.61674440
C       -1.27248720       5.01483535       7.49401036       0.49114550      -0.66783582      -0.42689646
C        1.21769130       4.98191204       7.63623635       1.02245651      -0.29140189       0.25847634
C        3.70444771       4.95697604       7.61604876       0.37047514      -0.61607360      -0.99420034
C        6.18764319       4.98758693       7.53688000       0.16001415      -2.02969954      -0.88144307
C        8.62204608       4.97773775       7.35987298      -1.32404845      -0.95253639       0.62757800
C       11.06759816       4.95749356       7.29081615      -3.48401988       1.60638180       0.86121106
C       -2.50102421       7.09687930       7.32183644      -0.75031604       1.51698712      -0.03089463
C        0.03485553       7.05813357       7.53522862      -1.89907079       2.12587603       0.15442688
C        2.49418133       7.07937642       7.53806053      -0.29744141       0.73721575       0.00813497
C        4.92693174       7.09350258       7.49073136      -0.86089301       0.61855728      -0.97321654
C        7.33732209       7.12674588       7.49611109       0.94892810      -1.60356619      -0.70201195
C        9.76927863       7.06796632       7.25306376       0.85106908       2.16992725       0.91006793
C       -3.72728536       9.20805015       7.60844456      -0.70627947       0.61832948      -0.99981409
C       -1.27897187       9.22090433       7.45086106       1.56473970       0.39579768       0.16933414
C        1.21551924       9.21635128       7.56368554       0.78799915       0.51745945      -1.58556178
C        3.70247684       9.25995682       7.40349739      -0.04575278      -1.32432330      -0.23508085
C        6.17228098       9.25154404       7.54908147      -0.37684633      -0.59757451      -0.40746817
C        8.63256674       9.25649775       7.47306489      -0.99900213      -2.82796254       0.59743130
C       -4.91022280      11.33226955       7.66269342      -1.45121444       0.89639198      -0.39314147
C       -2.43179740      11.31990394       7.53823284      -0.67357658       1.50840143       0.19329939
C        0.03164799      11.39574921       7.45616244       0.08525650      -1.71986181      -0.23710251
C        2.50971711      11.33671909       7.51023453      -2.65870450       1.04648809      -1.24672227
C        4.93945664      11.36816202       7.48319995      -0.81867678      -0.87130521       0.29151476
C        7.37974759      11.35949454       7.71427300      -0.01335328       0.07094059      -1.16488791
72
Lattice="14.76 0.0 0.0 -7.38 12.782534959858314 0.0 0.0 0.0 15.0" Properties=species:S:1:pos:R:3:REF_forces:R:3 REF_energy=-11165.299087276868 config_type=fd_force_conv_snapshot_021 snapshot_index=21 split=validation degauss_Ry=0.00285013035 kgrid=8 lattice_temperature_K=450.0 trajectory_seed=1 p4_key=seed1:snapshot021 pbc="T T T"
C       -0.05144090      -0.01069862       7.27919692       1.21379466       1.32481927       1.05215841
C        2.45720597      -0.01997755       7.43425307       0.15252967       0.45531486      -0.89674242
C        4.95506285      -0.02156794       7.40695916      -1.52349844       0.26642542       1.42342570
C        7.35324359      -0.00892274       7.60554808       1.72219715       0.37089192      -0.31447497
C        9.81721853      -0.00032893       7.60897718      -0.73255614      -0.06721301      -0.26555793
C       12.29658085       0.02231675       7.36455925      -2.34453318      -0.05874714       1.41195087
C       -1.23768178       2.18633482       7.38353325      -2.17218494      -0.23728788      -0.25593661
C        1.17898142       2.15261434       7.43978631       2.09504001      -0.35128288      -0.56012254
C        3.69734615       2.09424714       7.52889685       1.88942118       0.62821229       0.23862177
C        6.21856043       2.14014767       7.57044478      -1.41876841      -0.80433440       0.21160590
C        8.60140116       2.11987530       7.70248758      -0.02732748      -0.02502429      -0.38578117
C       11.01774500       2.12672128       7.58750824       1.40747663      -0.49593058       0.33802602
C       -2.47429334       4.31452784       7.66911534      -0.74272254      -0.97007568      -1.69858593
C        0.06553221       4.31916086       7.48613814      -3.04225859      -2.13714800      -0.36398645
C        2.49633711       4.21415590       7.49540284       2.30594169       1.23292136      -0.83351334
C        4.96210512       4.24038163       7.49607927       0.13030299       0.85202116       0.46284433
C        7.37820259       4.28059148       7.54242772      -0.07539991      -0.38343607       0.90436445
C        9.85860660       4.25735929       7.76926651      -2.85420887      -0.82696268      -0.60878504
C       -3.74120117       6.39877084       7.58844711       0.90809307      -0.32361704      -0.26087133
C       -1.22560245       6.36443154       7.50406364      -0.12982734       2.06500670      -0.08867683
C        1.22610335       6.34950258       7.42292878       3.93540455       0.27063895       0.31241346
C        3.74393805       6.40115693       7.22674757       1.60572746      -1.68418493       1.99177757
C        6.17627913       6.40410590       7.74567922      -0.39917225       1.15915152      -1.56545653
C        8.62331661       6.36833323       7.55399684      -1.19587973       0.67614871       1.19601266
C       -4.94496477       8.49834098       7.44399536       0.44389196       1.55525799       0.25591861
C       -2.50070118       8.44513646       7.39914481       2.27522524       3.46757330      -0.02620905
C        0.05254434       8.48509104       7.41811338      -0.98544933       1.79279707       0.62955621
C        2.44000012       8.45509816       7.39617307       2.33753052       3.57810502       1.44810572
C        4.86396849       8.52507593       7.59054201       2.34173376       0.79778349      -0.10720163
C        7.36670704       8.54118924       7.55714362      -0.34109206       0.86262979      -0.00233456
C       -6.14297665      10.67312298       7.43100065      -0.59721790      -1.06051423      -0.66303120
C       -3.74113595      10.65078429       7.38933887       3.71699370      -1.91835715       0.05210495
C       -1.18006813      10.65898039       7.34468546      -3.28882944      -1.23407810       1.17583515
C        1.22803110      10.66205029       7.50088852      -0.14281990      -0.12110127      -0.13477928
C        3.67346738      10.68513659       7.48777604      -0.15664086      -0.53776474       0.81820524
C        6.11375115      10.66421509       7.48313965       1.22802983      -0.07007027       0.23633786
C        1.21228041       0.73683198       7.35415782      -0.62758263      -1.44775039       0.29129185
C        3.71104374       0.67165006       7.49808586      -0.72661149       0.70234002      -0.57713553
C        6.16955262       0.69738115       7.55090885      -0.48928659       0.91478076      -0.33195899
C        8.58961578       0.69733194       7.67123874      -0.22728809       0.59268710       0.09986576
C       11.02732907       0.67318493       7.56645450       1.65963346       2.28057262      -0.88933199
C       13.47289300       0.74013565       7.33352673       2.47042545       0.81097479      -0.47786909
C       -0.02570265       2.90239548       7.38617223       0.90669053      -0.66866808       0.67997811
C        2.48906667       2.81708359       7.47209534      -1.39785300      -0.60497260       0.54975636
C        4.99444235       2.84036266       7.61839792      -2.24348008      -1.29612833      -1.23393103
C        7.41906470       2.86654696       7.55216514      -0.74239138      -0.74838257       0.67543986
C        9.81678286       2.81383864       7.74793816       0.76179910       1.26543296      -0.26172827
C       12.23878935       2.90055598       7.48132693       1.29021479      -1.16522472       0.97896938
C       -1.23053255       4.99150795       7.45253758       1.00849979      -0.65290774       1.49859576
C        1.30205862       4.92594920       7.52719030      -1.20069386       2.13752749      -0.74930816
C        3.76654981       4.94828929       7.35796369      -2.27132205       0.18155536       0.32988771
C        6.15544688       5.00037199       7.61326829       0.82432036      -0.62488708      -0.42899473
C        8.59097312       4.94671765       7.64496682       1.74117883       1.07330342      -0.08003047
C       11.00929589       5.00853806       7.71122778       2.68992027      -0.94386997       0.12296378
C       -2.50604373       7.06134897       7.46321372       1.54389423      -0.21894949       0.52920065
C        0.05869761       7.07896550       7.53947596      -2.26458190      -0.57195784      -1.22657073
C        2.54755575       7.07698609       7.30611060      -4.39346226      -0.71887016      -0.01506872
C        4.94310752       7.12848741       7.53068104      -0.22448790      -1.50317592      -0.12572694
C        7.42114029       7.14081740       7.68293756      -1.13429101      -1.71132421      -0.51516731
C        9.82119696       7.09077620       7.53236919      -0.27736598       0.60392796      -0.26205506
C       -3.68934993       9.22191131       7.42318961      -1.26655884      -1.23050118      -0.27155477
C       -1.18187244       9.21611279       7.36556958      -1.36843289      -1.05225328      -0.03902086
C        1.25908237       9.24664363       7.49747462      -0.81011630      -1.86809002      -1.04580855
C        3.68031162       9.23834260       7.60329238      -1.99691746       0.21056101      -1.90153570
C        6.09964706       9.25328445       7.52608786       0.87324742      -0.68155343       0.75519445
C        8.59381815       9.25754974       7.46294879       0.16436008      -0.84177840       0.11272230
C       -4.89713645      11.31744920       7.31037649      -3.34323707       3.34488231       1.20667528
C       -2.51678944      11.35662933       7.45366439       3.38811850      -0.64935756      -1.36588364
C        0.00069395      11.38020796       7.48943902       0.21813342      -1.02660421      -0.12696339
C        2.41791077      11.39121823       7.47248083       1.72927411      -1.23139901       0.68771842
C        4.91652901      11.40726685       7.51093888      -0.75772338      -1.17291258      -1.04415173
C        7.38038125      11.36098692       7.43574169      -1.04497217       0.46440448      -0.67568205
72
Lattice="14.76 0.0 0.0 -7.38 12.782534959858314 0.0 0.0 0.0 15.0" Properties=species:S:1:pos:R:3:REF_forces:R:3 REF_energy=-11165.712804395169 config_type=fd_force_conv_snapshot_027 snapshot_index=27 split=validation degauss_Ry=0.00285013035 kgrid=8 lattice_temperature_K=450.0 trajectory_seed=1 p4_key=seed1:snapshot027 pbc="T T T"
C        0.00558627      -0.02836275       7.57487031      -1.87891231       1.51245452      -0.30123353
C        2.44768774       0.01275249       7.52854575      -0.44158645      -0.19001532       0.44176977
C        4.93894633      -0.02055641       7.39579808      -1.05598472       1.94078668      -0.55628928
C        7.38537563       0.03757530       7.26952326       0.66991481      -1.40947927       0.64704562
C        9.82434859      -0.00410126       7.37211188       0.27041320       1.51534624       0.53033759
C       12.26223400      -0.00324155       7.63410870       0.05359927      -1.01396801      -1.15441298
C       -1.23429269       2.09632661       7.46997543       0.03881003       1.20487936      -0.12002604
C        1.16935235       2.09129590       7.64918327       2.33353477       2.81133136       1.13655050
C        3.68492403       2.12751704       7.70660440      -0.23477540       0.50763681      -0.52291842
C        6.17377520       2.11662601       7.45668530      -2.56211896       1.78208302       0.63194476
C        8.56413597       2.11170385       7.44701284       1.97021450       1.37585669      -0.48371681
C       11.03282357       2.08277728       7.59276162       1.14244192       2.39715698      -1.37172467
C       -2.45941098       4.24874204       7.41172034       0.25449730       0.44489444       0.20071651
C       -0.03542313       4.30580707       7.61776794       1.44921052      -2.54554434      -0.09070132
C        2.41213246       4.21567208       7.84571159       1.68331718       4.01973262      -1.07208960
C        4.92855308       4.24116885       7.63708079      -0.39528603       1.76020268       0.85196897
C        7.42312746       4.26677760       7.51529590      -1.76926710      -0.11516537       0.18078403
C        9.86436821       4.19320319       7.43842910      -1.16498535       2.34076471      -0.95783054
C       -3.69337459       6.35135349       7.34559843       2.08297254       0.72868149       0.62846143
C       -1.19440272       6.38269958       7.56314774      -1.60008697       1.45214492       0.24574141
C        1.20096902       6.39411479       7.70950911       2.49436036       0.59237831      -0.99480661
C        3.64880002       6.40404470       7.57493021       0.84318454      -1.28421255       0.93656006
C        6.11220253       6.38629042       7.67058038       0.85463289       0.35965568       0.05356816
C        8.61474456       6.36655932       7.46338679       0.65769564       0.83882832      -0.59068601
C       -4.90163737       8.52492500       7.30986222       0.43697801       0.98469780       0.19155593
C       -2.46661500       8.56152159       7.42254070       1.49214820      -1.02334405       0.58050033
C        0.02530257       8.54365382       7.65570167      -0.53809153      -0.77999814      -0.36417568
C        2.44725639       8.54981975       7.48219974       2.29689887      -0.27483910       0.41939526
C        4.94524799       8.49966077       7.45763796      -1.32911198       0.92143581       0.99069181
C        7.42036321       8.50475614       7.40452138      -1.77442371      -1.00881603       0.25411987
C       -6.16723192      10.65581469       7.37776128       0.87138569      -0.55209504      -0.03713984
C       -3.69648802      10.71520965       7.35162924       0.76453655      -0.75058960      -0.72452042
C       -1.15901395      10.66014173       7.39436209      -2.15423658      -0.20020203      -0.47895101
C        1.24565253      10.70251611       7.31831062       1.76549941      -2.88191637       1.50379556
C        3.69614991      10.68416864       7.45248620      -0.28013557      -0.56612118       0.14871852
C        6.17719549      10.60365235       7.48408463      -0.87182149       1.55076576      -0.07300082
C        1.20204903       0.70372543       7.70414574       0.23327002      -0.72229847      -1.55213950
C        3.67584213       0.70908527       7.52129620       0.99690411      -0.34304584       0.32523144
C        6.15086492       0.73156783       7.36928195       0.52695813      -1.21571965      -0.13705394
C        8.63128034       0.73488764       7.31295523      -2.21931711      -1.24406555       0.16702220
C       11.01345508       0.68439642       7.61343949       1.60938999       0.44247965      -0.49637203
C       13.46638538       0.68789560       7.44168819       2.53398440      -0.33719324       1.93550846
C       -0.00949806       2.84154841       7.56094172      -0.69832679      -0.14832488       0.04195809
C        2.46027791       2.87246350       7.80374317      -1.77675621      -4.42859433      -0.64969206
C        4.89062675       2.85869523       7.60451401       1.87180578      -2.32550033      -0.07734007
C        7.37216010       2.83296921       7.49443677       0.05436880       0.46607570      -0.39036931
C        9.80764408       2.83144372       7.43971104       0.91055876      -2.59668487       1.04215939
C       12.33151612       2.84527766       7.45232409      -2.58562398      -1.76286248       0.77718226
C       -1.22302798       4.98616537       7.50358905      -1.49903953      -0.16068829      -0.07684796
C        1.18919956       4.98660313       7.72303053       0.83189688      -0.81020886       0.52782100
C        3.70024510       4.95558548       7.73397072      -1.86562614       0.30648990      -0.23767535
C        6.16438860       4.98192387       7.65740629       0.37818074      -1.01781824      -0.71750670
C        8.64592055       4.94284328       7.38695464      -0.50157158       0.56294304       1.23469953
C       11.05030431       4.92444908       7.38266096       1.59566236       0.44650420       0.18193897
C       -2.44427643       7.10269015       7.48295259      -0.52148760       0.02451110      -0.81399481
C        0.01948586       7.09588101       7.70157052      -1.17901766       1.28290823      -0.34152375
C        2.45839170       7.13825537       7.49533025      -1.60500935      -1.20587104       1.43498744
C        4.86816336       7.09633836       7.66815116       1.32787220       0.23088532      -1.49463163
C        7.36452405       7.09055313       7.57428387       1.23445913      -0.67012307      -0.74685327
C        9.90387243       7.10088505       7.34101713      -3.29152215       0.08545241       0.23316538
C       -3.65688746       9.30372674       7.36469059      -1.96644166      -1.70418605      -0.39337518
C       -1.19987098       9.25563848       7.50527890      -0.27533301      -0.45678656      -0.00885385
C        1.24685057       9.23104640       7.57542257      -0.71136254       2.48020258      -1.26633233
C        3.72113100       9.27722579       7.48962313      -0.91447532      -1.78369048      -0.78980844
C        6.18680864       9.18662930       7.40792293      -0.56179273       1.00818946       0.34861562
C        8.58268482       9.22752894       7.29077186       2.83967263       0.06608841       0.56018990
C       -4.95599739      11.38213572       7.38453687       1.29951164       0.21965603       0.20167065
C       -2.42840065      11.37656346       7.24668622       0.05449787      -0.44471163       1.66023510
C        0.05570126      11.35032471       7.37333139      -1.81651267       3.07117167      -0.96706595
C        2.47625060      11.41830066       7.33338573      -0.55206084      -2.64590941       0.06427758
C        4.90880204      11.34336913       7.55830775       1.85684710       0.53995018      -0.13722672
C        7.40976794      11.36991431       7.49920984      -1.98998680      -1.65463241      -0.12200296
72
Lattice="14.76 0.0 0.0 -7.38 12.782534959858314 0.0 0.0 0.0 15.0" Properties=species:S:1:pos:R:3:REF_forces:R:3 REF_energy=-11165.221165982543 config_type=fd_force_conv_snapshot_033 snapshot_index=33 split=validation degauss_Ry=0.00285013035 kgrid=8 lattice_temperature_K=450.0 trajectory_seed=1 p4_key=seed1:snapshot033 pbc="T T T"
C        0.03795252       0.00236040       7.45025850      -3.41112010       0.07616379      -0.24314460
C        2.46664627       0.05633672       7.57379780      -0.12363278      -1.62893064       0.04853343
C        4.90340107       0.02334882       7.51557408       2.43242454      -1.75770948       0.21841084
C        7.36833053      -0.04294152       7.48153569       1.20626724       0.45516856      -0.03203440
C        9.78515977      -0.00117698       7.56441380       1.30753760       1.07133164       0.14575455
C       12.30080102      -0.00507136       7.53341750      -1.88101265      -1.08630934       0.06028311
C       -1.22949583       2.12795978       7.52854398       1.03009757      -1.11130072       1.33014094
C        1.23991647       2.10319909       7.73700173       0.64737164       0.57463616      -1.45883725
C        3.73848742       2.12390500       7.62708782      -1.36622457      -0.29589669       0.17911102
C        6.20011623       2.08487984       7.51351722       0.66821943       1.31562809      -0.74581712
C        8.63749135       2.14363392       7.63630289      -0.54370064      -1.37252737      -0.61268746
C       11.09138252       2.10841201       7.78426233       0.19481506       0.00705382      -1.08636025
C       -2.38477714       4.24187875       7.65741405      -2.58810227       0.70047957      -0.02728532
C        0.07105936       4.26838495       7.63048579      -2.25794922      -1.43716902      -0.23335975
C        2.49588377       4.24931167       7.56446726       0.14718949      -0.25448779       0.81425963
C        4.89586542       4.21448435       7.41321059       1.80509080       0.56325723      -0.16617091
C        7.38411260       4.27141406       7.38393159       0.42777449      -0.15295801       0.66701667
C        9.85790935       4.22224773       7.58153979       0.64817485       0.86800931       0.29448850
C       -3.73409330       6.42916625       7.58907040       1.83642972      -1.76160573      -0.77191125
C       -1.20282390       6.39505720       7.56241912      -1.95678280       0.92085448      -0.20506450
C        1.21558792       6.32315179       7.23201609       0.53499000       2.74502852       1.74749654
C        3.66490535       6.41946566       7.31503118       2.41408821      -2.74603536       0.32076209
C        6.16918812       6.42824256       7.46662985      -1.45025722      -1.33689857      -0.05950638
C        8.55826554       6.37684263       7.57780303       3.62101982       0.73858795       0.28670706
C       -4.99293908       8.53107785       7.54446630       2.14689325       2.39599098      -0.81335589
C       -2.46733965       8.52761281       7.52805406      -1.04742706       1.00105156      -0.29734731
C        0.02046380       8.54292268       7.31170981      -1.30858352      -0.69592718       1.06569295
C        2.44580880       8.47265486       7.21585171       0.03384112       2.52366965      -0.11477507
C        4.85850048       8.55243008       7.45485028       1.51622119      -0.99002770       0.28411821
C        7.37579434       8.54508503       7.62492189      -1.88409797       0.95028513      -0.23893339
C       -6.18604942      10.68048490       7.42944184       1.17883434       2.33045768      -0.17414982
C       -3.73604573      10.68211395       7.46924857       2.66227037       1.23606504       0.66674130
C       -1.20558309      10.59189074       7.46772283      -1.13064390       2.27546589      -0.28228707
C        1.20187536      10.66322160       7.29118070       2.45288641      -0.60682508       0.36941045
C        3.65565883      10.63330183       7.31245756      -0.73875713       2.74151434       1.43262305
C        6.12140296      10.66294279       7.33341914       0.95040340      -0.08011377       1.10887488
C        1.21209612       0.69037415       7.54024591       2.04907332       2.06446677       1.04494929
C        3.71265792       0.72721616       7.63004894      -0.93348451      -0.37994760      -0.43913619
C        6.18571337       0.69876170       7.50470461      -1.55152680      -1.06524018       0.21750067
C        8.58886468       0.71708078       7.58675844      -0.82293685      -0.52621149      -0.06260893
C       11.03143135       0.70032105       7.64407901       1.80750583      -0.45540562       0.13763372
C       13.50553961       0.69636874       7.56112863       1.80547672       0.44349138      -0.88937698
C        0.03421247       2.80351535       7.57868925      -0.32695793       1.93966002       0.92708478
C        2.50116095       2.83952712       7.72276264      -0.59412949      -0.49020576      -0.51773662
C        4.95587972       2.74377685       7.46236200       0.30074759       3.70123438       0.51716840
C        7.43930999       2.84049545       7.47072570      -1.92607560       0.53391297       0.25379488
C        9.86836158       2.79583350       7.65682654       0.11981315       1.72990917       0.49485714
C       12.34416415       2.82603566       7.71472888      -1.04515626       0.09720878      -0.55358191
C       -1.20576865       4.98272461       7.61799626       2.16807837      -0.45697631      -0.02221870
C        1.27924507       4.95833418       7.55283452      -0.70588866       0.00955808      -0.99585459
C        3.70853884       4.97171313       7.50806546      -0.48237109      -0.09775463      -1.29418612
C        6.12212976       4.97796867       7.30547993       1.16132179      -0.12157538       1.24073622
C        8.63860525       4.98294547       7.55463068      -1.55975639      -1.68050439      -0.90340492
C       11.09914261       4.93724660       7.58854688      -0.25845937       1.46653153       0.52478401
C       -2.47386430       7.12995023       7.51316140      -0.18114270      -1.60557062       0.90974269
C       -0.00732956       7.12371939       7.44543205       1.89949322      -1.43095132      -1.60565161
C        2.47142772       7.07051932       7.15817839      -2.61162092       0.27312752       0.60699992
C        4.90003028       7.09635453       7.38338420       0.65578197       1.77070358       0.55615892
C        7.41651317       7.11314568       7.67595130      -3.26719695       0.78854217      -1.27449738
C        9.79839373       7.13264657       7.53814244      -0.44730742      -0.87650681       0.69616938
C       -3.69443890       9.30061411       7.48228185      -1.86724644      -3.36268438       0.47981464
C       -1.24912560       9.21112053       7.50942922       1.78933045      -0.41033752      -1.04545734
C        1.23583672       9.25535399       7.23021747       0.09190948      -1.87329496      -0.12748378
C        3.66337358       9.25771492       7.35655893      -1.46023439      -2.40561565      -0.89177042
C        6.07595528       9.27593083       7.59241386       2.32312155      -1.77587535      -1.51814823
C        8.55236377       9.31047716       7.47397066       1.01712481      -3.34248682       0.96063330
C       -4.93435800      11.43117751       7.53847782      -0.57017966      -1.41027759      -0.86939154
C       -2.41419193      11.35834075       7.49229741      -2.35906068       0.35202387      -0.06464936
C        0.01975358      11.30632868       7.36407229      -2.49146478       2.01072968       0.72500584
C        2.39685497      11.41221142       7.42516442       1.88202746      -2.83696268      -1.07039575
C        4.89965565      11.31651568       7.41222643      -0.82320398       2.48633723      -0.58122024
C        7.37904505      11.39852581       7.30496879      -0.95995376      -1.23902901       0.95633930
72
Lattice="14.76 0.0 0.0 -7.38 12.782534959858314 0.0 0.0 0.0 15.0" Properties=species:S:1:pos:R:3:REF_forces:R:3 REF_energy=-11165.83563767039 config_type=fd_force_conv_snapshot_039 snapshot_index=39 split=validation degauss_Ry=0.00285013035 kgrid=8 lattice_temperature_K=450.0 trajectory_seed=1 p4_key=seed1:snapshot039 pbc="T T T"
C        0.01525604      -0.01617925       7.44886594      -0.73206043      -0.37354761       0.56995058
C        2.45625713       0.06887763       7.53572044      -0.34018703      -3.04175028       0.45852077
C        4.87668530       0.01161921       7.44455030       1.40620574      -0.84070394       0.22424750
C        7.36192917      -0.01261738       7.31458824      -0.30416228       1.51840662       0.93896019
C        9.77743071      -0.02296901       7.44419066       2.42732244      -0.03332330      -0.32230449
C       12.25799010      -0.00214498       7.46573741       2.13264214      -0.53536050      -0.89301021
C       -1.25040050       2.09840531       7.40109629       2.58236125      -0.69947247      -0.38546827
C        1.23373336       2.11709419       7.52933682      -0.04035604       0.65805894       0.71438256
C        3.66171547       2.10571967       7.50243777       1.81418402       2.66646563      -0.08117256
C        6.10896425       2.06185707       7.35521419       0.39599591       4.67148644       0.72792379
C        8.59458125       2.11937211       7.48522002      -1.13322426      -0.47221241      -0.42881039
C       11.06161166       2.18446962       7.33988463       0.31747133      -3.05148782       0.19939394
C       -2.42908916       4.21621171       7.25376951      -0.95530572       2.93110106       0.84275079
C       -0.01024885       4.22843942       7.28977726       1.23026875       1.74118577       1.15991462
C        2.45165855       4.24928978       7.49565382       0.09590395      -0.11153317       0.22609973
C        4.91892905       4.29185241       7.49246683      -0.47321231       0.24179348       0.22912951
C        7.38113401       4.21163096       7.49841939      -0.85525844       4.10834749       0.34485178
C        9.82250754       4.22252739       7.47349848       0.24069331       2.16191158      -0.82583371
C       -3.73400748       6.41485649       7.45934857       2.60141672      -1.52784926      -0.75769896
C       -1.22303574       6.43096744       7.50015865      -0.60241924      -0.76490628      -0.85361833
C        1.25997830       6.42351244       7.41702042      -1.70969593      -1.44500009       0.47805190
C        3.66880584       6.40238071       7.60566253       0.33323605      -1.43482520      -0.08586919
C        6.18565716       6.43839712       7.65768197      -2.73974490      -1.01157097      -0.17283135
C        8.58006303       6.35408836       7.54315412       1.36013928       2.57651765      -0.53578036
C       -4.89781031       8.49411486       7.45797384      -0.31614104       1.63761736      -0.04762583
C       -2.44219320       8.55253679       7.50915882      -1.12456530       0.52678561       0.02135327
C        0.01662409       8.50318611       7.63215802      -1.16456601       1.78353930      -0.66415066
C        2.51614833       8.52613371       7.55607833      -0.85678748      -0.75441206       1.88952402
C        4.96929285       8.57077958       7.76244819      -1.50370814      -2.81780000      -0.20427775
C        7.46832791       8.52157851       7.80179379      -2.48103228      -0.03913142      -1.32005836
C       -6.14946593      10.66362558       7.56667911       1.94841463      -0.59936426      -0.10326990
C       -3.70905139      10.67334913       7.47704538       1.93663949      -0.44594704       0.64407060
C       -1.18281643      10.66086790       7.58520967      -2.20170531       0.73232320      -0.78828917
C        1.19889211      10.60191953       7.48397737       1.36721213       0.79260477       0.43323217
C        3.69122333      10.66143610       7.58090007       0.71773785      -0.24758541       0.37299276
C        6.15056298      10.65650944       7.58600659       1.74556487      -1.40711231       0.09938651
C        1.21437581       0.70309410       7.59352642       0.21596264       1.01886056      -1.07690759
C        3.66633267       0.72623504       7.47325653       0.65649803      -0.17487744       0.16399987
C        6.12450941       0.69210507       7.37290353      -0.41816833      -0.80722946      -0.32129739
C        8.57763008       0.68257505       7.42631869       0.03704985       1.40846420      -0.44322990
C       11.05683991       0.71657938       7.38398236      -1.60824380       0.51154309       0.52486757
C       13.53385197       0.65961973       7.39570862      -0.97794274       1.52560263       0.60731668
C        0.00849631       2.82746763       7.44709614      -0.92325203      -0.63850673      -0.78053473
C        2.48469815       2.82727946       7.60224182      -2.31895250       0.00797556      -1.10320740
C        4.88856903       2.87689626       7.42104070       0.85122001      -2.41353747       0.10192161
C        7.34904915       2.85672354       7.45871341       0.20126210      -3.90677428      -0.40823873
C        9.80243352       2.82150024       7.45128890       1.15420292       0.34200943      -0.20857072
C       12.34513513       2.82590514       7.28358169      -2.51212308      -0.12758097       0.21616858
C       -1.22322017       4.97786890       7.33259306      -0.16406955       0.27702582      -0.15442663
C        1.24794123       4.96509944       7.38659365      -1.47352416       0.49653967      -0.12334996
C        3.64539543       4.97315661       7.52638418       2.18257271       0.42804754       0.16069678
C        6.16535485       5.01329791       7.56242686      -0.07816231      -1.26248956      -0.40340711
C        8.60356169       4.98646268       7.48834240      -0.10751094      -3.08484068       0.42086748
C       11.05728040       4.94010331       7.35110724       0.57989561       0.53625961       0.59712637
C       -2.46519341       7.16656957       7.53598569      -0.25173877      -3.04610727      -0.54908402
C        0.00397982       7.16148877       7.46805835       0.37511701      -3.84196269       0.42010669
C        2.46373576       7.08796218       7.60176158       0.25037737       1.86369035      -0.93644848
C        4.86711590       7.10497213       7.65907705       3.50380863       1.37195222       0.72473176
C        7.40002846       7.12388800       7.68414024       0.45609673      -0.77288801       0.19541695
C        9.82860996       7.10482873       7.39258723      -1.07361066      -1.36562807       1.35753424
C       -3.68756732       9.23685185       7.42717058      -0.09025601       0.58069650       0.41297445
C       -1.23439877       9.23880452       7.57835319       2.08485253       0.77111472       0.47848358
C        1.24697283       9.15967812       7.61829337       0.36474312       2.97392869      -0.84378464
C        3.73173722       9.25976988       7.75391438      -0.67281270      -0.03399410      -1.64615960
C        6.20293533       9.20436662       7.73630517       0.36179869       2.11723480       0.23911799
C        8.64298957       9.21086794       7.59748725       0.99872008       1.79068259       0.20563400
C       -4.88498368      11.41003314       7.54998200      -2.45889431      -0.42099886      -0.50929851
C       -2.44349459      11.38359650       7.55942429      -0.65495331      -0.95641541      -0.74702477
C        0.00779000      11.41241632       7.42470320       0.13714624      -4.09611958       0.57136211
C        2.43872194      11.31813250       7.48017290      -0.27575827       0.88267051       0.01514637
C        4.95610991      11.35348517       7.52049174      -2.74837738       0.59861889       0.34434579
C        7.39883598      11.34774166       7.50210215      -0.72225167       0.35378379       0.39248353
72
Lattice="14.76 0.0 0.0 -7.38 12.782534959858314 0.0 0.0 0.0 15.0" Properties=species:S:1:pos:R:3:REF_forces:R:3 REF_energy=-11165.336011219977 config_type=fd_force_conv_snapshot_045 snapshot_index=45 split=validation degauss_Ry=0.00285013035 kgrid=8 lattice_temperature_K=450.0 trajectory_seed=1 p4_key=seed1:snapshot045 pbc="T T T"
C        0.03137376       0.02352966       7.27792508      -2.15047274      -0.71184719       0.54374358
C        2.42357618       0.04996667       7.23976690       2.25127695      -2.83429182       0.26311076
C        4.92928306       0.02496509       7.44437178      -0.48247934       0.15490177       0.16223095
C        7.43032164      -0.02723566       7.55083307      -1.45775867       1.66069944       0.70019444
C        9.82914016       0.00730147       7.77504469       1.41251754      -1.21926648      -0.11757243
C       12.27254999      -0.03712046       7.41742986       1.54618122       0.51678814       1.45898894
C       -1.21149307       2.12816339       7.66824522      -1.44421281      -0.39295789      -1.07999600
C        1.23023101       2.14120512       7.38378443       0.21260015       0.75631211       0.47844759
C        3.67124126       2.11174793       7.34894743       3.13901666       0.21269631       1.52205373
C        6.20438050       2.09820776       7.61416278      -0.09467702       2.16316911       0.08902419
C        8.60711614       2.12700741       7.97179639       1.11843656       0.73621508      -1.34072437
C       11.06738116       2.13288810       7.81936164       0.55906376      -1.40339707       0.29596226
C       -2.49736159       4.23674590       7.71311993       1.36231032       1.88460859       0.18291908
C       -0.04116748       4.28962890       7.57819400       1.17031551      -0.73109370      -0.10625649
C        2.44997138       4.23551324       7.46580205      -1.10461971       0.95158508       0.31478145
C        4.93224381       4.22334720       7.55891919      -1.47698641       0.61393675       0.17025151
C        7.34506815       4.29176397       7.67939281       1.52791353      -0.66254063      -0.77927720
C        9.84357654       4.27859648       7.75493909      -0.72870900      -1.17752797      -0.76587198
C       -3.65163537       6.41327740       7.52452196      -1.67243730      -1.19877865       0.31193241
C       -1.22598170       6.44800023       7.69040334      -0.44477231       0.01537751      -0.04094790
C        1.13470703       6.42197764       7.40150373       2.39212404      -1.21544068       1.01247266
C        3.63606959       6.36807335       7.49041427      -0.04105460       0.32858776      -0.37556618
C        6.14259143       6.39208130       7.31975924      -1.85206871      -0.03102293       0.89213886
C        8.60046396       6.35431679       7.34036092       1.03615149       0.40809706       0.53727211
C       -4.89938465       8.53378154       7.38034493       0.13889845      -1.38308792      -0.16372116
C       -2.42291098       8.56280467       7.60910940      -0.86749741       0.68269577      -1.14315566
C        0.03643346       8.55950239       7.52781524      -1.44984636       1.64539032       0.13428409
C        2.42576165       8.45537407       7.33560376      -0.07330395       2.17506740      -0.30708793
C        4.92222854       8.48055676       7.33777952      -1.09397560       3.03824407      -1.13555908
C        7.40231720       8.52075179       7.40798149      -1.27282282      -2.41889128      -0.90249243
C       -6.14468547      10.62442656       7.28717174       0.60814946       0.69045998       0.08230538
C       -3.70127473      10.70026845       7.50922162       1.00352239      -1.45746068      -2.03965408
C       -1.24321995      10.71934310       7.44910510       0.27076030      -2.20834056       1.03100928
C        1.25077034      10.65483193       7.37874782      -0.10904666       0.69328460       1.13992070
C        3.68739399      10.57538808       7.40073218       0.46101602       2.61150702      -0.31483827
C        6.20874619      10.58872054       7.33820551      -1.89742143       2.25604661      -0.17883385
C        1.24227050       0.76710796       7.28090445      -1.40608978      -1.92526004      -0.27515149
C        3.66750797       0.70260783       7.36300633       0.65962963       0.43195716      -0.50851304
C        6.17573507       0.72787144       7.52513116       0.76854464      -2.39242023      -0.00326144
C        8.62449078       0.72700312       7.79956289      -0.93622865      -1.27847590      -0.03298031
C       11.07726754       0.66292837       7.78669330       0.04315571       1.29850146      -1.16214171
C       13.52321131       0.74159828       7.42409298       0.41424509      -2.33459355       0.10497634
C       -0.00968230       2.80142465       7.53937128       0.67476674       3.22758884       0.31864813
C        2.49271367       2.80289767       7.46809286      -2.43455084       1.98104398      -1.12592670
C        4.97731047       2.80850148       7.53430493      -1.90528977       0.08561388      -0.52890497
C        7.42906977       2.85452610       7.77538577      -2.29834280       0.08888355       0.24215190
C        9.85162261       2.83643381       7.90172328      -0.27805658       0.60620545       0.19524083
C       12.29388656       2.83946212       7.73975210       0.34107046      -0.33335381       0.18471808
C       -1.24521837       5.02328384       7.72598568      -0.51034135      -1.33904107      -0.75134859
C        1.19723233       5.02577162       7.42466523      -0.69089090      -3.10096484       0.63315729
C        3.64937363       4.92999851       7.56071984       1.67684237       0.70043535      -0.77333821
C        6.10644248       4.99769947       7.53125733       1.49367313      -1.15545427      -0.14086791
C        8.62059105       4.96269245       7.52735515      -1.40106919      -0.29216088       1.01492549
C       11.05042630       4.96179801       7.62776932       1.34385212       0.90521780       0.43273337
C       -2.46600239       7.15737021       7.62568398       1.33024404      -0.70661011       0.18304660
C        0.00809991       7.17247858       7.59255883      -2.53239443      -1.20860335      -0.38271333
C        2.36662050       7.06528660       7.44613573       2.76339879       0.15232398      -0.66350248
C        4.87521718       7.13120074       7.36872960       0.59886366      -3.59642208       0.24881054
C        7.36395110       7.04769547       7.29161529       1.10114692       2.22623955       0.53682166
C        9.85792751       7.05892978       7.42456376      -0.39480652       2.23295399      -0.51372492
C       -3.65651056       9.25584449       7.35700193      -0.75699911       0.19008371       2.24450184
C       -1.19551730       9.29399972       7.59070644      -0.51236018      -0.65357031      -0.53088189
C        1.24061628       9.26131145       7.37213162       0.45623789      -1.56115867      -0.02728712
C        3.63037899       9.18471962       7.20375245       2.19108280      -0.76775737       1.88678194
C        6.17893947       9.21286768       7.34318048      -0.68544402      -1.81414597       0.30933533
C        8.59725800       9.21331666       7.39514843       2.04677707       0.45608748      -0.44444938
C       -4.89264661      11.35038473       7.22491273      -2.32631434       1.84394505       1.32840081
C       -2.46851126      11.40420357       7.52284294       0.04640327       0.34478776      -0.49885212
C       -0.00460343      11.34302570       7.46119755       1.62426743       1.63353548      -0.45068405
C        2.48254937      11.36470179       7.57878312      -0.45050227      -0.76587584      -1.12659956
C        4.97376422      11.31306919       7.35276323      -2.06849517      -0.28640521       0.27908579
C        7.38839455      11.32740727       7.32169989       1.51788340       1.95714455      -0.73369514
72
Lattice="14.76 0.0 0.0 -7.38 12.782534959858314 0.0 0.0 0.0 15.0" Properties=species:S:1:pos:R:3:REF_forces:R:3 REF_energy=-11164.901583109246 config_type=fd_force_conv_snapshot_051 snapshot_index=51 split=validation degauss_Ry=0.00285013035 kgrid=8 lattice_temperature_K=450.0 trajectory_seed=1 p4_key=seed1:snapshot051 pbc="T T T"
C        0.02861076      -0.03381867       7.76521581      -1.91194456       2.16321230      -0.92181762
C        2.43450750       0.04013143       7.84417380       0.49099766      -0.26429501      -1.21642490
C        4.89417641      -0.05319341       7.54696387      -0.15962205       2.16957449      -0.62996527
C        7.37479570       0.03325636       7.40348936      -0.22094904      -0.67032362      -0.73285953
C        9.81690835       0.04090296       7.51374042      -1.53050521      -2.00130839      -1.29323275
C       12.28254721      -0.01102655       7.33502591       0.34442961       1.05376175       1.68582812
C       -1.18520475       2.09136758       7.50370596      -1.15263712       1.09475593       0.53977200
C        1.23762907       2.13521682       7.58831469       0.37571171       1.41279136       1.30403087
C        3.73262285       2.12318837       7.60102103       0.52198562       0.32286885      -0.84026505
C        6.19896335       2.11128095       7.15322328      -1.51355135       0.26493058       1.06227441
C        8.64379655       2.13332888       7.06067170       0.26590452       0.40819579       1.01435908
C       11.08023319       2.13083426       7.27360555       0.58971028      -0.22216928      -0.78463435
C       -2.41183179       4.25303451       7.46612814      -1.61076399       0.25884324      -1.55755424
C       -0.00101327       4.29945371       7.51045183       0.06762747      -0.61158702       0.27201886
C        2.48217408       4.21738981       7.43795664      -0.35037297       2.20580648       0.24809731
C        4.98992067       4.25963642       7.42936355      -2.75492341      -0.07200349      -0.07291417
C        7.42488114       4.26811428       7.20572310      -0.87445147      -1.42449837       1.01620307
C        9.84506529       4.26452451       7.24490731       2.11671647      -0.80618714      -0.06005274
C       -3.66172937       6.36625908       7.50975012      -0.81370607      -0.64788663      -1.07374307
C       -1.18702811       6.45933986       7.46762750      -2.11362960      -1.54715567      -0.42081374
C        1.24625176       6.39715694       7.44986513       1.21269989       0.97628798      -0.37175709
C        3.63420720       6.46477312       7.51097263       2.63375246      -2.69733790      -0.45408202
C        6.13948054       6.37266418       7.52234748       0.10819973       0.81190501      -0.64468381
C        8.60010135       6.36251997       7.55743589       0.88586151      -0.06760947      -1.17380938
C       -4.93421403       8.48535656       7.56167325       0.52088056       0.50046857       0.53199158
C       -2.47915247       8.50450161       7.55578177       0.47589114       2.14612809       0.01285860
C        0.02067503       8.48807984       7.50857386       0.91117531       1.59355046      -0.32799512
C        2.47950573       8.51902823       7.61753268      -0.53141746       3.47436461      -0.68194860
C        4.94735722       8.51691667       7.48909664      -0.41084969       1.98068120       1.59842064
C        7.36903192       8.53521710       7.73897450       0.97784221      -3.51229687      -1.25705167
C       -6.15885783      10.64610785       7.68774210      -1.57170199      -0.75727730       0.40771166
C       -3.77258952      10.66544097       7.58947137       0.97072308      -0.80597271       0.63028203
C       -1.25450568      10.68008370       7.53276651      -1.01688750      -2.31463228      -0.83157112
C        1.16024365      10.62110772       7.58516438       1.38535178       1.69957015      -0.67601964
C        3.63700613      10.64941066       7.62076846      -0.25694011       1.28600435      -0.21908190
C        6.07811667      10.63114679       7.81264831       1.56561285       1.31428160      -1.12140670
C        1.20516613       0.77424269       7.75430368       1.21548928      -3.33840365       0.38863227
C        3.69131938       0.70578811       7.72614291       0.25983697      -0.07538063      -0.46022335
C        6.13417735       0.68854460       7.28651683      -0.08356522      -0.06034893       0.74748294
C        8.59793180       0.75882229       7.32281214       0.24688093      -1.15105049       0.07875212
C       11.00929155       0.68867839       7.31156239       3.17373040       1.37224841       0.26772254
C       13.57144305       0.68115362       7.52586382      -1.41203597      -0.33230197      -0.29907612
C        0.00947516       2.82701990       7.72759227      -0.03098719       2.03584859      -2.70831548
C        2.50975581       2.82068828       7.51905938      -1.11379495      -0.29566349       0.40190250
C        4.97401063       2.84399140       7.35585472      -0.35964848      -0.64949665       0.34470292
C        7.42283297       2.82963175       7.10655066      -0.50725217       0.62022310      -0.60728248
C        9.89320289       2.84690408       7.12286454      -1.53358719       0.09956288       0.36709671
C       12.32365551       2.83979921       7.33845398       1.13413880      -1.09417023       1.02187287
C       -1.23600799       5.03880443       7.44944244       1.82443989      -1.29262057       0.71359168
C        1.24111752       5.00821713       7.39482060       0.26851702      -2.39674766       0.81305712
C        3.67272820       4.96548602       7.50959849       1.77081619       1.11901223      -0.54669289
C        6.20143929       4.94906177       7.41376767      -0.37707593       1.18297382      -0.47437753
C        8.63439131       4.92960450       7.38690833      -0.48387210       2.13512531      -0.65939463
C       11.10366518       4.94069246       7.32642760      -0.36231600       0.75780515       1.36551212
C       -2.48721277       7.12121178       7.50401896       2.19472503      -0.71249485       0.19825725
C        0.05392248       7.10082831       7.43768309      -1.53056588      -0.08780420       0.50053568
C        2.46759556       7.18800658       7.50136968      -1.48176403      -4.47517397       0.11288171
C        4.89457927       7.15445442       7.45962209       0.60096477      -3.30074419       0.59241585
C        7.36469907       7.08297125       7.54025670       0.21087417       0.17250482       1.19459906
C        9.86889799       7.06070765       7.47975426      -1.43453852       0.42511134       1.18035258
C       -3.71007552       9.25779464       7.65538857      -0.83644542      -1.91523788      -1.36454898
C       -1.19012592       9.18489823       7.49048213      -2.12428760       2.18768689       0.71909205
C        1.24725787       9.22680656       7.55037974      -1.20676090      -0.34615353       0.54846978
C        3.68939461       9.23440363       7.60291329       1.01164862       0.17857417      -0.17849241
C        6.20243360       9.19889344       7.73789466      -4.70427675       2.39934859      -0.52903996
C        8.56773478       9.17304906       7.64033122       2.91702889       2.98329933       0.37926163
C       -4.94922835      11.39360025       7.69793885      -1.54942955       0.02454298       0.33792420
C       -2.56854021      11.33628048       7.51185698       3.74792382       0.31762020       0.57573967
C       -0.04033819      11.38340849       7.47649447       0.01819775      -0.28592338       0.79598114
C        2.38755231      11.36559979       7.55988177       0.93702132      -0.02026492       0.65752030
C        4.85808980      11.41410502       7.61400389       0.71417404      -3.07064511      -0.01964683
C        7.33108539      11.35823542       7.75931271       1.25957547      -1.82630317       0.58356997
72
Lattice="14.76 0.0 0.0 -7.38 12.782534959858314 0.0 0.0 0.0 15.0" Properties=species:S:1:pos:R:3:REF_forces:R:3 REF_energy=-11165.44054620012 config_type=fd_force_conv_snapshot_057 snapshot_index=57 split=validation degauss_Ry=0.00285013035 kgrid=8 lattice_temperature_K=450.0 trajectory_seed=1 p4_key=seed1:snapshot057 pbc="T T T"
C        0.06517306       0.02273152       7.41301170      -1.89828403       0.56551954       0.53747883
C        2.50229094       0.00376302       7.46929051      -1.44970829       0.72112090       0.49973555
C        4.95282011      -0.01273847       7.53255718       0.57545917       1.75096008       0.20135183
C        7.38569339      -0.01759686       7.76476137       0.94829818      -0.98608491      -0.18662764
C        9.87130158       0.05896427       7.78607353      -1.50660809      -2.50546675      -0.54602235
C       12.29206031       0.00786710       7.47602374       1.52334546       0.16326428       0.45630756
C       -1.22835502       2.15399407       7.48901823       1.09145232      -0.89794544       0.37929582
C        1.20840332       2.16074887       7.35186331       1.15224837      -1.80451847       0.16980491
C        3.69247693       2.13863200       7.33196337      -2.85058567      -0.63306988       0.66488136
C        6.15119775       2.14546580       7.56558632      -1.02023199      -0.80449484      -0.69369006
C        8.64403947       2.13672214       7.67859184      -1.17877392       0.18578072      -0.13679426
C       11.09261939       2.11324972       7.67015192       0.24333409       3.07343373       0.73781071
C       -2.45338274       4.29823323       7.61255065      -2.17749041      -1.69681624       0.73474004
C       -0.02766232       4.28023494       7.47265787      -0.31378360      -1.09030509      -0.80444239
C        2.36248202       4.28440855       7.31691152       1.86340085       0.32399834       1.04005468
C        4.88999494       4.25932663       7.45324327      -1.54261459      -0.52282406      -0.78929962
C        7.30345718       4.22992236       7.54731701       1.57815932      -0.11758760      -0.73605696
C        9.81353999       4.28205593       7.65491840       0.10919398      -1.69963006      -0.13946872
C       -3.74030355       6.40155126       7.51934586       0.09752940      -1.46347732       0.05047178
C       -1.19930799       6.35647799       7.55306835      -3.74832800       0.88218663      -0.00195070
C        1.20057083       6.38941221       7.58283659       1.24328984       0.53353862       0.75398603
C        3.71349325       6.42988651       7.47808548      -1.14530896      -2.39030704      -0.16075823
C        6.10563336       6.38595330       7.33997504       1.48861911       1.94297572      -0.30950117
C        8.55663619       6.32643683       7.45361655       0.21261712       1.06911535      -0.62853599
C       -4.89500016       8.49009077       7.45478265      -0.77290344       1.63588830      -1.12467868
C       -2.46085011       8.47125112       7.64178729      -0.56548534       2.50738145      -2.13823403
C        0.02203038       8.47584769       7.61954358      -0.37585260       0.69644474       0.02478004
C        2.48792674       8.48005158       7.46979138      -0.90053145      -0.44155689       0.25942199
C        4.88132339       8.56204348       7.22905556       1.84461662       0.38751410       0.13929388
C        7.43286399       8.54315453       7.12425398      -0.55546216      -1.16915594       1.24241284
C       -6.12348915      10.66298250       7.40301842       0.41959709       0.19716376      -0.52762534
C       -3.66384664      10.68457735       7.50444444      -0.50978728      -0.26173804      -0.44062820
C       -1.21796810      10.61437352       7.58809873      -0.16034762      -0.58975424       0.10214247
C        1.26232810      10.58668416       7.66268331      -0.00517409       1.50304403       0.24118722
C        3.64917065      10.67056160       7.52075476       3.20305435      -0.67611400      -1.47204706
C        6.20110005      10.66099790       7.36377946      -0.39193742       0.65308951      -1.01524302
C        1.25145505       0.72089056       7.49402834       1.28903363       1.27215793      -1.21517072
C        3.70619784       0.71740479       7.49386170       1.01981110      -0.34941343      -0.80218341
C        6.22073447       0.74462618       7.62233804      -2.79628809      -2.11472232      -0.04641767
C        8.60701941       0.71790303       7.78114765       0.95302927      -0.06065644       0.01836590
C       11.06361609       0.73897286       7.65196734       1.50658778      -1.20109598      -0.17878449
C       13.56703139       0.69271691       7.47574594      -1.25996833       1.86992296      -0.43622750
C        0.02278971       2.86478240       7.32541503      -2.56954353       0.05104540       1.39390095
C        2.41294676       2.86223067       7.30657985       1.34903237       0.15868592      -0.14509944
C        4.85466723       2.82501081       7.38046442       3.92802394       1.54010134       0.98867324
C        7.36599570       2.81017242       7.56891496       0.58592561       1.22435753       0.64999802
C        9.88426310       2.86634946       7.66016773      -1.29595169      -1.31306624       0.41791662
C       12.32335521       2.86327822       7.73382955      -0.25633641      -0.26616394      -1.95410397
C       -1.23913652       4.96053329       7.51129577      -0.18372949       0.66554574       0.39523486
C        1.12979832       5.02609957       7.47029944       3.01742533      -2.08337415      -0.54160031
C        3.64038905       4.95723503       7.44614172       0.56634461       1.19986880      -0.48481364
C        6.11372863       4.97391387       7.42385399      -0.59678852      -0.15694554       0.57129578
C        8.54654745       4.88812319       7.53195550       0.22784705       2.61369194       0.42274001
C       11.02231725       4.97348842       7.66672490       1.71092054       1.17329902      -0.93196910
C       -2.51492632       7.08938447       7.47310186       2.39557215      -0.79809125       1.47083633
C       -0.02473883       7.04785858       7.70138512       1.21451046       2.34152113      -1.21967555
C        2.48612593       7.06437230       7.57856997      -1.38306684       1.00023806      -0.85101072
C        4.90392250       7.17154242       7.32488311       0.26863991      -2.17996407       0.03772631
C        7.37934814       7.11014875       7.27819085      -0.81896141      -1.31134874      -0.01333246
C        9.78451284       7.06579734       7.44259025       0.82107202       0.28244314       0.51106357
C       -3.69250799       9.28274173       7.47568877       1.20901087      -3.27074198       1.34406269
C       -1.21207179       9.19070816       7.56175041      -0.12447790      -0.62183904       0.95322184
C        1.28640200       9.18013073       7.54330065      -2.09310989       0.13259025       0.63990361
C        3.63099679       9.23367298       7.31882597       2.36674571       1.28139822       0.89496784
C        6.19479327       9.21943922       7.20156469      -1.29901182       1.86659210       0.12148771
C        8.67300417       9.23878056       7.27151578      -1.27533967       0.11696668       0.51965903
C       -4.90724954      11.37836795       7.47289294       0.91404877      -0.19318369       0.04011667
C       -2.41803979      11.36972514       7.51600868      -0.61852617      -0.29815001       0.41495780
C       -0.00138991      11.25696425       7.74313740       1.42435593       3.09645101      -0.56016419
C        2.50237401      11.38181303       7.69407569      -2.57441577       0.47846970       0.12597866
C        4.95009983      11.38732722       7.38349756      -1.27523529      -1.47336990       1.04631326
C        7.43516700      11.43029310       7.37887529      -0.87220175      -3.71479233       0.01857931
72
Lattice="14.76 0.0 0.0 -7.38 12.782534959858314 0.0 0.0 0.0 15.0" Properties=species:S:1:pos:R:3:REF_forces:R:3 REF_energy=-11164.865489521515 config_type=fd_force_conv_snapshot_063 snapshot_index=63 split=validation degauss_Ry=0.00285013035 kgrid=8 lattice_temperature_K=450.0 trajectory_seed=1 p4_key=seed1:snapshot063 pbc="T T T"
C        0.04214000       0.00762282       7.50699269      -3.27429062       1.37250732       0.59196796
C        2.45351660       0.00441983       7.66353256      -0.56289367       2.15195138      -0.82677267
C        4.89032970      -0.00454530       7.58027374       1.69395383      -0.28021888      -1.15156960
C        7.36667557       0.07019822       7.38100121       2.38346277      -2.43489666      -0.17512272
C        9.88317422       0.00785870       7.24784646      -2.87956869      -1.11162005       0.20044783
C       12.26172572       0.03215276       7.42459644       1.76592313      -1.18161139      -0.37526768
C       -1.18773897       2.21204192       7.52751904      -2.46166595      -3.89911908      -0.18672148
C        1.23052278       2.13847634       7.52303372       0.74344168      -0.44750590       0.02612215
C        3.77315036       2.11252492       7.48133052      -2.81283699       1.18424832       0.60773448
C        6.17072993       2.08727135       7.40735542       0.23861869       2.07401713       0.65131468
C        8.59351309       2.20376866       7.22143479       0.85961903      -2.29704285       0.30273223
C       11.06517759       2.14597040       7.30369383       0.79558262       1.68325059       1.06547621
C       -2.40114709       4.28375752       7.47051662      -3.48047998      -0.89941122       0.73975986
C        0.01792890       4.26180107       7.39415394      -0.92856419      -0.16580659       2.24570743
C        2.45074886       4.21386253       7.58423052       1.71252003       1.29054312       1.08169318
C        4.90686425       4.26726131       7.70300108       3.40069634      -2.40316924      -1.08162376
C        7.43690156       4.34576955       7.43994536      -2.41163512      -3.59713325       0.14139962
C        9.86569538       4.26041892       7.38113983      -0.38489594       0.01569170      -0.16926523
C       -3.66070230       6.35856861       7.53059735      -0.87967775       1.72171558       0.10165191
C       -1.24619675       6.43043085       7.44631487      -0.48345327      -1.82761443       0.26065484
C        1.22301312       6.28843189       7.59455541       0.20889930       2.86090763      -0.39799880
C        3.68978537       6.35506723       7.68595703       1.26800200       0.16022446       0.53285393
C        6.19797052       6.34739452       7.81953292      -0.54968334       2.60279998      -0.87959059
C        8.70271109       6.39614460       7.65104048      -3.15975646      -0.14468009      -0.24997705
C       -4.94030653       8.53559511       7.66609713       0.04103943      -0.95904282      -0.01617198
C       -2.49600875       8.58360317       7.42036371       0.49141623      -0.98135074       0.74825221
C       -0.00053830       8.48170616       7.30895113      -0.76951472       0.17396315      -0.04811408
C        2.43742955       8.48841861       7.50675276      -0.60441287      -2.50904856      -0.85206847
C        4.90271999       8.49928454       7.67876190       0.20621327      -1.70398422      -0.26681752
C        7.36934591       8.52456800       7.63709338       0.85731378      -0.04015472       0.69324115
C       -6.23748302      10.72151913       7.61827323       3.37173157      -3.32267698       1.05918703
C       -3.76421347      10.66436641       7.55631613       1.81714001       0.12166152       0.03320785
C       -1.17807415      10.67159476       7.38014711      -2.38018975       0.38437812      -0.37088317
C        1.18787753      10.62024852       7.27642921       0.42114773       0.94762326      -0.32438966
C        3.62332448      10.56586454       7.30161015       0.61605637       0.93616180       1.06006095
C        6.11563072      10.66521678       7.50611730      -0.86281903      -0.44155843       1.03295278
C        1.21605374       0.72507798       7.57324358       1.73900419       0.28657053       0.06642034
C        3.68799978       0.72871150       7.53134237       0.04458576      -1.75005016       0.78434767
C        6.14622017       0.71177575       7.52650605      -0.61445046      -0.78017529      -0.83751629
C        8.65123974       0.74998539       7.28041008      -1.35628263       0.13706859      -0.30318757
C       11.06733022       0.74641672       7.30619193       0.39772600      -0.50355878      -0.01641032
C       13.54027553       0.72914393       7.45178781      -0.20121016       0.52965522       0.54754959
C        0.01906390       2.85099422       7.49331367       0.78850900       1.16297964      -0.44952551
C        2.47353104       2.82796307       7.54091245       1.12931464      -0.78735998      -0.36017710
C        4.99127304       2.80191680       7.51251795      -2.32519951       2.19703928       0.36711419
C        7.35133121       2.84286788       7.31491293       1.94856710       2.33489746       0.11017691
C        9.83801240       2.87348522       7.24482737       0.44601235      -0.68889855       0.18210892
C       12.31881013       2.88796202       7.56926458      -0.30745380      -1.50813635      -1.97020550
C       -1.22721908       4.96811671       7.51047511       1.53864429       2.00263714      -1.10225455
C        1.22255955       4.92186068       7.65367686       0.59727729      -1.01247574      -1.70557188
C        3.73588923       4.95575874       7.70612729      -3.44408653      -0.97681146      -0.38624860
C        6.16488596       4.96667891       7.67519943       0.89443305      -0.11522759       0.10474160
C        8.67407217       4.99250298       7.45576876      -0.94302742       0.36377099       0.44185642
C       11.05993503       4.93587603       7.46724958       3.00587439       1.91364740       0.01048522
C       -2.47652875       7.16692138       7.47853514       0.63415360      -1.99637316      -0.33315583
C       -0.00278437       7.02508732       7.40744891       0.94410085       2.42247026       0.37691652
C        2.46010404       7.00074838       7.60571183      -1.43489616       2.66308772      -0.03102602
C        4.92834429       7.06423928       7.75780948       0.63795677       0.37652469       0.19517604
C        7.44841274       7.11869689       7.72215425      -1.30634024      -1.64868082       0.12622111
C        9.86175917       7.09093071       7.63764762       1.91903309       1.17416522      -0.18770776
C       -3.72986109       9.22309101       7.60244827       0.09718847       2.61900127      -0.77349659
C       -1.25532747       9.26664050       7.34891864       1.76680296      -1.58066614      -0.19163563
C        1.22140258       9.20683800       7.25099321      -0.50077068      -1.09159476       1.36251190
C        3.66269966       9.12948033       7.49709482       0.09517710       2.65857723      -0.24522745
C        6.11637101       9.19820780       7.63103901       0.71206059       2.28486405      -0.42810642
C        8.60894389       9.25431645       7.65192564      -1.61944815       0.80442310      -0.24635308
C       -5.00740050      11.40997292       7.68010126       2.45836852      -1.53750812      -0.66748589
C       -2.43855916      11.36608670       7.41435798      -2.41672616      -0.26375148       1.60412952
C        0.01325245      11.39816751       7.32206665      -0.33876084       0.27459896       0.29570103
C        2.39827906      11.30300479       7.27781163       2.29826746       1.70670702      -0.31587365
C        4.82440224      11.34494715       7.42100914       2.12177332       0.17582798      -0.26542218
C        7.36903301      11.40799213       7.65268974      -3.41261648      -0.88124381      -1.56293402
72
Lattice="14.76 0.0 0.0 -7.38 12.782534959858314 0.0 0.0 0.0 15.0" Properties=species:S:1:pos:R:3:REF_forces:R:3 REF_energy=-11165.645711598938 config_type=fd_force_conv_snapshot_069 snapshot_index=69 split=validation degauss_Ry=0.00285013035 kgrid=8 lattice_temperature_K=450.0 trajectory_seed=1 p4_key=seed1:snapshot069 pbc="T T T"
C        0.05422410       0.00559711       7.61566507      -1.22349055       0.88397483       0.85363196
C        2.49644462      -0.02027426       7.42794484      -1.52935104       1.60089481       0.70187054
C        4.96957714       0.01104013       7.39625629      -2.04029197      -1.70499287       0.15913432
C        7.36197825       0.03006766       7.74800292       0.52726332      -1.17438274      -1.59135319
C        9.82785288       0.03021400       7.62770499       0.63370314      -0.83705554       0.41572913
C       12.27519831      -0.01512283       7.69786405       1.68346373       0.39585707       0.42577983
C       -1.27691924       2.17985145       7.61846037       2.22516560      -2.13491988       0.67174904
C        1.24268297       2.17204856       7.51669892      -0.75385439      -2.23358237       0.75446965
C        3.66887838       2.10711377       7.42602635       0.83327525       0.52653853       0.25658350
C        6.06554049       2.11663182       7.61831745       1.64203966       0.62150197      -0.14642870
C        8.58587313       2.15199990       7.53470074      -0.07451006      -0.29294944       0.48278967
C       11.07333577       2.18177973       7.61804438       0.09915691      -0.52193060       0.19536913
C       -2.45912241       4.26884129       7.45977327      -1.47834961       1.80113284       0.27044586
C        0.00309248       4.25196243       7.49718274      -0.55731206      -0.74065974      -0.04001614
C        2.45772233       4.24518738       7.43611832       0.24681151       0.68679231      -0.22212069
C        4.89638383       4.27316677       7.49293784      -1.18517571      -0.48101586      -0.14491046
C        7.30993451       4.24947083       7.54578805       1.31637756      -0.33436322      -0.18714237
C        9.84122008       4.26774525       7.47336294      -0.63008174       0.64896366       0.40293557
C       -3.69056834       6.39348701       7.46324473       1.70358287      -0.69612130       0.35366424
C       -1.20173382       6.38005122       7.59439205       0.39488134      -1.62040563      -0.43771566
C        1.27716234       6.34194208       7.46433100      -3.43925748       1.56350017       1.23425293
C        3.69195185       6.40270096       7.41697706      -1.51513798      -1.03495361      -0.07163119
C        6.15939444       6.38840874       7.33266601      -2.00520721       1.31701340      -0.23095628
C        8.62591674       6.35978122       7.31483934      -1.12247293       0.41386379       0.73070572
C       -4.92636544       8.45030187       7.35339921       2.42141919       2.09865344      -0.26248058
C       -2.40399683       8.49327443       7.41875228      -2.31287981       0.28577735      -0.01445911
C        0.00663521       8.54743388       7.56641619      -0.26699441      -0.10650795       0.48446191
C        2.42837243       8.50609587       7.65938421       0.79298118      -1.05096181      -0.53280431
C        4.88789782       8.57298904       7.40883231       0.95549084      -2.44618971      -0.35085171
C        7.41011677       8.49659490       7.27038693      -0.30857712       2.22509670      -0.15658995
C       -6.15681365      10.67350859       7.35927970       0.19430726      -3.42454666       0.06762233
C       -3.72220080      10.67892366       7.24510551       1.02971319      -3.14700739       0.76817878
C       -1.21054242      10.69437817       7.44001699      -0.25376120      -2.12133751       0.13078430
C        1.27870543      10.69039545       7.72858155      -2.21084610      -1.52999613      -0.77674209
C        3.72014543      10.65551751       7.62923666      -1.66585091      -1.34330344      -0.03540409
C        6.21740667      10.64598282       7.45900523      -2.07717959       0.21615830       0.03541977
C        1.26713801       0.73883066       7.69066881       0.78035603      -0.53839697      -2.35399330
C        3.72708787       0.70839122       7.36145213      -0.62079440      -1.13869531       0.32652753
C        6.13399342       0.71462424       7.60522030       0.38482832      -0.07982864       0.07824715
C        8.59204232       0.71439617       7.62028103       0.30554579       1.27764030       0.50918153
C       11.06118304       0.75510964       7.72737029       0.09524497      -0.74597421      -1.05837122
C       13.54882980       0.68903645       7.75205927      -1.36673211       1.46909544      -1.33552226
C       -0.00633751       2.84237495       7.54052250      -0.16876001       0.09971278      -0.05032832
C        2.46957506       2.81754435       7.39876931      -0.59641417       1.53104000       0.54063743
C        4.87231608       2.84032832       7.56995544      -0.13040995       0.35821921      -0.69995892
C        7.29765617       2.81721646       7.56745311       1.60656487       0.97646281       0.28914215
C        9.85422180       2.87374394       7.51994102      -1.70189469      -1.27694327       0.11031112
C       12.29341753       2.93314606       7.58734097      -0.64201089      -4.75384042      -0.01972910
C       -1.24658423       4.88601987       7.48840315       2.16762946       4.70728700       0.42078417
C        1.22234041       4.95948384       7.49272526       0.75220014      -1.33385952      -0.54556444
C        3.67917148       5.00149748       7.40457820      -0.08880796      -1.92439333       0.32505300
C        6.09733227       4.97182513       7.46563531       1.62912218       0.71806720      -0.02260360
C        8.58045849       4.94698119       7.52122427      -0.17710170       0.39431852      -1.18164302
C       11.06204352       4.98489168       7.46414574       0.09900804       0.10074533      -0.13846085
C       -2.40594824       7.06400155       7.56875734      -1.65119742       1.11138968      -0.85221477
C        0.02053252       7.12095300       7.60517025       0.54309309      -1.15723425      -0.86333942
C        2.44393858       7.02835748       7.50610603       1.24575116       3.84211927       0.15412375
C        4.85213489       7.10705438       7.34567369       4.39728806       1.55423160       0.26620585
C        7.38864905       7.13961108       7.23070156       0.15268856      -4.16491510       0.72682207
C        9.85440360       7.06649698       7.38086749      -0.84108292      -0.77537658      -0.23607201
C       -3.66995109       9.18146521       7.31314707      -0.48039443       1.48685662       0.06788561
C       -1.24895750       9.25264743       7.42088076       2.72374493       0.05827405       0.69432461
C        1.24370362       9.25555059       7.71448611      -0.64760381      -0.28850657      -0.57843728
C        3.65828738       9.21964537       7.58877959       0.52101040       0.98890438      -0.04031310
C        6.16865342       9.22570591       7.30875758      -0.14733578       0.62316830       0.71303427
C        8.67044185       9.18095739       7.33376642      -2.90324290       2.23891586      -0.33915268
C       -4.98842994      11.35171893       7.35545823       4.20528836       1.30777568      -0.46309836
C       -2.44903848      11.33248398       7.34265055      -0.79724381       2.59099759      -0.10083301
C        0.01628427      11.37994779       7.62975611       0.04696788       0.85177151       0.56569566
C        2.47623036      11.34972897       7.63325571       1.27584104       2.61351351       0.74620690
C        4.93199113      11.32414864       7.61811598       1.44488259       1.41121990      -0.25231161
C        7.42580757      11.38611399       7.45022692      -1.46507937      -0.44229762       0.40379355
72
Lattice="14.76 0.0 0.0 -7.38 12.782534959858314 0.0 0.0 0.0 15.0" Properties=species:S:1:pos:R:3:REF_forces:R:3 REF_energy=-11165.471963647591 config_type=fd_force_conv_snapshot_075 snapshot_index=75 split=validation degauss_Ry=0.00285013035 kgrid=8 lattice_temperature_K=450.0 trajectory_seed=1 p4_key=seed1:snapshot075 pbc="T T T"
C        0.03116395       0.01248768       7.55752493      -0.65599537      -0.37552170      -0.10275645
C        2.49413026       0.04866589       7.62553358       0.54253568      -1.92956150       0.04033007
C        4.93341673      -0.07211529       7.55903262      -0.31999230       2.31681489      -0.56345237
C        7.42399094      -0.02739781       7.50349529      -1.29002221      -0.52660255      -0.28213075
C        9.88547782       0.00727969       7.42210092      -2.32492518       0.04968220      -0.09966521
C       12.30983078      -0.03291257       7.36162614       0.23359783       0.30333952       0.30339043
C       -1.33176478       2.13606342       7.47963863       3.18282311      -0.60217679      -0.36514859
C        1.27647290       2.12960657       7.42739101      -2.09481324      -1.08089588       1.33878910
C        3.70143866       2.13728155       7.43228765       0.95910710      -0.90033862       0.37885925
C        6.14904662       2.01918714       7.49343030      -0.47245563       4.23267138      -0.86008183
C        8.60756073       2.11035139       7.55989099      -0.50864288       1.46389435      -0.85529701
C       11.07637370       2.15204745       7.48369315      -2.39526207      -0.08166415      -0.71539043
C       -2.48045174       4.31586080       7.43680357      -1.30949369      -1.28957356      -0.73159069
C       -0.02255016       4.25492650       7.41413270      -0.12382381      -0.27810080      -0.78349509
C        2.49464474       4.28875855       7.55411282      -0.89950018      -2.20545013      -1.38542634
C        4.87516177       4.24004656       7.36926462       1.10056431      -0.50764221       0.47932074
C        7.34429057       4.26823613       7.55416030       0.07771494      -1.98345439      -1.16159458
C        9.83194323       4.31945853       7.40169113      -1.25815699      -2.96890424       1.09000504
C       -3.68949326       6.42499054       7.54260099      -0.81518780      -0.60553593      -0.69304754
C       -1.24387045       6.40290107       7.42715734       1.00859363      -0.16537001      -1.14598850
C        1.29862235       6.35403757       7.40942166      -1.68972463       1.31820896      -0.79845943
C        3.72236446       6.40554310       7.56565250      -1.60128948       0.26443487      -1.01112026
C        6.19128466       6.39113430       7.59265681      -3.72269384      -0.75067213      -0.54312780
C        8.61047944       6.40695589       7.60734669      -0.13871179       0.11976533       0.29870022
C       -4.95848507       8.54654086       7.70027543      -0.80591923       0.40832718      -0.43539498
C       -2.48319043       8.50316650       7.36230022      -0.45434427       2.01243124       0.77487881
C        0.02959928       8.47105710       7.31650433      -0.38563154       1.84018815       0.49951546
C        2.47447562       8.54854725       7.55277323       0.45532232      -1.34080690      -0.89265231
C        4.91077705       8.59140335       7.61295403       0.63334627      -3.09894935      -0.47516095
C        7.38306790       8.52047093       7.61956758      -0.98732084       1.62197400       0.47766880
C       -6.09531517      10.69821284       7.73129250      -2.98590566      -0.46174159      -0.44454348
C       -3.66848425      10.64168524       7.69431597      -1.01779381      -0.76859298      -0.47288244
C       -1.23597745      10.63784057       7.50014034       1.27213145      -1.07555364      -0.49816384
C        1.20904243      10.65854550       7.45079066       0.31203345      -0.89823417      -0.15632050
C        3.67322857      10.64177507       7.56205525      -1.09894580       1.93692694      -1.68667376
C        6.16770686      10.62303140       7.43302284      -0.31159636       2.38638663       0.64988026
C        1.26798371       0.68381316       7.57505759      -0.50491478       2.43182985      -0.58806811
C        3.70901415       0.75854912       7.47934065       0.83735508      -3.74367327       0.90929969
C        6.16704045       0.64370177       7.44946183      -0.09877947      -1.12334068       1.01661548
C        8.62136871       0.70119925       7.50263195       1.11114157      -0.14395247       0.01737166
C       11.08480217       0.72408870       7.35725292       1.08898046      -0.32680032       0.88182334
C       13.55418523       0.67993555       7.46095988      -2.22809255       1.54757707      -0.19352976
C       -0.03908471       2.79842447       7.44685747       0.64941901       1.82290983      -0.10029745
C        2.50919425       2.79651679       7.53577374      -2.16875791       3.73093628      -0.87439490
C        4.91453515       2.79750579       7.42008504       1.12324555       0.84898958      -0.08235963
C        7.34832286       2.82280313       7.49469327       0.85532298      -0.75506358       0.76697679
C        9.82300600       2.85601945       7.47894729       0.25637241       0.15599063      -0.00629612
C       12.22869413       2.90722513       7.46211245       2.43096544      -1.40654667       0.06881969
C       -1.29683739       5.00449624       7.31502511       3.33812237      -0.77890645       1.62072187
C        1.25801918       4.95319217       7.38003690      -0.84952874      -0.80221093       1.35290343
C        3.68730353       5.01630236       7.43720700       0.39081694      -2.05481459       0.79625625
C        6.10026037       4.91457807       7.40614595       1.72045008       3.09341248       1.49204690
C        8.58637199       4.97242363       7.54243963       0.11346330       1.37734125      -0.18550535
C       11.04787747       4.97726178       7.41104329       0.18345284       2.88260337       0.69110199
C       -2.45744204       7.11372437       7.44845048      -0.37680031      -0.15465520      -0.03471324
C        0.03369352       7.05450504       7.35272982      -0.17862225       0.73806704       0.20405380
C        2.49536245       7.10873634       7.43417793      -0.31747262       0.42905901       1.26955418
C        4.89145393       7.10273768       7.63144807       3.80639945       1.93366370      -0.22031577
C        7.37238278       7.12771689       7.65931592       1.21929168      -1.46713111      -0.43079451
C        9.83420651       7.15767532       7.63081776      -0.13086992      -2.49286501      -0.24917846
C       -3.76683351       9.22204469       7.53670883       3.37198431       0.70250997       0.57013570
C       -1.24179991       9.23945249       7.31966760       0.62144823      -2.06489563       0.54426089
C        1.27318631       9.23536646       7.44149647      -2.16753047      -0.66736196      -0.13952554
C        3.69917625       9.26867780       7.55880413      -0.75581408      -1.15956238       0.77034570
C        6.15665461       9.24632068       7.51245618       0.08334437      -1.19665183       0.61038092
C        8.56359469       9.27449905       7.73177887       1.88384060      -0.47615391      -0.19600959
C       -4.87953296      11.38378290       7.74104247       0.54912953       0.80083127      -0.15415872
C       -2.42939798      11.30243270       7.64726916      -1.65558063       1.47369231      -0.44704002
C       -0.00897469      11.33181178       7.46704239       0.18181556       1.00461948       0.12432518
C        2.40058825      11.37669362       7.42666960       3.22965344      -0.33188982       0.79659512
C        4.89587168      11.31820195       7.40264268       1.14454020       1.08674643       0.42346095
C        7.37974357      11.39303109       7.58577098       1.13258688      -1.29400537      -0.19663591
72
Lattice="14.76 0.0 0.0 -7.38 12.782534959858314 0.0 0.0 0.0 15.0" Properties=species:S:1:pos:R:3:REF_forces:R:3 REF_energy=-11165.720408888503 config_type=fd_force_conv_snapshot_081 snapshot_index=81 split=validation degauss_Ry=0.00285013035 kgrid=8 lattice_temperature_K=450.0 trajectory_seed=1 p4_key=seed1:snapshot081 pbc="T T T"
C        0.01916752      -0.02800337       7.44009948      -0.99625851       0.15387718      -0.07196338
C        2.52493596      -0.01790136       7.38506953      -2.60487743       0.77488241      -0.19420391
C        4.93287539      -0.03028751       7.42359782       0.41209564       3.14610030       0.74173292
C        7.41521961       0.02859993       7.61353789      -1.59485735      -1.37372062      -1.22704793
C        9.83909321      -0.01234531       7.40938507      -0.09840640      -0.02905501       0.07765914
C       12.25718844      -0.06491876       7.44007060       1.27985710       1.01159694      -0.12780491
C       -1.21090756       2.05332208       7.58755271      -1.75214895       1.07266115      -0.14385451
C        1.26506411       2.13076072       7.67236269      -0.82096172      -2.47100806      -1.49660958
C        3.69594593       2.12126897       7.47318464       0.48299741      -0.08084705      -0.32941822
C        6.14136454       2.13414901       7.46219226      -1.30652407      -0.05238443       0.05518436
C        8.63304535       2.10221498       7.51909056      -0.53862014       3.04846703      -0.46590549
C       11.06591187       2.10376853       7.45421839       0.07594139       1.70320775      -0.19096663
C       -2.51762741       4.27174509       7.68224614       3.13022117      -1.21857743      -0.27185199
C        0.00864905       4.20178173       7.74682395      -0.35364676       1.93032512       0.32773672
C        2.55606367       4.26019015       7.56623392      -2.73381954       0.31309300      -0.65653788
C        4.95863700       4.27105846       7.37337758      -1.06529006       0.61030610      -0.36561190
C        7.36939869       4.24692740       7.41503299       1.85554638      -0.91339108       0.17788331
C        9.89685873       4.33583582       7.51735397      -1.97328517      -2.67347266      -0.76679578
C       -3.68964549       6.44818864       7.58436816       0.21743151      -0.20864322       0.49299283
C       -1.25101001       6.38918609       7.70147682       0.65457304      -0.47023960       0.74977045
C        1.24227883       6.39890464       7.54337326       0.88985675      -1.24492532      -0.00710936
C        3.74288277       6.38736690       7.37942839      -1.18334252       2.45929540      -0.74845353
C        6.19289612       6.43553690       7.34057113      -1.53561270      -1.30011225       0.58638893
C        8.60340680       6.37135358       7.54911447       0.33570457       0.15427467      -1.43302260
C       -4.95383215       8.54221643       7.47284674      -0.31825629       0.65101181       0.44981321
C       -2.48642122       8.57616105       7.67897516      -0.62272144      -0.62284923       0.15672416
C       -0.02704265       8.50886421       7.66114393      -1.04943972      -0.43793909      -1.05234455
C        2.42361080       8.46869340       7.53008966      -0.56509145       2.46174566      -0.85140487
C        4.89982698       8.54379028       7.36012064      -0.32700781       0.20663262       0.59250250
C        7.35472774       8.55499133       7.45281192       0.33022041       0.12635609      -0.71077324
C       -6.16504749      10.67952008       7.36581494      -2.09109517      -0.21899705      -0.19333590
C       -3.67773177      10.70524256       7.48548033      -2.89089389      -2.52306158      -0.00334989
C       -1.25860118      10.72400993       7.62622938       1.64752357      -2.91858055      -0.63637272
C        1.25739282      10.63307924       7.46499933      -1.44666539       0.16492367       0.16573125
C        3.70928527      10.59480619       7.51045092      -2.39933599       0.52498301      -0.71998705
C        6.12129698      10.67403420       7.33397691      -0.22254389      -2.07249375       0.56486468
C        1.25545315       0.67704245       7.39523436       0.76374414       1.42396023       1.62989943
C        3.73496490       0.70856817       7.44238381      -0.58806169      -0.55260309      -0.44550327
C        6.14480562       0.71603670       7.55251853       0.91466301      -0.46109059      -0.39809753
C        8.62458252       0.71099979       7.48302491       0.44182659      -0.23375236       0.44748971
C       11.05155620       0.67643932       7.38602443       0.63715793       0.78446054       0.54228345
C       13.52491484       0.62985650       7.53825273      -0.51643744       1.19420851      -0.66280417
C       -0.00505446       2.76242375       7.70318880       1.19719382       1.68907337       0.09007988
C        2.49485789       2.80801272       7.57814033      -0.50770597       2.04973101       0.35323949
C        4.87381994       2.88174035       7.38392640       2.76431231      -1.87191788       0.55645614
C        7.36438556       2.80894926       7.46881541       1.00587418       0.63206072       0.08709329
C        9.84642414       2.91230962       7.50465619       0.83864757      -3.04312865      -0.14332383
C       12.30497770       2.83435200       7.48206619      -0.24121858      -0.87126793       1.36064810
C       -1.26162823       4.96027649       7.83639910       0.89369052      -0.63340361      -1.54654169
C        1.26781390       4.98712774       7.64945064      -0.00001594      -2.40877579      -0.21000668
C        3.73696957       5.00298601       7.30840126       0.03626515      -1.44626044       1.58650281
C        6.17534384       4.96414545       7.43481360       0.04939475       1.85016352      -1.03870794
C        8.63957809       4.92554140       7.39173464      -1.51699766       2.80987328       1.45402234
C       11.09077507       5.02303490       7.57283286      -0.46978631       0.87405835       0.30890750
C       -2.46595400       7.15700197       7.70858892      -0.08874625      -0.64758221      -0.64003191
C        0.01409100       7.03699718       7.60726729      -1.70034688       2.87209372       0.67193904
C        2.48291573       7.12292146       7.42596619      -0.22614524      -3.47690769       0.68806526
C        4.94179559       7.16823081       7.30837556       0.56957931      -3.09809755       0.30868922
C        7.39398879       7.12169551       7.45733622       0.24395732       0.10048771       0.06425495
C        9.81787400       7.11880016       7.52769677       0.19944459      -0.03554216       0.26764721
C       -3.74298266       9.26579991       7.60040342       1.41401495       0.40148959      -0.69020622
C       -1.26901993       9.26156708       7.67949703       1.07786095       0.81084958       0.04216326
C        1.16293366       9.20323954       7.47936808       2.35049788       0.41847378       1.08304533
C        3.63091925       9.16589961       7.51087715       1.65441001       2.16765671      -0.53585132
C        6.12239059       9.25733816       7.38274001       0.41042237      -0.32022421      -0.19144460
C        8.57612756       9.29132215       7.38591218       0.47282819      -2.03134299       0.60057910
C       -4.95651087      11.35486272       7.37196988       2.81365332       1.21043192       0.24000991
C       -2.48060070      11.39178182       7.48965831       0.92885961      -0.84022854       0.39524540
C        0.01726444      11.35306942       7.52107643      -0.17352838       1.52027504       0.81077810
C        2.48309610      11.37499798       7.44196558      -0.11895440      -2.36648320       0.37379623
C        4.89885053      11.30807304       7.39903231      -0.62910369       1.09451810       0.25921631
C        7.29912341      11.35356535       7.36770222       4.27748339       0.75130103      -0.19379022
72
Lattice="14.76 0.0 0.0 -7.38 12.782534959858314 0.0 0.0 0.0 15.0" Properties=species:S:1:pos:R:3:REF_forces:R:3 REF_energy=-11165.477226601344 config_type=fd_force_conv_snapshot_087 snapshot_index=87 split=validation degauss_Ry=0.00285013035 kgrid=8 lattice_temperature_K=450.0 trajectory_seed=1 p4_key=seed1:snapshot087 pbc="T T T"
C       -0.03135867       0.02795353       7.53842859       1.72276562      -0.78442815       0.72099518
C        2.46554029      -0.06957797       7.50943200      -1.33459486       0.55738611       0.15835296
C        4.88406666      -0.00868967       7.51901465       1.65109252      -0.52767213      -0.86314658
C        7.38916805       0.01613445       7.38390197       1.02317410      -1.22810259       0.43663425
C        9.89257583      -0.04453531       7.58777757      -1.74270864       2.21833958      -1.16040005
C       12.30057234      -0.00377601       7.71304094       1.32578626      -0.83772532      -1.13841120
C       -1.19626679       2.12532641       7.49572220      -2.94258772       2.09504953       0.14042337
C        1.23144352       2.15635997       7.68558892      -0.42253047      -1.89046891      -1.21310586
C        3.63809589       2.12087451       7.59326145       2.02906525      -0.60004740       0.26466139
C        6.10711101       2.08180329       7.63846754      -1.76164198       1.55280747       0.03595559
C        8.62759884       2.10471494       7.52552578      -4.10544085      -0.46917773       1.01532607
C       11.03225490       2.08248922       7.50026902       0.81241975       1.35729204       0.75633216
C       -2.47045696       4.32232613       7.37321788      -0.91012295      -2.16013623       1.30584067
C       -0.01950694       4.25977738       7.42235537      -0.61412933       2.04408152      -0.24147261
C        2.41742160       4.27894964       7.51045701       1.17399347       1.03921496       0.51639347
C        4.86918200       4.30283507       7.65908309      -0.01566470      -1.18835411      -0.13736761
C        7.32002531       4.24400574       7.69764505       0.98514852      -1.47387589      -0.43329773
C        9.83935093       4.19159537       7.48674954      -2.08577787       1.97642268       1.22373969
C       -3.70228534       6.37725119       7.36939747       0.06866620      -0.65802115       0.89483620
C       -1.19116678       6.43831748       7.30845869      -2.18196413      -0.33859526       0.16996123
C        1.20961171       6.43933186       7.38023451       2.21444127      -1.59055975       0.01005147
C        3.70501064       6.44803153       7.50582271       1.57654801      -0.14657011       0.62196580
C        6.14397454       6.44677753       7.56019940       0.37873995      -2.62370665       0.15287702
C        8.61624648       6.36084777       7.50147026      -0.44247220      -0.32352345       0.27486044
C       -4.92087847       8.46950168       7.42573456      -0.28703873       2.08426118       0.59227084
C       -2.48427031       8.50989349       7.44676450       2.77679321       0.59379036      -1.25143227
C        0.04627222       8.55243686       7.31295961      -0.99620349      -0.32201884      -0.10636500
C        2.51596514       8.51718644       7.51671144      -1.42892272       0.17914830      -0.32426033
C        4.91938157       8.57178768       7.56218453       1.60605810       0.44317617       0.35616798
C        7.29386897       8.50165025       7.49634401       3.22924258       1.99088154       0.32158741
C       -6.10850215      10.59636951       7.47231216      -2.75017587       0.74721760       0.38254287
C       -3.63961064      10.65946214       7.45913685      -1.07527108      -2.60113030      -0.50804433
C       -1.20072526      10.69015357       7.24402088       1.04183928      -1.46290833       0.87649370
C        1.30928411      10.64523481       7.34903586      -0.75643321       0.11223739       0.16512859
C        3.73546114      10.63520211       7.58222591      -0.72016857       0.67956751      -0.34019680
C        6.17183149      10.74055674       7.53138554       1.14826393      -4.27362185       0.74463261
C        1.22776325       0.67730257       7.61292605       0.12851402       1.46056374      -0.38341139
C        3.66195557       0.67019931       7.51619313      -0.07768768       0.98996908       0.62023184
C        6.13498791       0.69145897       7.54353036      -0.35479347      -0.97871484      -0.60199835
C        8.64961157       0.69834606       7.45297386      -0.45603837      -0.49256500       0.50318263
C       11.09790359       0.65957409       7.62145513      -0.79675350       1.67540255       0.17979364
C       13.51743889       0.75256879       7.60935214       0.05203630      -1.96981572      -0.01255598
C        0.00235128       2.86875834       7.49188602       0.40126050      -1.34768512       0.74081247
C        2.46303816       2.82565730       7.64878178      -1.90443231       2.36078898      -0.51358557
C        4.85070052       2.87058830       7.63402799       0.86322038      -1.53701987       0.15093095
C        7.29060914       2.76373511       7.68148030       3.61990319       2.40551023      -0.72214729
C        9.77763901       2.82037659       7.57987750       3.50797382      -1.29107097      -1.06595854
C       12.25087186       2.84012283       7.45630614       1.92683433       0.52756594      -0.25794541
C       -1.22664771       5.04740294       7.41903237      -0.45707786      -2.46865627      -0.97074931
C        1.17248440       5.00671813       7.37903905       2.02389245      -0.82353128       0.79042885
C        3.67507001       5.05779753       7.59001199      -1.32394612      -2.58751374      -0.61798367
C        6.10453875       4.95260981       7.64650042       0.83453483       2.60394540       0.09628524
C        8.60583621       4.91421546       7.60135965      -1.21434976       1.08509295      -0.56255840
C       11.00362040       4.94573315       7.48732255       3.07352603       0.95117550      -1.55106349
C       -2.47946371       7.10318772       7.33797366       1.04648450      -0.29058222       0.31912121
C        0.01887730       7.11583253       7.27753876      -0.06064152       2.19039297       0.62722524
C        2.50730617       7.10778751       7.50020105      -2.61364643       0.96617583      -0.57475186
C        4.96439826       7.18993102       7.54399922      -1.75714538      -2.20978475      -0.05376280
C        7.38181896       7.10812233       7.50015322      -0.33555827      -1.20335238       0.30829147
C        9.85128068       7.07426383       7.45150222      -0.85398960      -0.16331724      -0.41922120
C       -3.66493908       9.21612113       7.46800249      -1.68393142       0.32962262      -0.27982627
C       -1.18689016       9.26687061       7.30904818      -1.39089893      -0.93349685       0.21147272
C        1.27581693       9.22324012       7.40019055       0.85146401       0.54259713      -0.26400987
C        3.71534448       9.23311951       7.57184954      -0.97096580       0.68792076      -0.17524922
C        6.13891837       9.29625583       7.59664753       0.04900831      -0.73931891      -1.03952503
C        8.57988133       9.19461639       7.48460419       0.43210088      -0.77457285      -0.43382995
C       -4.89960950      11.26903567       7.45001618       0.61942117       2.77565550       0.39228221
C       -2.44372992      11.35569912       7.36436855       0.42126625       1.30364726       0.48287760
C        0.08481999      11.34201636       7.29538704      -1.98693515       1.74446650      -0.10538875
C        2.51691844      11.38878557       7.45899607       0.31128166      -3.17584179       0.82091107
C        4.95855105      11.31738681       7.61671461      -1.97943910       4.02930895       0.47003622
C        7.38464073      11.38712204       7.53641304       1.86531940       0.18680736      -0.52889186
72
Lattice="14.76 0.0 0.0 -7.38 12.782534959858314 0.0 0.0 0.0 15.0" Properties=species:S:1:pos:R:3:REF_forces:R:3 REF_energy=-11164.990626376442 config_type=fd_force_conv_snapshot_093 snapshot_index=93 split=validation degauss_Ry=0.00285013035 kgrid=8 lattice_temperature_K=450.0 trajectory_seed=1 p4_key=seed1:snapshot093 pbc="T T T"
C       -0.01587694       0.03202466       7.22665156       0.55500913      -0.64887933       1.01825173
C        2.47906260       0.06464301       7.54898829      -0.27646121      -2.34341166      -0.73799660
C        4.98477754       0.00241871       7.49053939      -2.91627093       1.47010485      -0.03292040
C        7.40149581       0.08005626       7.46590377       0.20973080      -3.71767659      -0.61635282
C        9.86433883      -0.05231117       7.46552235      -1.81398913      -0.11528107       1.19956515
C       12.26326869      -0.03090921       7.33067216       1.01317200      -0.74981544      -0.13084730
C       -1.30713085       2.07268768       7.58395090       2.49306041       1.47234274       0.79425208
C        1.21866576       2.14037163       7.73983667      -0.87437434      -0.83709822      -0.38965274
C        3.65630977       2.11992907       7.58801132       2.44874102       0.85282001      -0.12926710
C        6.18522731       2.09299611       7.47159211      -0.78484415       2.77763294      -1.12716623
C        8.71159996       2.13681939       7.48359515      -2.61981194       0.60160317      -0.73582658
C       11.06662379       2.07521388       7.48172113      -0.03389717       1.34223875       0.91563874
C       -2.43602316       4.25575822       7.65605354       0.53193219      -0.74265646      -0.48272179
C        0.03596304       4.22259714       7.83054186      -1.89132714       0.27935936      -0.21879445
C        2.48785764       4.25021473       7.72346323       0.17588634       0.57502928      -0.30033699
C        4.95949476       4.25307227       7.40747895      -1.69191572      -1.59208853       1.15931736
C        7.39554813       4.24993781       7.31848101       0.58865175       0.62976189       1.00215122
C        9.84728715       4.30757548       7.41387402       3.05789501       0.20433817       1.04419621
C       -3.64742983       6.45961814       7.47316298       0.59664789      -1.91613829       0.62689820
C       -1.17491491       6.37172838       7.60540197       0.09936182      -0.62727641       0.27707493
C        1.24181582       6.37873634       7.75968223       0.69515302      -0.63937756      -0.69930818
C        3.70466385       6.40032084       7.57857643      -1.16557748      -0.98795025       0.09089724
C        6.10574124       6.40984191       7.40077461      -0.11231067      -0.38937583      -0.00880269
C        8.54945410       6.41618951       7.37190902       1.37259114      -0.11072430       1.17088732
C       -4.94703501       8.51737880       7.41087562       0.51938084       0.33232588       1.28239735
C       -2.48680733       8.51302618       7.54591225       3.35380738      -0.38953653      -0.22199727
C       -0.00153087       8.51185785       7.55548424      -0.42758757      -0.46696787       0.37549522
C        2.44425941       8.54939823       7.52460935      -0.14198789      -1.21808429       0.65037931
C        4.86689747       8.50586808       7.40896685       1.06753874       1.13108176      -0.17942212
C        7.36209950       8.55626435       7.38734511      -1.38200292       1.36441734      -0.03640039
C       -6.12198099      10.65734193       7.40962429      -3.10430239       3.48974572      -0.30995600
C       -3.67997402      10.65894900       7.44563460      -1.97866314       0.17874952       1.04624898
C       -1.26967954      10.63502870       7.57366629       1.64273849       1.66309905      -0.43192116
C        1.19167936      10.66704085       7.60837394       0.55308054      -0.31521673      -0.94944181
C        3.66306532      10.62366577       7.31986473       0.40286410       0.20633103       1.05394275
C        6.08563677      10.60231049       7.23088643       1.70495507       2.50364590      -0.52863192
C        1.24720914       0.70868554       7.49287034      -1.59727290       1.97389580       0.22906704
C        3.71770735       0.74720241       7.54643413       0.44541071      -2.07101511       0.14496985
C        6.17751042       0.71962046       7.32809767       0.11522553      -0.23108612       1.88531513
C        8.64040264       0.70657221       7.49499394       1.30166031       0.70331910      -0.07027673
C       11.05292553       0.65665063       7.54242595       0.73093198       0.56462814      -1.61332327
C       13.48826989       0.70825899       7.27971199       0.04971074      -0.70899789       0.80295295
C       -0.06829492       2.82071868       7.86955373       1.83723190      -1.67199379      -1.78798370
C        2.47352793       2.83454879       7.69239664      -1.84715790       0.52663058       0.38312702
C        4.91004080       2.79215328       7.53154486       1.63577568       1.68678740      -0.78478425
C        7.44046184       2.85442085       7.37861404      -0.59111281      -1.77582444       0.65221791
C        9.89944791       2.88088147       7.46127131      -0.77729128      -0.75932055      -0.15394326
C       12.26315038       2.77245330       7.63073047       0.14511718       2.10141635      -0.48788662
C       -1.18394367       4.93569027       7.65698445      -0.47899395       0.59388009       0.77767669
C        1.23145079       4.94346285       7.78399748       1.74816554       0.28600694       0.40598747
C        3.73385154       4.96741853       7.55946126      -0.86431849       0.01200140       0.22922413
C        6.15694643       4.94997037       7.35991669       0.62322127       1.63811076      -0.22605885
C        8.62760129       4.98670747       7.45991222      -1.48429708       0.52584279      -1.60628924
C       11.17762901       5.04742147       7.51969850      -3.83660888      -1.77695342      -0.39825694
C       -2.37140435       7.09848899       7.55975077      -2.71522763       0.85304421      -0.40297491
C        0.04792434       7.08232430       7.66208727      -1.18809597       0.77929700      -0.28152551
C        2.46429460       7.08111546       7.63197013      -0.14271911       1.71743932      -0.00016172
C        4.87834838       7.13495400       7.51046224       1.20598108      -2.22320411      -0.57423224
C        7.29264492       7.16684824       7.37685273       2.76948434      -1.99509326      -0.00563303
C        9.82790188       7.08738754       7.47539803      -0.83390337       1.40489808      -1.08210533
C       -3.68128904       9.18731883       7.45209372      -1.68283664       2.40413958      -0.03646596
C       -1.22547371       9.22335001       7.54372201      -1.47670667       0.18533129       0.30747951
C        1.17403086       9.24968373       7.55231100       2.26697894      -0.42048284       0.27974862
C        3.70745444       9.24708609       7.45802247      -3.24550069      -1.46640349      -0.53667228
C        6.05865400       9.22115122       7.26095913       3.26251805      -0.72772144       0.98365676
C        8.60741417       9.30112912       7.52026668      -0.43409066      -3.86146296      -1.65138896
C       -4.95681352      11.41233579       7.46459217       3.11733711      -0.97331656      -0.17664610
C       -2.49363124      11.40004439       7.59668510       1.58023343      -2.19602395      -1.17283725
C       -0.00864636      11.39224616       7.50240383      -0.95933927       0.34754476       0.93637906
C        2.46293830      11.30753517       7.53413361      -1.02993173       1.41198815      -0.96783291
C        4.88228843      11.30208012       7.23409850      -0.16808921       2.42644776       0.18765736
C        7.34301945      11.40554096       7.23794660       0.65163607      -2.55082127       0.37198978
72
Lattice="14.76 0.0 0.0 -7.38 12.782534959858314 0.0 0.0 0.0 15.0" Properties=species:S:1:pos:R:3:REF_forces:R:3 REF_energy=-11166.009733655339 config_type=fd_force_conv_snapshot_099 snapshot_index=99 split=validation degauss_Ry=0.00285013035 kgrid=8 lattice_temperature_K=450.0 trajectory_seed=1 p4_key=seed1:snapshot099 pbc="T T T"
C        0.04138969       0.02034406       7.57996237      -0.87205006       0.05029361       0.00857900
C        2.47107839       0.02776327       7.48826421       0.39475175      -1.51427435      -0.97692561
C        4.91803243      -0.02206287       7.30364526      -0.75648128       1.04767749       1.41500174
C        7.40644552       0.03146234       7.37310806      -1.10318760      -1.45517523       0.67657577
C        9.90351873       0.02990588       7.41080334      -1.45367833      -1.26779169       0.63752200
C       12.32250462      -0.06194275       7.53852406      -0.82980709       3.42238848       0.60474223
C       -1.23714960       2.12028344       7.44474213       0.32495967      -0.86651859       0.27704896
C        1.23736385       2.17961631       7.40699076       1.48786089      -1.15583223      -0.13855958
C        3.65298220       2.12023914       7.37633779       2.90900371       1.51775151       0.02376933
C        6.12588741       2.11254779       7.43729466      -0.75938226      -1.34329059       0.30901369
C        8.59039881       2.10641550       7.41780871       0.33730637       0.70594342       0.13670324
C       11.08112886       2.16537177       7.31181849       0.15034294      -1.82416453       1.26452176
C       -2.45361972       4.24599681       7.31829462      -1.37087492      -0.47386280       1.25228485
C        0.02884214       4.23428331       7.43538631      -2.21118189       1.47104767      -0.71176466
C        2.46988830       4.29641365       7.38612386      -1.34077888       1.71640959       0.33800005
C        4.87741960       4.30977546       7.53930882      -0.39191505      -2.51867143      -0.45985440
C        7.32048858       4.22993043       7.71582493       1.33839444      -0.81810060      -1.68510127
C        9.77228030       4.21270149       7.47923191       3.00577720       1.11450791       0.10279528
C       -3.66141474       6.31964040       7.46152166      -0.98936615       1.78623870       0.32541913
C       -1.24299981       6.35373371       7.37965634       1.43235900      -0.09179018      -0.71684027
C        1.24943904       6.43103382       7.33830970      -1.46505006      -0.02049966       0.56864677
C        3.70503291       6.44626479       7.54570893      -0.08103654       1.46968216       0.35954358
C        6.14433051       6.36966981       7.65951505      -1.39510397       1.38980956       0.36602636
C        8.57360236       6.40129830       7.58973929       1.43897239      -2.06437627       0.50696267
C       -4.96073230       8.47347173       7.48902028       1.36700310      -0.27322753       0.31908290
C       -2.47328923       8.45512028       7.48275817       0.15530492       1.47744715      -0.05995196
C       -0.00889908       8.50065239       7.48393720      -1.68275462       1.29182610      -0.33162191
C        2.42392236       8.56022942       7.59287344       1.39983120       0.17406548      -0.23248378
C        4.91476069       8.58208572       7.71319418       0.59924701       0.85899682       0.71147104
C        7.29946539       8.48231231       7.64610578       1.89220749       2.38000978       1.51402341
C       -6.12751195      10.63488890       7.60013559      -0.52744844      -0.30956853       0.16828333
C       -3.63427398      10.59957327       7.35120861      -2.05263095       1.17398344       1.10188817
C       -1.18904444      10.64517938       7.51005797      -1.11298171       0.82438052      -0.23324996
C        1.26544552      10.69290944       7.50705050       0.51675034      -1.30815286      -0.26651875
C        3.73258197      10.67200158       7.66927311      -0.45584656      -0.25647397      -0.03745455
C        6.17464981      10.71155984       7.76005609       0.59280409      -1.56821429       1.06989182
C        1.27202121       0.75116569       7.45024774      -1.35617464      -0.22828671       0.72845497
C        3.68774512       0.72707632       7.39873366       0.06645196      -1.06135730      -0.45948159
C        6.11641518       0.67717788       7.40834406       1.86211118       0.92043436      -0.94897952
C        8.63118208       0.71880460       7.41954861       0.52812927      -0.70876958      -0.68961049
C       11.10361231       0.74518700       7.47779390       0.31412813      -1.09939266      -1.05524064
C       13.51027365       0.67883595       7.52357110       2.20693545       0.85293159      -0.14135000
C        0.01077669       2.82285535       7.46287859      -0.51052519       0.69265519      -0.31899317
C        2.49428620       2.89873823       7.33131072      -2.06754155      -1.09753349       0.67601090
C        4.93557507       2.82834389       7.44629601      -2.85560395       1.68556021       0.00742175
C        7.32407897       2.77358847       7.52423780       2.24967104       2.91063379       0.48837796
C        9.82989607       2.81137900       7.35852756      -1.05580063       0.61894861       0.35616232
C       12.31362447       2.83211409       7.40808105      -0.15289451       0.63264256      -0.97673458
C       -1.25398430       4.92585335       7.33228206       2.08896295       0.83145722       0.51078255
C        1.19338353       5.03035584       7.41349892       2.25397738      -2.29940003      -0.53161774
C        3.65060732       5.05639008       7.49256840       1.60836130      -1.87199296      -0.25476521
C        6.09450441       4.95065934       7.62190138       1.44161831       0.91447737       0.66952478
C        8.61065326       4.94116183       7.62054787      -3.42017116       0.64170904       0.22283751
C       11.05487253       4.94704382       7.49290723      -0.04727127      -2.00861187      -1.37985836
C       -2.42396445       7.06100773       7.43221062      -1.99810300      -0.79694145       0.16729937
C       -0.02533297       7.10314467       7.29746599       1.26754460      -0.18056678       1.29232104
C        2.46588952       7.13563117       7.51903212      -0.20466187       0.63646425      -0.49035334
C        4.95185258       7.19483340       7.65606175      -1.01952751      -3.38792258      -0.28218063
C        7.33294951       7.09136429       7.70331949       0.98122398      -0.83339069      -0.88162510
C        9.84958970       7.02480366       7.51080191      -0.91160519       1.84186117      -0.01132237
C       -3.68107076       9.17864023       7.44393329      -1.51098231       0.14787648      -0.17667361
C       -1.28994305       9.22137753       7.54590230       2.90396435      -0.37708982      -0.53054431
C        1.19773110       9.25740144       7.52958349       0.71269848      -0.20847687       0.15472025
C        3.68954044       9.28717455       7.68054269      -0.93136387      -1.80622877       0.01393204
C        6.15381736       9.30021469       7.83845502      -0.70594240      -1.67669119      -1.60895548
C        8.56864531       9.16891027       7.63189425       0.62075815       1.22732329      -0.93233317
C       -4.90069093      11.35602281       7.42813607       0.21947245      -0.72262268       0.54702071
C       -2.44987442      11.37279113       7.43916547       1.21336940      -2.05447778      -0.89410987
C        0.06432672      11.38645177       7.44304986      -1.94993749       0.03960296       0.13890796
C        2.52907057      11.34770918       7.48473976      -1.18261464       2.41729463       0.38135862
C        4.95472714      11.36250527       7.75599971      -0.78608240       0.15515888      -0.98617927
C        7.39926770      11.38373408       7.73283736       1.63610478       0.51024776      -1.01169387
72
Lattice="14.76 0.0 0.0 -7.38 12.782534959858314 0.0 0.0 0.0 15.0" Properties=species:S:1:pos:R:3:REF_forces:R:3 REF_energy=-11165.581769200675 config_type=fd_force_conv_snapshot_105 snapshot_index=105 split=validation degauss_Ry=0.00285013035 kgrid=8 lattice_temperature_K=450.0 trajectory_seed=1 p4_key=seed1:snapshot105 pbc="T T T"
C       -0.05510039      -0.02758745       7.37131459       1.86181293       0.85049341       0.34629134
C        2.51276291      -0.00862928       7.36780869      -1.21346633       0.70102593       1.61983073
C        4.97503868       0.02681931       7.61046882      -2.37919062       1.01420789      -0.70138666
C        7.43658172      -0.01684467       7.57445985      -1.05728030       2.90185810      -0.54794168
C        9.85333871      -0.06241996       7.58023071       0.26189848       3.46973997      -0.71902725
C       12.33852740       0.02679713       7.40101584      -2.98361172      -1.27194273       0.31910167
C       -1.26653966       2.13350727       7.49257594       0.08393135      -0.89656656       0.00239473
C        1.22763984       2.09930968       7.50133133      -0.97224801       0.38542122       0.22603211
C        3.60925113       2.08447283       7.65615888       2.03314893       3.51290545      -0.26180386
C        6.13319560       2.10968170       7.64714766      -0.66048966       1.22365510       0.31158094
C        8.59491184       2.11316297       7.54364016       0.76983714       2.30419103       0.92587430
C       11.02895321       2.10181735       7.58163963       1.14652535      -0.10271043      -0.53827639
C       -2.45109038       4.21903050       7.39938584      -0.69045150       1.14060333       0.71347676
C       -0.04169645       4.23080393       7.63867769       1.33411998       0.14882419      -1.47759756
C        2.46625258       4.26625330       7.69504994      -2.27365506       1.11856949      -1.01318331
C        4.89098978       4.28488321       7.75478815       1.08564008      -2.47181718      -1.63679153
C        7.39080681       4.25043945       7.54012038      -0.14231107       0.10037638       1.19219097
C        9.90805055       4.26905191       7.49348678      -0.84498020       0.66641760      -0.03291603
C       -3.63975508       6.42631951       7.46107906      -1.05700776      -0.54214358      -0.08537477
C       -1.29129244       6.37041717       7.47589497       2.93268126       0.97519989       0.16098860
C        1.17337925       6.37297892       7.48166923       1.32862990       0.33966304       0.39601134
C        3.64574368       6.36951342       7.51218355       1.02218628       0.73404378      -0.45771344
C        6.14162276       6.41390615       7.33896033      -0.64571225      -1.40316181       0.72208841
C        8.65857215       6.38171889       7.38701625      -2.62406917      -1.09834776      -0.23641294
C       -4.92850803       8.53467639       7.38501626       1.08442318      -0.67044266       0.23223566
C       -2.39594744       8.57352838       7.57894963      -1.51971737      -0.80221453      -0.06047106
C        0.04314100       8.53018403       7.57739166      -0.74748088      -0.78082655       0.12778871
C        2.46107034       8.49826181       7.47312726       0.87390665       0.73702240       0.16573434
C        4.85805786       8.53929585       7.22159855       2.57657344      -2.14304637       2.05979662
C        7.36799116       8.55203532       7.32911735       0.21225356      -1.45378657      -0.86224541
C       -6.17558329      10.70395777       7.32284478       0.82157468      -0.99043496       0.56346677
C       -3.63470904      10.65935174       7.53561084      -1.67237045       1.42057512       0.15522547
C       -1.18570246      10.68945665       7.68484433      -0.24396992       0.00267138      -0.28578146
C        1.24124061      10.65505933       7.47664947       1.06714665      -0.58355351       1.89130760
C        3.70789089      10.68715229       7.41709282      -0.15605671      -1.18367059       0.71406323
C        6.09426331      10.63390605       7.37504174       1.00906235      -0.86222767      -0.21929710
C        1.25514825       0.64949099       7.41129832      -1.46589827       1.63369309      -0.42212757
C        3.69719539       0.73545294       7.55518836       0.35575506      -2.50202816      -0.34099693
C        6.15913433       0.72225252       7.55053049       2.41029351      -1.10546329       0.94461739
C        8.65900838       0.72767694       7.46137222      -1.10907337      -2.08249097       1.47561344
C       11.06432473       0.67079052       7.52751064       0.48767116       0.68695686       0.16416057
C       13.50234803       0.72005361       7.43163487       1.91340160       0.59588015      -0.17310312
C       -0.04133512       2.79474918       7.51900898       1.27433437       1.10119706       0.57183314
C        2.42030134       2.89473978       7.63708849      -0.10911608      -3.88484894      -0.06203661
C        4.86804622       2.77739777       7.66816350       0.52898853       2.52360254       0.97387680
C        7.35000972       2.83514047       7.75189433       1.20325468      -0.18958209      -2.40659087
C        9.85495582       2.86600460       7.57587381      -1.12526927      -1.51180300      -0.35328577
C       12.26501389       2.81265588       7.51738614      -0.02225444       0.17231122      -0.35828091
C       -1.25153965       4.94226188       7.48041301       0.17960261       0.23752031       0.19778031
C        1.19692502       4.96946118       7.56585163       0.09744172      -1.10087284       0.81707447
C        3.66975728       4.96328209       7.61240839       0.48453416       0.60104859       0.99580702
C        6.14124664       4.96689758       7.56667314       0.19633715       0.69961234      -0.26186789
C        8.66447810       4.94223460       7.46776201      -1.25520974       0.87545086      -0.16228649
C       11.13159748       5.01635577       7.40470934      -0.70465967      -1.67946335       0.39418714
C       -2.44004720       7.15510646       7.48352766      -0.17912104      -0.38035975       0.15761942
C       -0.01613045       7.10202835       7.50338547      -1.29894497      -0.28234184       0.04955081
C        2.42474028       7.08280715       7.48818600      -0.00502805      -0.03340531      -0.08725450
C        4.88201494       7.09521277       7.36424559      -0.17383126       0.26432277      -0.53951129
C        7.37036368       7.10133309       7.26588684       1.49197697       0.65112442       0.85298301
C        9.85390373       7.05106967       7.47005172       0.73229466       3.60784318      -0.75004401
C       -3.67184075       9.25124132       7.51935385       0.48299253      -0.28798824      -0.17069940
C       -1.16921449       9.24987230       7.68007106      -0.58206459       1.21111146      -0.57419470
C        1.26745236       9.22422773       7.54020577      -0.76119977       0.64493475      -0.52639455
C        3.70810498       9.24259488       7.43388732      -2.36609111       0.85718882      -0.98766588
C        6.11133481       9.20314911       7.39147566       0.08210587       1.07881586      -1.45811297
C        8.62120804       9.26455311       7.23700348      -0.64443338       0.15374580       1.45658213
C       -4.90047098      11.40150484       7.50017119      -0.00776267      -2.58060467      -1.60775194
C       -2.41850694      11.43154437       7.59138878       0.25917337      -3.26239541       0.48897523
C        0.05267360      11.39451414       7.64298964      -0.81128255      -1.75435342      -0.69679261
C        2.47289301      11.35706754       7.59606266      -0.15226921      -1.72586302      -1.54213533
C        4.94128874      11.39055164       7.33813131      -1.78310324      -0.31638967       0.53053634
C        7.29026768      11.34357312       7.36581936       2.75517049       0.59332319      -0.29932294
72
Lattice="14.76 0.0 0.0 -7.38 12.782534959858314 0.0 0.0 0.0 15.0" Properties=species:S:1:pos:R:3:REF_forces:R:3 REF_energy=-11166.025131489014 config_type=fd_force_conv_snapshot_111 snapshot_index=111 split=validation degauss_Ry=0.00285013035 kgrid=8 lattice_temperature_K=450.0 trajectory_seed=1 p4_key=seed1:snapshot111 pbc="T T T"
C        0.01068294       0.04456743       7.55654327       0.07884159      -1.21545405      -0.23723749
C        2.43744635       0.03236538       7.49507029       1.94417874      -1.69843990      -0.10384891
C        4.92613992      -0.00868681       7.47189034      -0.70038856       1.11966658      -0.68038229
C        7.35765194      -0.00181259       7.24406538       0.07761929       0.88134974       0.42263408
C        9.80318648       0.01254323       7.36432240       1.16325526      -0.80988824       0.00270017
C       12.25906103      -0.04298065       7.46834869       0.46700309       2.11366149       1.31610246
C       -1.18944785       2.15175722       7.63094978      -2.85774671      -2.08343405      -0.70063512
C        1.23445739       2.12707539       7.42918437       0.69626039       0.79808585      -1.39743751
C        3.70974066       2.13469630       7.33987175      -0.36617497      -0.52407670      -0.05338921
C        6.12295494       2.15048667       7.29232186       1.08943477      -0.93393754      -0.98384985
C        8.61751984       2.13511814       7.29318028      -0.15169689      -1.45982584       0.30169762
C       11.06193161       2.09013856       7.58957491       0.46567383       0.98659348      -0.24953610
C       -2.44177828       4.23161104       7.68522565      -1.01562509       0.12296892      -1.13460546
C       -0.01499309       4.25405478       7.52243731       2.33191035      -0.48986534      -0.81479236
C        2.46788566       4.24085407       7.36470221      -0.62057637       0.70520603      -0.18712026
C        4.91261171       4.28327082       7.34689723       0.60058553      -0.88939498       0.73835475
C        7.39256266       4.23118215       7.28031202       0.52747827       1.65606786       0.71921006
C        9.82141146       4.21801600       7.54941365       1.27266933       1.46744967      -0.51889773
C       -3.65210804       6.31560753       7.62802443      -0.68364862       2.74941379      -0.37722968
C       -1.21709418       6.29932350       7.49381676      -0.13651247       3.84328475       0.04382754
C        1.24105164       6.41177833       7.47695424      -0.83945773      -0.04780786      -0.16815580
C        3.73130873       6.44508150       7.52661282      -1.09752989      -2.34765013      -0.22881944
C        6.17176797       6.33978103       7.51726828      -0.00828538       3.00222240       0.10382757
C        8.64436123       6.41257012       7.59587758      -0.12376314       0.30452557      -0.38088579
C       -4.92130431       8.52383607       7.58240786       1.50271518       0.70151676       1.61061847
C       -2.48895701       8.50536265       7.59978748       1.74596159      -0.32697130      -0.39518575
C       -0.04248451       8.53552324       7.42032821      -0.14094659       0.68775981       0.84247337
C        2.44860126       8.49027244       7.49638610      -0.58854197       1.91728474       0.91913596
C        4.94751778       8.54681522       7.74892632      -1.80397442       0.36419882      -0.96820572
C        7.34813106       8.51396030       7.60196194       0.30292840       2.27613027       1.36571678
C       -6.16602498      10.64428922       7.62076267       0.86057342       0.76148362       0.26531676
C       -3.65680140      10.66816673       7.68107521      -0.05897828       0.50048246      -1.13800934
C       -1.22874330      10.66649356       7.41701920       0.71750799      -0.01617635       0.80766141
C        1.24843337      10.66839649       7.38088199      -0.63025735      -0.65107737       0.24086454
C        3.67735167      10.59379097       7.67550933      -2.05058435       2.93285198      -1.82000114
C        6.12005928      10.74889859       7.69505939       0.36483080      -1.99471994       0.08622040
C        1.24300066       0.73890891       7.38448495      -1.20295206      -0.60894419       1.45214595
C        3.69383209       0.72877248       7.49237800      -0.11893023      -0.81540608      -0.52948296
C        6.11155789       0.71493509       7.25729550       0.92712283       0.30448341       0.85228702
C        8.58507059       0.70033914       7.28387992       0.07885059       1.06468045      -0.25015497
C       11.05192024       0.69465003       7.47764801      -0.19378919      -0.01595370      -0.22167357
C       13.52150818       0.66402272       7.62084105      -0.48204096       2.65132415      -0.99489222
C        0.01189644       2.84360824       7.47955891       0.31429062      -0.17067523       0.89679975
C        2.47807740       2.79961325       7.25416942      -0.86112493       1.99537814       1.46949679
C        4.91362546       2.86553818       7.31168844       0.26767472      -0.06815789      -0.04903839
C        7.39453182       2.82134417       7.19620284      -0.68262378       0.73621199       0.77163074
C        9.84247686       2.79847503       7.53925612      -0.86633347       0.84765260      -0.79978458
C       12.27477469       2.84775875       7.61185696       1.92507775      -2.05299476       0.83540952
C       -1.21117863       4.90743713       7.57341321      -1.19462915       1.15383345       0.32765059
C        1.21011523       4.99079130       7.40374276       1.01887830      -0.90509619       0.60326642
C        3.69914835       4.95967884       7.46253894      -0.43974760       1.94878718      -0.67588980
C        6.16760866       4.94461825       7.45049507      -0.18223516      -0.02949287      -1.19650117
C        8.62902232       5.01262824       7.39521989      -0.47030079      -2.44206772       0.84832212
C       11.09186229       4.93137222       7.58503608      -1.07117968      -0.98208479       0.93079000
C       -2.44507472       7.05636817       7.52062463       0.05017482      -0.44364539       0.78228616
C       -0.02546299       7.13928644       7.46226894       0.86222819      -2.90799455      -0.05553120
C        2.48281094       7.10355677       7.53581778      -0.54924369      -0.52580397      -0.48217260
C        4.93998297       7.15041355       7.51441237       1.45110157      -1.79555200       1.20885043
C        7.39676970       7.12631249       7.58694000      -0.74872915      -2.11296780      -0.30838377
C        9.89428574       7.10554460       7.68565239      -0.84158737      -0.73751554      -0.99245379
C       -3.63887086       9.27198781       7.65342964      -3.35400587      -1.89047533      -0.17336769
C       -1.28704041       9.25423249       7.53121081       1.74950715      -0.71291831      -0.85358774
C        1.20243840       9.22730278       7.45828257       0.80267707       0.19389537      -0.59661369
C        3.65765885       9.21734579       7.69083701       0.98609494      -1.18363922      -0.11360265
C        6.11865849       9.30904129       7.74934937       1.65097527      -0.97192790      -0.62423711
C        8.59767662       9.22182679       7.67967808      -0.23000086      -0.11883665      -1.22301952
C       -4.90066691      11.34867694       7.58828964      -1.23797589       1.22347847       0.33567552
C       -2.43112216      11.37347268       7.49102347      -0.86402642       0.02558788       0.75493579
C        0.03298809      11.39569730       7.39494986      -1.66078480      -1.64207643      -1.02926119
C        2.46010692      11.37727726       7.36433572       0.55255835      -1.41694935       1.52336834
C        4.83817488      11.36552442       7.60357651       2.52497629      -0.95662033       0.42173805
C        7.38374431      11.41855455       7.62664393      -0.24468572      -1.04100265      -0.09314207
72
Lattice="14.76 0.0 0.0 -7.38 12.782534959858314 0.0 0.0 0.0 15.0" Properties=species:S:1:pos:R:3:REF_forces:R:3 REF_energy=-11165.760165536673 config_type=fd_force_conv_snapshot_117 snapshot_index=117 split=validation degauss_Ry=0.00285013035 kgrid=8 lattice_temperature_K=450.0 trajectory_seed=1 p4_key=seed1:snapshot117 pbc="T T T"
C       -0.05000027       0.02151760       7.50247161       1.92236550      -1.74276803      -0.85875411
C        2.47690648      -0.02945332       7.44238580      -0.35295461       0.12142395      -0.73745409
C        4.91298787       0.04741197       7.57132662       1.00237388      -0.98056707       0.37389856
C        7.40509323       0.04868745       7.81633378       0.81938358      -0.74978588      -1.38567497
C        9.85011311      -0.04237571       7.57232609       1.25527864       2.03071513       0.24030610
C       12.29065077       0.01289411       7.45251599       0.26827636      -0.55616021      -1.16236489
C       -1.25898836       2.14186365       7.56188847       0.52345655      -1.53381730      -0.67158449
C        1.17263177       2.09526099       7.41381350       2.54403356       0.79915568       0.53390680
C        3.64643617       2.14384771       7.50049760       1.63791921      -0.47174755      -0.08970990
C        6.13832718       2.16774596       7.73322836       0.97210042      -0.26437497      -0.53722995
C        8.62356927       2.17856273       7.64229982       0.61677268      -1.23831193       0.45313174
C       11.07954703       2.10262451       7.56446142      -0.45749233       0.49883232      -0.27731045
C       -2.42671855       4.25522119       7.63124959      -1.67633946       0.13780727      -0.96220888
C       -0.03075305       4.22006533       7.59693458       2.35550639       1.06930792      -0.16024015
C        2.45408689       4.26321430       7.49735729       0.38302238      -0.00528490       0.04178223
C        4.94166561       4.18660198       7.56112857      -0.59231481       5.69412781      -0.95773747
C        7.35672340       4.26452974       7.59579811       1.79909190       2.95393605      -1.15969608
C        9.89358218       4.26078495       7.54679026      -1.64727854       0.64584929      -0.55434553
C       -3.68608401       6.40818790       7.37650196      -2.59362448      -0.49640237       0.60475535
C       -1.25802839       6.35861390       7.50336125      -0.36389157       1.01266909       0.63148865
C        1.21065273       6.37123623       7.53837475      -0.55340322       1.26111299      -0.15569212
C        3.69496331       6.42574662       7.36804357      -0.57817065      -2.87278844       0.93558587
C        6.16566180       6.38980902       7.32974397      -0.04521722       0.86135504       0.69431612
C        8.56751032       6.36286223       7.36658473       2.23555569       0.95194709       0.32604673
C       -4.92778126       8.50434508       7.43512372      -0.35687400      -0.23186208      -0.44137897
C       -2.40965487       8.56606640       7.49445629      -2.13451827      -3.00615927      -0.14773096
C        0.00164065       8.50762743       7.66074958       0.04997787       0.06405158      -1.03383904
C        2.47080661       8.56757510       7.41202702      -0.29694467      -1.43493859       0.98815773
C        4.84311085       8.47522310       7.33070218       5.79141578      -0.09238668       0.22275729
C        7.41115624       8.56252758       7.37229891      -0.82986828      -2.13568530      -0.05872168
C       -6.11585650      10.68159966       7.48174882      -1.19788828      -0.74259219      -0.69200779
C       -3.66735288      10.61626308       7.36105532      -0.44325124      -0.20740446       0.92774684
C       -1.26142721      10.68246294       7.54723704       1.20650738       0.66896093       0.13146436
C        1.14624123      10.64656618       7.59259099       4.09383978       0.72336316       0.45231310
C        3.73813082      10.62668834       7.33894570      -1.16233917       2.49244077       1.61329550
C        6.15893093      10.62016612       7.31744533       0.25303023      -0.03027834       0.97403132
C        1.22634119       0.68699836       7.42585083      -0.68506478      -0.23489933       0.43668130
C        3.68413117       0.72073957       7.46053452      -0.26595183       0.19932169       0.42566233
C        6.18043833       0.75430516       7.77471430      -1.30272064      -0.35972381      -0.52452793
C        8.69587486       0.72324850       7.72634684      -3.75577005       0.86322783      -0.03719512
C       11.06838485       0.70636334       7.45435545       0.01171523      -0.85471645       0.83783819
C       13.50549536       0.71417645       7.41489913      -0.05024733       1.09261111       1.29889252
C       -0.02414374       2.81298220       7.54009053      -0.33838546       0.21451614      -0.04353675
C        2.45139667       2.83408485       7.44908538      -2.04697658       0.31910630       0.04893118
C        4.90828594       2.85048302       7.57347517      -0.27769405      -3.09443167       0.66612706
C        7.37853754       2.90741958       7.66089910      -0.23344820      -3.33362911       0.62242731
C        9.87739620       2.83623730       7.58675156      -0.88470169       0.84825630       0.09980663
C       12.28664495       2.81802813       7.59885615       0.39591903       1.44351502       0.23321783
C       -1.19739235       4.95880442       7.59697012      -2.07850782      -0.61897920      -0.13362023
C        1.20203754       4.97081894       7.54937332       0.77808704      -1.19087431      -0.15777626
C        3.72735990       4.94400003       7.49764157      -1.77302477       1.07945067      -0.48462646
C        6.14795872       4.99905500       7.45956133       0.09386043      -2.17650567       0.72170609
C        8.62673952       4.98352259       7.47748881      -0.59984197      -2.32330358       0.41364602
C       11.08856177       4.99156914       7.46825552       1.26262377      -0.96226981       0.66177984
C       -2.50586715       7.08914820       7.46588519       3.35290596       1.83606976      -0.00065795
C       -0.05671931       7.07538259       7.57867942       1.71689450       0.77962481       0.05065099
C        2.43281444       7.12460687       7.41665984       0.84985552      -0.16655298       0.14202183
C        4.92877386       7.08304339       7.37586432      -1.03783685       0.05898753      -0.76860841
C        7.41202246       7.11065765       7.34977045      -2.05810457       0.49088967      -0.13215367
C        9.78728494       7.08866994       7.39324786       1.76714620       0.07345513      -0.26003160
C       -3.69144028       9.17021448       7.44545746       1.55077141       2.36773430      -0.37490669
C       -1.19696620       9.27085143       7.54926681      -0.54107503      -0.56646468       0.35068459
C        1.23767690       9.22739788       7.60880551      -0.99108339       0.28926042      -0.62466777
C        3.74533952       9.23173369       7.40176576      -4.13560092       0.48692889      -0.82996521
C        6.13033156       9.15391411       7.35633336      -0.03633329       2.82466073      -0.54051556
C        8.63251573       9.27768912       7.40884881      -0.39498007      -0.86696262       0.33923546
C       -4.87741284      11.31181746       7.36443786      -0.59455629       2.42124539       0.88085994
C       -2.48736255      11.38715397       7.52543599       0.70284062      -0.08027473      -0.62480455
C       -0.01784632      11.40008739       7.58154140      -0.93862826       0.39942088       1.41063086
C        2.48225886      11.36655361       7.62337615      -0.95074098      -3.07471671      -1.84520283
C        4.95409579      11.38624677       7.31611778      -0.86267582      -1.50216137       0.33486896
C        7.37797105      11.36054156       7.49355784      -0.09620528       0.12444268      -0.69417471
72
Lattice="14.76 0.0 0.0 -7.38 12.782534959858314 0.0 0.0 0.0 15.0" Properties=species:S:1:pos:R:3:REF_forces:R:3 REF_energy=-11165.395827964276 config_type=fd_force_conv_snapshot_003 snapshot_index=3 split=validation degauss_Ry=0.00285013035 kgrid=8 lattice_temperature_K=450.0 trajectory_seed=2 p4_key=seed2:snapshot003 pbc="T T T"
C        0.03160171      -0.08775355       7.41743302      -0.83901344       3.59794906      -0.46101654
C        2.42433333       0.01319132       7.47112835       0.40937850      -1.84178995       0.25347838
C        4.85456670       0.02566661       7.41125377       3.11903507      -3.79625850      -0.12018236
C        7.38391907       0.02291454       7.45783341      -0.45654642      -1.42437701       0.36898647
C        9.83356927       0.05474719       7.58409444      -1.15046736      -0.36059825      -0.25558308
C       12.30535169      -0.02185163       7.38554248      -0.59453187       1.95787217       1.25238358
C       -1.18189017       2.11809701       7.58338366      -1.17291669       0.07770697      -0.64667461
C        1.26061417       2.19541174       7.64035598      -0.98509041      -2.56778207      -1.39639287
C        3.70899154       2.09154918       7.35971459      -1.74089755       0.96896625       1.59679853
C        6.12015641       2.10087196       7.47171678       0.20420318       0.71819627      -0.68684887
C        8.53792005       2.20180571       7.43834508       2.01382838      -1.52262503      -0.22560222
C       11.04291970       2.18071855       7.50731414       1.49485121      -2.57256638       0.37292874
C       -2.50769883       4.24238058       7.59841773       2.43834888       0.97976000      -0.07533487
C       -0.00678442       4.28104732       7.56350225      -1.89799684      -0.78625543       0.57045863
C        2.41018346       4.26003631       7.52263084       0.12304348      -1.08078070      -0.78168632
C        4.94399279       4.26900555       7.38550043      -2.31722524      -1.07073823       0.91904005
C        7.35106941       4.28490869       7.53733128       0.69521601       1.49398089      -0.40447438
C        9.81462562       4.24052661       7.48506905       0.54799182       1.88397918      -0.61130677
C       -3.67699094       6.36624263       7.54944932      -0.08953918       0.29714188      -1.40433835
C       -1.22190403       6.41476889       7.50177394       2.02372353      -1.85586289       0.51880568
C        1.26105362       6.41926639       7.51382658       0.48520470      -2.35656594       0.24618981
C        3.77578149       6.30723067       7.50246319      -4.06429343       1.92191504      -0.05268833
C        6.11236783       6.43980521       7.54042607       2.38408729       0.47610711       0.63732814
C        8.60913776       6.39719045       7.45451960       0.35027398       1.18329624       0.89190746
C       -4.86549329       8.50203392       7.32316346      -1.54249812      -0.87503202       1.72810580
C       -2.44332362       8.48239648       7.54986877       1.13803068       1.51626695      -1.51484282
C        0.01979800       8.54730008       7.54501618      -0.72197194      -0.56794280       0.43877495
C        2.46182367       8.50225779       7.58632866      -0.14071673      -0.50400024       0.57063449
C        4.86331627       8.54265011       7.65455005       2.03424628      -0.03967238      -1.32788351
C        7.36242692       8.53447660       7.61722102       2.53807528      -0.86351657      -0.65691249
C       -6.10268254      10.59170029       7.42575290      -0.02448616       0.66185852      -0.02100257
C       -3.68169647      10.63846069       7.41278794       1.43844197      -1.03104913       0.06917939
C       -1.26220548      10.70216969       7.46586237       2.30548198      -2.39584520       0.55918280
C        1.23171953      10.66923227       7.66219998       0.03901752      -0.82896840      -0.16204686
C        3.71258562      10.70279346       7.54009215      -1.86548318      -1.86674148      -0.13618491
C        6.15027019      10.61628537       7.35480008       1.45387296      -0.20480225       0.19961968
C        1.21982854       0.75966826       7.50346245      -0.13409049      -2.23611902       0.29198399
C        3.65847894       0.65049013       7.47942721      -0.43914776       3.51900205      -0.93044084
C        6.12762308       0.66807011       7.39514753      -0.39076474       2.08562875       0.51350869
C        8.57587419       0.79130497       7.48820030       0.44135017      -1.53294081       0.22076700
C       11.05512006       0.72958567       7.60862482       1.12037029       0.22483809      -1.75869498
C       13.53030091       0.70362834       7.41432568       1.35589285      -1.58216664       0.43503811
C        0.02923049       2.86240822       7.57432912      -0.64941309      -0.06051863       0.75253644
C        2.48634527       2.83574219       7.50572772       0.00761586       0.29713057       0.01626866
C        4.89692287       2.83600921       7.43617396       1.63009432      -0.46082242      -0.69263359
C        7.32678437       2.87941307       7.44137634      -0.53556619      -0.29602576       0.62748518
C        9.81634411       2.84265793       7.40744388      -0.83588286       0.96351782       0.89587159
C       12.31985706       2.82740834       7.57225758      -0.88068485       0.48890529      -0.07924063
C       -1.23600401       4.98241829       7.65079285      -1.15787188       0.05379879      -1.35447437
C        1.16641262       4.96451712       7.52043407       3.16043343       1.74585361       0.17573644
C        3.63161005       4.89302000       7.40694834       3.83643224       2.27288322       0.40402212
C        6.13756566       5.03131165       7.54586961      -0.33539269      -1.26586439      -0.93274352
C        8.62664492       5.01365534       7.49670349      -2.04572857      -2.63535374       0.04152460
C       11.04313740       4.97108121       7.49922457       0.31061317      -1.59766371       0.84148118
C       -2.43813168       7.06543929       7.45686720      -0.72221336       1.31093788       1.22906239
C        0.06996365       7.10601335       7.50313630      -2.98724161       1.40996161       0.02261722
C        2.53258571       7.04577863       7.56266701      -0.70864925       1.31076588      -0.31349744
C        4.89574597       7.14369124       7.54706576       0.89987685      -1.72562905       0.42298427
C        7.39117132       7.13638826       7.61245851      -1.17614086      -1.61244318      -0.84045634
C        9.86839815       7.06442858       7.41781408      -0.27000491       1.53515093       0.11523453
C       -3.64331600       9.20092683       7.41565225      -0.97549994       0.42263948      -0.02619491
C       -1.21095644       9.27374499       7.52162800      -1.05077284      -1.74442947       0.14253245
C        1.22035473       9.22390274       7.68765358       1.59527027       0.76570872      -1.10801279
C        3.65731256       9.23711701       7.57086914       0.62928084       1.68302176       0.44216907
C        6.17208140       9.20347447       7.52940781      -3.26237767       1.61870664       0.47897209
C        8.63161447       9.19643500       7.50415091       0.69837435      -0.19004489      -0.98703391
C       -4.87299508      11.32527471       7.46437557      -2.66981732       1.57930140      -0.53754619
C       -2.46350266      11.34256499       7.38107845      -1.63708746       2.64215303       0.49636304
C       -0.00501097      11.34654886       7.58532336       0.34561257       2.33704973      -0.78863602
C        2.45749036      11.39792008       7.57672296       0.33237679       0.35973024       0.47915361
C        4.94091506      11.35112380       7.39661622      -0.06582307       0.29644614      -0.00299893
C        7.43077691      11.28842117       7.29937383      -1.06610073       0.69566518       1.05449168
72
Lattice="14.76 0.0 0.0 -7.38 12.782534959858314 0.0 0.0 0.0 15.0" Properties=species:S:1:pos:R:3:REF_forces:R:3 REF_energy=-11165.112109967027 config_type=fd_force_conv_snapshot_009 snapshot_index=9 split=validation degauss_Ry=0.00285013035 kgrid=8 lattice_temperature_K=450.0 trajectory_seed=2 p4_key=seed2:snapshot009 pbc="T T T"
C        0.01415498       0.00425536       7.36968992      -0.65752518       0.05502084       0.47196070
C        2.52048665       0.00919065       7.48339514      -2.13100152       1.37396848      -0.89900602
C        4.96933029      -0.01618811       7.46657393       0.02636229      -0.06488642       0.28941880
C        7.37134951      -0.03896072       7.43201297       2.14256711       0.40159423       1.75740737
C        9.78055802       0.02755252       7.59674252       2.06396643      -1.48679028       0.38811959
C       12.26663814      -0.03026829       7.45327153      -0.75250122       0.89875225      -0.64495969
C       -1.25692547       2.13924849       7.38001159      -0.43574414      -0.35510663      -0.20354267
C        1.13075146       2.17723420       7.39591296       3.04777926      -1.55069557       0.32035791
C        3.60139230       2.08234821       7.50871152       2.74877050       1.47700981       0.45665260
C        6.22962201       2.12698726       7.66343007      -3.42950889      -0.92092467       0.14827141
C        8.63871973       2.20263086       7.63360035      -0.99321869      -3.05527145       0.30066943
C       11.03805492       2.18714308       7.46259095       1.95426132      -3.70695432       0.14633871
C       -2.49265807       4.26693149       7.43426876       2.80170566      -1.27085438       0.14012435
C       -0.00143984       4.32265098       7.48141668      -1.77215137      -2.78843003      -0.33482577
C        2.41718299       4.24727902       7.46939259       1.65114625      -0.97492735       0.38835639
C        4.92338102       4.21464690       7.50251299      -2.60199959      -1.68274408       0.59192297
C        7.35794313       4.33031688       7.55599125      -0.23685594      -2.85827199       0.08343024
C        9.83437164       4.31022742       7.50429641      -0.42929658      -1.83253887      -0.66341378
C       -3.64479656       6.35796275       7.51617618      -2.77413264       1.45728199      -0.29283888
C       -1.26503516       6.42181868       7.53869964       1.48041112      -0.06224512       0.34437819
C        1.19787180       6.39056281       7.53091675       3.46777847      -1.29243571      -0.02371740
C        3.68350391       6.32165772       7.37777096      -0.08714497       1.80914877       0.99352286
C        6.11255826       6.40189473       7.44252968       0.97860429      -1.46636801      -0.01353917
C        8.63235495       6.40465431       7.41694100      -1.49403359       0.63825373      -0.56478549
C       -4.90884225       8.53233901       7.55922339      -1.60370194      -0.18555240      -0.36690388
C       -2.45030797       8.54235048       7.49499375      -0.57134720       0.53468199       1.24276560
C        0.06164056       8.49879558       7.64613257       1.08927485       1.91859420      -0.80389140
C        2.49907149       8.51234068       7.49233947      -0.10932536      -1.71796999       0.23636691
C        4.94862523       8.53144947       7.36727496      -0.57902786      -1.56955255       0.95737572
C        7.33973647       8.54723415       7.53008940       2.92242950      -1.79956035       0.15532214
C       -6.13336697      10.70072052       7.60704152      -0.21669617      -1.70546338      -1.15411319
C       -3.65210046      10.64667339       7.56627293       0.22732897       2.64972647      -0.82881644
C       -1.19160655      10.59426820       7.40217936       2.03265220       1.15603843       1.17917553
C        1.27522850      10.65203497       7.63984179       0.09224758       0.17481136      -0.37726157
C        3.68161452      10.63475722       7.55206942      -0.53992806      -0.89108471      -0.94067512
C        6.11409384      10.67033298       7.45402030       1.14032205      -2.09388302      -0.05199053
C        1.23929510       0.77195091       7.38164812      -0.49554028      -2.77503586       0.33936916
C        3.73413085       0.68287483       7.49249258      -0.78824649       0.30829250       0.02584062
C        6.18644492       0.67822805       7.54127905      -0.01289588       1.49472214      -0.43523326
C        8.60240669       0.71271875       7.59990996      -2.09526036       1.91785321      -0.62567975
C       10.99658658       0.69878627       7.55414539       2.88071258       1.80874433      -0.71079510
C       13.50801079       0.70379704       7.36591607       0.09419339      -0.13121599       0.21845352
C       -0.04378320       2.85949947       7.41784244      -1.52663235       1.85093588      -0.10132358
C        2.37546377       2.83737557       7.48428849       1.18138282      -0.31885022      -0.37555872
C        4.88741456       2.77226988       7.61530368       1.15343467       1.00204426      -0.62285051
C        7.41021744       2.88129410       7.77172174      -0.04941660       0.95245462      -1.78733116
C        9.86377550       2.85416278       7.52227868      -1.96364302       2.95685143       0.30040024
C       12.27975667       2.85545426       7.36783279      -0.09468396      -0.23009908       0.50309213
C       -1.25952791       4.99227855       7.47306182       0.47708439       1.06704278       0.14215938
C        1.23096270       4.94370238       7.49548253      -1.27376513       2.78011868      -0.01384950
C        3.66878999       4.91192127       7.48193212       0.59088270       0.51854266      -0.61142710
C        6.09056022       4.92407573       7.47306678       2.14465202       3.15284996       0.18701613
C        8.57268052       4.98861022       7.35495502       1.97193225       0.70970186       1.73421140
C       11.09901916       4.93930183       7.52884627      -2.61538321       2.41561184      -0.47639765
C       -2.50447629       7.13727925       7.56255001       2.55281722      -0.60511813      -0.51787237
C        0.05009411       7.11448323       7.60161728      -3.61969288      -0.94396638      -0.11562457
C        2.47029307       7.07004046       7.48406641      -0.75147972      -0.07302062      -0.44123087
C        4.90780201       7.10274403       7.41688903      -0.20469041      -0.57213165      -0.69149974
C        7.36605525       7.10077707       7.47905232       0.11996510       0.32554254      -0.23837803
C        9.86409011       7.10527782       7.41204467       0.50769980      -0.43411483       1.15537534
C       -3.72750914       9.28061390       7.60757670       2.93152117      -2.26869746      -0.84739241
C       -1.15457582       9.19716673       7.53525056      -2.25593554      -0.27901149      -0.29546398
C        1.32501130       9.25877602       7.58788555      -2.54406415      -1.98704648       0.48169695
C        3.71261109       9.16512467       7.44466917       0.17816074       3.47014492       0.27085980
C        6.16961767       9.22521919       7.51286925      -2.43631488       1.91585084      -0.84838974
C        8.59118582       9.24161534       7.56878422       1.03699455       0.82931421       0.32425030
C       -4.85754923      11.41233097       7.45854529      -1.76335357      -2.12813860       1.63546329
C       -2.36472864      11.34355716       7.45831087      -2.73328501      -0.45043850      -0.07487772
C        0.05330418      11.31964824       7.50769191      -1.60174893       0.48705616      -0.67253194
C        2.46766833      11.38466704       7.66127894       0.37007919      -0.70753262      -0.58592150
C        4.88092775      11.31368270       7.33909216       0.39506568       2.18327359       1.78908722
C        7.34481707      11.33473918       7.51148698       1.78698740       2.54509800      -0.44530221
72
Lattice="14.76 0.0 0.0 -7.38 12.782534959858314 0.0 0.0 0.0 15.0" Properties=species:S:1:pos:R:3:REF_forces:R:3 REF_energy=-11165.5130699804 config_type=fd_force_conv_snapshot_015 snapshot_index=15 split=validation degauss_Ry=0.00285013035 kgrid=8 lattice_temperature_K=450.0 trajectory_seed=2 p4_key=seed2:snapshot015 pbc="T T T"
C        0.00591909      -0.02301437       7.62341192      -0.87192279      -0.01721534      -1.12445628
C        2.41045610       0.01946167       7.57697140       1.83012280      -0.07440798       0.35654259
C        4.95757032      -0.01969077       7.64540073      -3.29118585       0.75356205       0.42767781
C        7.35123074      -0.06116651       7.46691429       1.07172656       1.71040247       0.26727389
C        9.75203630      -0.01539552       7.49230635       2.75035559       1.03815464       0.19531951
C       12.28798267      -0.01010077       7.61774427      -0.51185085       1.03643662      -0.82168446
C       -1.18591042       2.08546963       7.70770311      -1.01790231       2.46472788       0.48253101
C        1.26676731       2.13423439       7.56686009      -0.36773152       2.02484041       0.34366213
C        3.73068531       2.14046805       7.60252649       0.96574311      -0.03312532      -0.25798809
C        6.16624667       2.12811894       7.49063020      -0.00017895      -0.31285903       0.95374352
C        8.64157210       2.14794171       7.49207031      -0.95848386      -2.14358116      -0.34757304
C       11.08983212       2.10203119       7.66647514       0.80911408       0.41972642      -0.56633484
C       -2.40121307       4.25471701       7.77057895      -0.99133202      -0.93674158      -0.88845035
C        0.02038036       4.33006119       7.67471920      -1.46090339      -2.52979839       0.30666627
C        2.43958175       4.28141880       7.45035350       2.97766528      -0.40579618      -0.05778400
C        4.96629445       4.31489739       7.42344176      -0.84804315      -1.21654626       0.54901640
C        7.44004196       4.27687278       7.35592413       0.28485021      -1.75562406       0.57294874
C        9.96391497       4.21580137       7.45333551      -2.09598772      -1.64594234       0.04360437
C       -3.65298322       6.38820963       7.37415060      -1.77525289      -2.91591175      -0.07730767
C       -1.23216191       6.42480792       7.62204969      -1.27559421      -0.83534782      -1.00892042
C        1.23763517       6.44526469       7.41305355       0.42339384      -1.83648011       0.82261829
C        3.71093026       6.43860341       7.36009777      -0.06007331      -0.03401827       0.32296732
C        6.15901770       6.42556562       7.42808271       0.49931518      -0.68586748      -1.27237056
C        8.60370608       6.30175777       7.23209150       2.46790371       1.40884061      -0.13571002
C       -4.90663067       8.48638722       7.31804002      -1.72968960      -1.29862178      -0.03133789
C       -2.47019203       8.55524928       7.43250610      -0.87512510      -0.73480226      -0.01091176
C       -0.06529615       8.53916022       7.48037295       1.67926461      -0.36268393       0.43688416
C        2.41892479       8.55744724       7.40240339       1.39762211      -0.90381784       0.06821754
C        4.88079827       8.61566093       7.39958939      -0.42862784      -2.98347031      -0.19123788
C        7.32696474       8.47727654       7.39548118       2.75546309      -0.46131247      -0.76178856
C       -6.18798932      10.65917535       7.42311400       0.51907359      -3.65556491       0.22529240
C       -3.74038723      10.65975903       7.47205556       0.40024980      -0.17312266       1.28383151
C       -1.25826493      10.72780502       7.60254266      -0.83842774      -4.17466524      -0.44577812
C        1.21044773      10.58527553       7.56970211      -0.72921782       3.00209281       0.12188443
C        3.62291960      10.69588788       7.50370083       1.03353488       0.13681406       0.30480479
C        6.08930514      10.63307531       7.50604975       2.71031811      -0.13303479      -0.28713283
C        1.19962126       0.74816200       7.57766499       0.83040539      -1.81957896       0.21159922
C        3.69174762       0.72006633       7.66847830       0.13246041      -0.92354103      -0.62120398
C        6.15332285       0.67316591       7.55824405       0.34199734       1.20971715      -0.30462533
C        8.57893686       0.68514397       7.42317989      -1.03734217       1.34437662       0.64724591
C       11.02794881       0.71907774       7.50792260       1.08953453      -2.24229146       1.24590748
C       13.54173497       0.69751668       7.60329982      -0.34742366      -1.27174064       0.82583679
C        0.01762395       2.85127506       7.73117545       1.16300998       0.66665440      -1.09182641
C        2.55401809       2.84431339       7.46506187      -3.96512367       0.73816706       0.93144151
C        4.95826054       2.88132117       7.58507328       0.22792572      -0.53779559      -1.07699860
C        7.39679904       2.82580778       7.48418418       0.43307327       1.49580534      -0.84090346
C        9.88995167       2.78800469       7.55401304      -0.60070303       1.58102456       0.00184708
C       12.33400471       2.83534925       7.77657196       0.60423084      -1.41402961      -0.31223477
C       -1.23987811       5.01498900       7.68910853       2.06892712      -0.33871070       0.54478565
C        1.23293879       4.98239510       7.53376875       0.44319956       1.90721784      -0.57599730
C        3.70902966       5.01657485       7.40095855      -0.48254850      -0.33326151      -0.01601926
C        6.19982267       5.00112988       7.37617930      -0.01385388       0.15924667       0.21703350
C        8.75194266       4.88953388       7.31261822      -3.97522425       1.46089645      -0.07004148
C       11.14060321       4.88551284       7.50810845       0.98609031       4.03021603       0.29736248
C       -2.49011709       7.10872658       7.43844860       2.50749304       1.45948517       0.74168947
C       -0.00815933       7.08425353       7.50713120      -0.33939282       2.70336045      -0.19719847
C        2.47085035       7.15333946       7.36760030      -0.39805125      -0.89391395      -0.15209386
C        4.94593999       7.15692651       7.41704757      -1.50757045       0.46172976      -0.23922238
C        7.40141080       7.06714490       7.25336759      -1.13930415      -0.30470581       1.28109792
C        9.84417396       7.02801635       7.23165828       0.35698250       1.38205280       0.59454755
C       -3.71441847       9.22935225       7.42328459       0.13235756       0.64362580      -0.48023553
C       -1.27311852       9.28904414       7.48994711       0.84791357      -0.84308710       0.42012906
C        1.22708940       9.21558359       7.55482157      -2.97318564      -0.58463569      -0.77423167
C        3.60588988       9.30310540       7.35634742       2.09714986      -0.55339499       0.85785243
C        6.13697688       9.20172171       7.44638406      -1.40853747       2.26146829      -0.00249783
C        8.58267533       9.12864097       7.38285181       0.46190434       3.65435726      -0.14430856
C       -4.98573558      11.36397108       7.52981818       1.34130801       0.63332210      -0.62997015
C       -2.48866768      11.35138814       7.66675102      -0.92380508       1.12963423      -1.07938433
C       -0.03342002      11.31862856       7.52744891       1.76736397       1.11505402       0.36688305
C        2.39501824      11.37833471       7.61163580       0.17634631      -1.24010656      -1.13912314
C        4.91033001      11.36897931       7.56451006      -1.79646732      -0.39083313      -0.21583768
C        7.36471989      11.31612726       7.46288360      -1.54932491       1.91897601       0.97997597
72
Lattice="14.76 0.0 0.0 -7.38 12.782534959858314 0.0 0.0 0.0 15.0" Properties=species:S:1:pos:R:3:REF_forces:R:3 REF_energy=-11164.972748905411 config_type=fd_force_conv_snapshot_021 snapshot_index=21 split=validation degauss_Ry=0.00285013035 kgrid=8 lattice_temperature_K=450.0 trajectory_seed=2 p4_key=seed2:snapshot021 pbc="T T T"
C        0.00598710      -0.04228612       7.44612208      -0.24865679      -0.17038186       0.39562901
C        2.46074258      -0.00926522       7.46507383      -0.22910149      -0.62033880      -0.23177801
C        4.94264864      -0.03283461       7.29097687       0.97147590      -0.54086060      -0.81392513
C        7.39304900      -0.02866827       7.17380140       0.49350114      -0.03550231       1.45480859
C        9.86554119      -0.00939196       7.36750370      -0.12628873      -0.02409124      -0.23614297
C       12.32219726       0.00976625       7.27790581       0.98574553      -2.11263947       0.93132453
C       -1.28493594       2.15526379       7.27822593       2.25379921      -1.89226482       0.53415234
C        1.15416471       2.06108752       7.41680587       2.43643135       2.28985636       1.30079411
C        3.66514930       2.10192448       7.38120722       1.67601191      -1.44698909       1.23013402
C        6.15015764       2.11990739       7.38983720      -0.37847564      -1.06708803      -0.21714663
C        8.58456185       2.16158481       7.44688756      -0.72682927      -1.57972641      -0.35970530
C       11.06217205       2.08752645       7.37457144      -0.54703614       2.70048724      -0.84284978
C       -2.58874909       4.26875138       7.45744471       4.40470184      -0.09698407      -0.53497278
C       -0.02064910       4.25999265       7.53303636      -2.60037543      -1.08129260      -0.72084759
C        2.45286146       4.23322314       7.58975795       0.24898743       0.27839134       0.15253018
C        4.94116774       4.25538621       7.76144347      -3.14556166      -1.35569539      -0.99847171
C        7.29816895       4.32088974       7.67947902       0.85719371      -1.43737008      -0.67825959
C        9.77641338       4.36023194       7.56610961      -0.64587757      -3.32556484      -0.33535747
C       -3.67752370       6.44088538       7.61961841       0.63257340      -2.19122755      -0.39001912
C       -1.25290972       6.43815130       7.45763291      -1.32047410      -1.69877979       0.27000903
C        1.14639067       6.36552462       7.47050750       2.02353404       1.97876830       0.09206889
C        3.67054246       6.41258781       7.58058633      -0.98881182       0.00029928       0.98067968
C        6.15098064       6.44624891       7.81458776      -1.82362408      -0.14454768      -0.35190355
C        8.62903027       6.40013483       7.78701688      -0.20446389       1.14228611       0.18220945
C       -4.86813088       8.55380412       7.73616085       0.89543218      -1.96526461      -0.10179435
C       -2.42342273       8.56377445       7.52589075      -0.17263158      -1.19532231      -0.77524597
C        0.03575461       8.52566221       7.43506758       1.36596309       0.86547600       0.35592141
C        2.47211707       8.54095520       7.54791340      -0.46709668      -0.51859922      -0.35880387
C        4.92204110       8.55761324       7.58477571       1.27176481      -0.72102192       0.51620732
C        7.43506030       8.48478623       7.84893415      -1.38677360       1.72847835      -1.27500543
C       -6.11831043      10.59901329       7.58410024       0.20090472       0.15204167      -0.20114743
C       -3.63729185      10.72490993       7.29363802       0.29235448      -3.54957838       0.88547662
C       -1.12742067      10.63553569       7.25895920      -1.45825618      -1.66100566       0.68763948
C        1.27751203      10.68744612       7.55775881      -0.81245292      -0.61219663      -1.29743599
C        3.68673321      10.64010194       7.49404233       1.02370581       0.50986853      -0.14004902
C        6.16913732      10.64093488       7.51958393       0.43707880      -1.37284696       0.18148492
C        1.18578056       0.69014547       7.55318733       1.97723927      -1.18617562      -1.41152047
C        3.71879380       0.64131039       7.36593381      -1.78072574       1.87051432      -0.01989751
C        6.15640355       0.65545704       7.23955922       0.74527796       2.53068799       0.08798752
C        8.61989729       0.64826161       7.36517938      -0.32175428       3.55344069      -0.60148953
C       11.10483597       0.68214577       7.26683184      -1.38996357       1.20065787       0.72425019
C       13.56517714       0.69391466       7.35776214      -2.03951858       0.71488983      -0.90857978
C       -0.04602545       2.79341669       7.40112201       0.38123238       2.48066255       0.19658038
C        2.47103634       2.78278542       7.54099730      -2.86519057       1.22057723      -0.95963340
C        4.90846667       2.77522672       7.51252754       0.25492874       2.64598268       0.33245958
C        7.33740721       2.89206280       7.44396699       0.50721643      -0.57812026       0.89195708
C        9.77988557       2.86498928       7.48900887       2.26880416       0.49758688      -0.14826369
C       12.29283810       2.87043055       7.26226921      -3.33836740      -1.19859044       1.30074629
C       -1.32580882       4.98461072       7.54125066       2.15922529      -0.05867283      -0.80263002
C        1.19012708       4.95908271       7.52478515       0.81263186      -0.42353525       0.22611181
C        3.69728708       4.98315553       7.71150087      -0.90212759      -1.05067488      -0.79473030
C        6.08348256       5.01297350       7.78899432       1.93961708       0.65662452       0.00401632
C        8.50996929       5.03147337       7.67301364       2.52067817      -1.42516762       0.06745109
C       11.02311623       4.99727829       7.50476436      -1.66943374       1.60528240       0.64200960
C       -2.46900250       7.13532466       7.48511066       0.24062929       0.82429567       0.82548815
C       -0.05404452       7.14728131       7.41989097       2.23648308      -2.60661678       0.33802062
C        2.41073025       7.12109111       7.49706429       0.07398504      -1.39807514       0.23510039
C        4.85628874       7.16937360       7.71161690       2.80566567      -1.95247903      -0.31352418
C        7.41791850       7.11591391       7.79494648      -1.19834362      -1.37174010       0.88232779
C        9.89630688       7.07961180       7.79618290      -1.94167063       2.71415034      -0.38605911
C       -3.64256523       9.26985505       7.50483331      -0.69089913       1.03678732       0.02451418
C       -1.15766890       9.17982041       7.43389365      -1.69368310       3.64167915      -0.63066692
C        1.27711428       9.29032442       7.52785326      -0.93758979      -1.95424563       0.03451577
C        3.70587545       9.22222618       7.54151728      -0.52384067       1.55421489      -0.04065814
C        6.21298799       9.19300181       7.62164663      -1.38226183       1.45222797       0.56473535
C        8.64847007       9.17180328       7.77080446       0.44266786       2.59688541      -0.41657322
C       -4.89638566      11.34534444       7.41283690      -0.32354402       0.78586617       0.41720288
C       -2.35285552      11.33392528       7.20210253      -2.01672961       0.78365527       0.49194562
C        0.05696405      11.34711702       7.31969812      -0.05705586       0.49394954      -0.21765082
C        2.47789038      11.37430933       7.44426438       1.01258759      -0.26669513       0.54970108
C        4.93399075      11.34593993       7.46125494      -0.10459016       0.55234315      -0.76631318
C        7.41437643      11.30897495       7.49886287      -0.38995125       0.82905504       0.29085990
72
Lattice="14.76 0.0 0.0 -7.38 12.782534959858314 0.0 0.0 0.0 15.0" Properties=species:S:1:pos:R:3:REF_forces:R:3 REF_energy=-11165.705494465063 config_type=fd_force_conv_snapshot_027 snapshot_index=27 split=validation degauss_Ry=0.00285013035 kgrid=8 lattice_temperature_K=450.0 trajectory_seed=2 p4_key=seed2:snapshot027 pbc="T T T"
C       -0.00957606       0.03536914       7.55799449       0.94645444      -1.70312367      -0.43088604
C        2.46841453       0.00750907       7.69565139      -0.17775707       0.32943056       0.17301930
C        4.93757843      -0.08421940       7.76420248       0.43829930       2.76940669       0.73183289
C        7.39071646      -0.03332874       7.76253251      -0.33400790      -0.20725303      -0.40562726
C        9.81164106       0.00840223       7.53179733       0.46898850      -0.51160402       0.10721963
C       12.29968794      -0.04939925       7.46963469      -0.05935932       1.87328108       0.27806969
C       -1.20164275       2.18308617       7.65670103       0.31412273      -3.46301319      -0.30221826
C        1.24351198       2.13939149       7.72977204       0.69833219       0.25589830      -0.32790307
C        3.76722003       2.06756846       7.72662789      -0.23409663       0.97773371       0.40706888
C        6.18831169       2.09304799       7.68089711      -0.99517916       0.78898671       0.25485880
C        8.60082014       2.14897554       7.56694875      -0.28238143      -1.32363373      -0.34080512
C       11.10066100       2.14682043       7.56284869      -0.34772628       0.29347060       0.72845600
C       -2.44732547       4.30243909       7.60965512       0.34211202      -1.11828409       0.34584037
C       -0.00959609       4.30782827       7.59148507      -0.41713706      -0.87110286       0.78271862
C        2.52606513       4.19992376       7.51766127      -0.91893052       0.63884046       0.52718645
C        5.01033239       4.28655002       7.50846219      -2.49289817      -1.91594365       0.72706658
C        7.44134697       4.32966636       7.27177128      -1.73446182      -3.62970424       1.16284671
C        9.86386107       4.31515812       7.31360024       1.02603960      -2.63694526       0.50783427
C       -3.74777418       6.45091166       7.37531324       1.93211255      -3.03875314      -0.18418046
C       -1.26613221       6.44204668       7.57504044       0.33342863      -0.62484646      -0.11362168
C        1.24972171       6.40111495       7.47199901       0.14178554      -0.05479458      -0.04770502
C        3.69965835       6.38823798       7.44028313       0.92299595      -1.54463985      -0.53208749
C        6.17013018       6.39046761       7.21730062      -0.45569178       0.34920440       0.21245205
C        8.58559527       6.38268211       7.15815379       0.41592864       0.95345556      -0.52687097
C       -4.89684032       8.55432227       7.25795531      -1.70820674      -2.44279817      -0.30783921
C       -2.49047389       8.50469456       7.49107254       0.31368873       2.54842243       0.30616157
C       -0.10126865       8.51764586       7.52711540       2.93044491       0.04607828       0.01072536
C        2.41465515       8.54808091       7.43041789       0.83773457      -0.63506685      -0.10104127
C        4.85850763       8.50691048       7.25172839       1.32096133      -0.05332854       0.54872175
C        7.41421318       8.49649465       7.12299257      -1.63023033       1.80193631       0.89092761
C       -6.12303324      10.66418115       7.33067441      -1.48149072      -0.14742808       0.63608989
C       -3.79310477      10.67999249       7.58910722       5.44021775      -2.65947481      -0.20440116
C       -1.28835391      10.67634331       7.77194517       1.21312309      -2.98771572      -0.57132792
C        1.17289683      10.59538865       7.60020662       0.31657633       0.93376373      -0.61880308
C        3.66386007      10.67196862       7.43678667      -1.49396572       0.15434487      -0.27994248
C        6.17006442      10.61070323       7.33922349      -0.86160521       1.29652608       0.20297343
C        1.22834901       0.73513244       7.69857490       0.37805449      -0.63098214      -0.19544575
C        3.74253162       0.64846264       7.77304308      -1.16713531       0.76820757      -0.31474082
C        6.17401771       0.66383581       7.81039958      -0.49160238       0.21042063      -0.54074825
C        8.58793084       0.69178885       7.59403547       0.56760342       1.25529150       0.64153035
C       11.07591063       0.72241691       7.56799453      -0.11642444      -0.92571849      -0.74642853
C       13.53464977       0.70258712       7.49296271      -0.77165594       1.07261179       1.05135931
C        0.00094169       2.86127018       7.68401150       1.69448245       1.31880109      -0.19441679
C        2.54889465       2.76909121       7.68724369      -2.02433982       1.59082509      -0.36730343
C        4.96655619       2.84198248       7.71087745       0.71957284      -0.27346330      -1.02631573
C        7.37107610       2.83550094       7.50842351       1.29248507       1.89660973      -0.32896905
C        9.81060611       2.84976043       7.52619793       2.49374844       1.25601500      -0.81494097
C       12.38464962       2.86007553       7.68258666      -4.30796177       1.27416262      -1.03925635
C       -1.27007680       5.04296532       7.67733816       2.21056405      -0.93820069      -0.90422201
C        1.23581547       4.94620028       7.48943600       1.43356793       1.04519226       0.33937045
C        3.73481321       4.95225222       7.48737117      -0.27890067       0.01492448       0.01505355
C        6.19115869       4.99726871       7.37730086       1.66652531      -0.10861342      -0.86416808
C        8.66545425       5.00016902       7.14927840      -1.34548117      -0.72513799       0.71317825
C       11.12081552       4.98269370       7.38946627      -2.55443007       1.44878372       0.28800803
C       -2.50713388       7.13029996       7.49927769      -0.05181261      -0.46123688      -0.28000650
C       -0.01969623       7.12651434       7.48759639      -0.11100918      -1.61377758       0.34876449
C        2.52884821       7.12663106       7.45389315      -3.57663641      -0.40776436      -0.09128368
C        4.92715443       7.02951491       7.27161614      -0.49500781       3.60333063       0.16713842
C        7.38153882       7.11186397       7.13939923      -0.02243288      -1.01329232      -0.25703138
C        9.78100605       7.06895360       7.21794124       1.79051213       3.38120763       0.33151367
C       -3.70084445       9.23541516       7.38543917      -0.41713861       1.20681720       0.82072878
C       -1.26453537       9.23379727       7.63539304      -1.96726750       0.66976235      -0.15618192
C        1.15091466       9.18135372       7.48070330       0.76306871       1.29122755       0.55638364
C        3.63898744       9.29158076       7.38758248       0.50669090      -2.93361457      -0.30044189
C        6.12970706       9.20234678       7.25933435       0.71559277      -0.52738828      -0.77188631
C        8.63141780       9.23495832       7.22366644      -0.23673432       0.69270841      -0.30389154
C       -4.92857453      11.37695958       7.56313732      -2.14803662       1.03680892      -0.41970174
C       -2.49644772      11.33528313       7.74761305      -1.54696927      -0.70929254      -0.12779283
C       -0.04016662      11.32046471       7.74387183       0.54756038       0.90549368       0.02906581
C        2.39044860      11.35502284       7.47314619       1.09299087       0.09643154       0.76293938
C        4.89086650      11.31910056       7.41371999       2.13285323       1.02547755      -0.08169346
C        7.40806491      11.37062838       7.40456761      -1.10311690      -0.23395368      -0.18497622
72
Lattice="14.76 0.0 0.0 -7.38 12.782534959858314 0.0 0.0 0.0 15.0" Properties=species:S:1:pos:R:3:REF_forces:R:3 REF_energy=-11165.030409283596 config_type=fd_force_conv_snapshot_033 snapshot_index=33 split=validation degauss_Ry=0.00285013035 kgrid=8 lattice_temperature_K=450.0 trajectory_seed=2 p4_key=seed2:snapshot033 pbc="T T T"
C        0.02049796      -0.05036546       7.46298389       0.11253101       0.00426289       1.29670117
C        2.50917958       0.03474828       7.50564557      -3.65870654      -1.58497197       1.35239255
C        4.88001505      -0.01407118       7.30109477       0.73650407       2.17235051       0.92251876
C        7.30172942       0.05973882       7.41132039       0.39615120      -1.54131592      -1.84437597
C        9.81513257       0.00000957       7.44337349       0.01339159      -0.89673162      -0.18223234
C       12.37395028      -0.02563756       7.46179132      -1.97735728      -1.18144813       0.88234578
C       -1.23523187       2.14921614       7.34585888       0.25980715      -1.51638317      -0.35956081
C        1.22579812       2.10643764       7.30020080      -1.55082515       0.74319408       0.45301372
C        3.66428878       2.15017383       7.38439198       0.65262440       0.14260598      -0.26237568
C        6.17511597       2.16780565       7.38935695      -1.58503291       0.47950046       0.09602068
C        8.64681998       2.14522968       7.49636027      -1.59891763       1.05836171       0.04227434
C       11.04835836       2.08115261       7.41722882       1.83546247       1.66882002      -0.05840724
C       -2.49845728       4.26973262       7.41311658      -0.05349232      -0.37783904      -0.36949144
C       -0.02354874       4.24444421       7.13328747      -0.99603328       0.09512747       1.25039637
C        2.51156973       4.25465933       7.27034271      -2.17588038       1.52110500       0.46675164
C        4.95687636       4.25787711       7.44654913      -1.49588967       1.00625033      -0.40185340
C        7.33902605       4.28327153       7.58354668       1.61227914       0.54943832       0.31956061
C        9.81690145       4.24813490       7.49732968       0.74170541       2.24458026       1.16147400
C       -3.73853653       6.35424829       7.54273460       3.59309661       1.14076145       0.73309273
C       -1.23433374       6.44106413       7.35226446      -1.22017048      -1.76292008      -1.11895489
C        1.18912589       6.40854387       7.27200010       1.24083881      -2.33169540       0.60114680
C        3.69731098       6.39952257       7.61306446       1.07429200      -1.21288115      -0.68252119
C        6.15961546       6.40337608       7.69143508       0.26986016       0.70219450       0.65580023
C        8.64264915       6.34129360       7.69925130      -0.60687213       2.31300554       0.73193522
C       -4.88338144       8.49873875       7.77156400      -1.32379211       0.07469055       1.05519591
C       -2.51190127       8.53348076       7.37165063       0.12032351       0.92087376       1.32121664
C       -0.00498839       8.57217412       7.33705023      -0.55846135      -2.27523604      -0.32510700
C        2.45796195       8.48714805       7.56388088       0.30074862       0.38694820      -0.09344623
C        4.92830322       8.53564829       7.82652925       0.78353443      -1.29608230       0.22409761
C        7.41947040       8.49693270       7.87958979      -1.36839201      -0.33887243       0.62664623
C       -6.04344506      10.63992289       7.88833315      -3.05390980      -0.68165318      -0.14074142
C       -3.66679226      10.70274833       7.58663831      -0.11208210      -1.68915538       0.39599565
C       -1.19833977      10.63629303       7.31899663      -2.55167308       0.12982657      -0.76606019
C        1.26063607      10.67985132       7.28377425      -2.43031289      -1.63336630       0.82064599
C        3.62925258      10.65935222       7.69118583       3.58426153      -1.30795052      -0.26839000
C        6.15982935      10.62300023       7.80183036       0.83284768       0.50080230       0.43018464
C        1.21095882       0.68952756       7.45989140       2.34729069       0.42396463      -0.59741073
C        3.67913587       0.72560499       7.51006542       1.14967058       0.91534924      -1.80362630
C        6.07255737       0.78948471       7.30250569       1.89476856      -2.84968553       0.62645057
C        8.54609016       0.73072088       7.41398157       2.27815527      -0.04191155       0.51300861
C       11.08914818       0.61989727       7.44424616      -0.65132291       3.13382688      -0.15792461
C       13.57788942       0.70189723       7.41766453      -0.99701159      -0.06298971      -0.23719327
C       -0.02547671       2.82928913       7.26341780       1.11467684       0.10407671      -0.51093168
C        2.41303982       2.87168875       7.31753469       2.53815550      -2.19794430      -0.11778429
C        4.92286859       2.84889328       7.30942988       0.07818468       0.43885877       1.11113643
C        7.40232958       2.86767586       7.57150597      -0.53176121      -0.31712989      -1.10044835
C        9.85911389       2.91144304       7.46782051      -0.28679962      -6.40196614      -0.18272033
C       12.30794096       2.85256608       7.35411325      -1.96693326      -1.59313008       0.48189081
C       -1.30540218       4.97198432       7.22213717       2.59877260       1.32479639       0.82008035
C        1.21016132       4.90664131       7.28448468       0.78352235       3.36517680      -1.30796903
C        3.74611292       4.98594643       7.39232202      -1.43650182      -0.45152017       0.59649568
C        6.11545633       5.03524879       7.59684895       2.04340121      -3.44284263      -0.43588066
C        8.62400310       4.95994621       7.60797757      -2.07144449      -0.47399341      -0.24337883
C       11.02331073       4.94847764       7.60059428       1.19494873       0.60757893      -1.55522611
C       -2.45627283       7.14656398       7.43349456      -2.02917941      -2.31079825      -0.02832353
C       -0.02677875       7.13879275       7.25725581       1.24945381      -0.08786359       0.64380475
C        2.45883238       7.05148812       7.47145643      -0.90936191       1.77953532       0.29346957
C        4.95715129       7.08539539       7.78718419      -2.41108490       1.94505574      -0.64761641
C        7.39755924       7.07236186       7.78465959       0.99298807       0.27269609      -0.19656341
C        9.88615073       7.08104357       7.75391615      -2.13849963      -0.19834852      -1.00173470
C       -3.74003362       9.27569798       7.66907844       2.99303045      -0.71402312      -1.54979799
C       -1.25709130       9.19971417       7.31608995       0.34340657       2.31849048       0.01558654
C        1.22814863       9.22459472       7.43213321       0.97380558       1.59131977      -0.75982398
C        3.70731189       9.21812985       7.71828214      -2.11989307       0.38677336      -0.08291371
C        6.16829189       9.22740750       7.90447367       0.28864541      -0.89152719      -0.37265698
C        8.63927632       9.16249643       7.96076061       1.25228356       2.62682874      -0.92672405
C       -4.86202249      11.39027289       7.72460403      -0.59349366       0.78655059      -0.63132333
C       -2.45687093      11.37405924       7.35099991       1.00337378      -0.66279620       0.30476803
C       -0.03652506      11.37642661       7.20805270       2.27507431       1.01454779       1.48809177
C        2.45848123      11.34645768       7.45731533      -0.98233804       1.83260314      -0.06818540
C        4.92665255      11.32640895       7.69635006      -0.14548047       1.09644720      -0.55276790
C        7.42804233      11.32097661       7.78179898       0.03503874       0.50779622      -0.79174705
72
Lattice="14.76 0.0 0.0 -7.38 12.782534959858314 0.0 0.0 0.0 15.0" Properties=species:S:1:pos:R:3:REF_forces:R:3 REF_energy=-11165.389490432972 config_type=fd_force_conv_snapshot_039 snapshot_index=39 split=validation degauss_Ry=0.00285013035 kgrid=8 lattice_temperature_K=450.0 trajectory_seed=2 p4_key=seed2:snapshot039 pbc="T T T"
C        0.01720892      -0.00773796       7.42897684       1.28848315       1.63768576       1.09424145
C        2.52342518       0.02193151       7.43717293      -0.96652473      -2.12295885      -0.64449354
C        4.92955685      -0.02440953       7.44831415       2.55569068       0.19869511      -0.10663342
C        7.41242865      -0.07400142       7.65649660      -1.10741167       3.70811543      -0.63249061
C        9.86027938       0.04121776       7.66199366      -2.91516407      -1.41015547      -0.26245358
C       12.32984825       0.03590826       7.62628370      -1.27386232      -1.41887408       0.39595889
C       -1.22304392       2.10249905       7.71368883       0.20572399       1.36288882       0.17024122
C        1.25330023       2.14972702       7.54315599       0.08807597      -1.37088007       0.66522949
C        3.70660780       2.15223098       7.48693731       1.36079132      -2.97343016      -0.30750394
C        6.09647539       2.17620582       7.48105922       2.00670128      -3.49513810       0.35058380
C        8.51494571       2.17344549       7.54959769       1.52975599      -0.39712745      -0.24018629
C       11.01861381       2.18895389       7.68419092       0.59310465      -1.58445518      -0.44543745
C       -2.50939380       4.29487598       7.57276102      -0.34154560      -2.60282389       0.82128800
C       -0.02220062       4.24488309       7.58585230      -0.13655592       0.96086882      -0.23255834
C        2.43762497       4.20314495       7.44726569       1.82450160       1.84595000       0.33215336
C        4.91283205       4.30717106       7.45619531       0.95397389      -1.50482040       0.54746834
C        7.35627164       4.28898131       7.52488353      -0.93060565      -0.42559188      -1.20911114
C        9.80349852       4.26986300       7.48340719      -1.05037175       0.23270335       0.02765144
C       -3.75621246       6.38601991       7.45814793       2.13429690      -0.51992797       1.15488195
C       -1.27745393       6.39047292       7.46169032       2.21588520      -0.96846411       1.98596225
C        1.28124726       6.35204946       7.52870360      -1.70144217       0.91451106      -0.50653612
C        3.68722942       6.40159770       7.37394297       0.07592699      -1.01825918       0.39252826
C        6.15006379       6.46239715       7.43496330      -1.39134605      -2.00804211      -0.56871799
C        8.55786636       6.38238606       7.40191909       1.40881258       0.59790773      -0.13870896
C       -4.86596352       8.50439571       7.35386186      -1.75990803       0.79088419       0.52808119
C       -2.49509749       8.48097888       7.69537667       3.81860370       2.01634549      -1.36584019
C        0.01977551       8.44423010       7.67599773      -2.24641834       1.86918094      -0.26229135
C        2.46410777       8.51213359       7.58224186      -0.62382342       1.00348382      -0.69198491
C        4.89169676       8.55324331       7.33972367       0.56328859      -0.19108182       0.50113037
C        7.41886771       8.50284872       7.30881182      -1.44685334       2.24353485      -0.44689604
C       -6.11865667      10.67916280       7.21808870       0.59911846      -0.98607720       1.04470144
C       -3.63944983      10.56742993       7.29147336      -0.57045014       3.33766086       1.01298791
C       -1.23394071      10.64755181       7.53939103       1.19487546      -0.52226150      -0.22955478
C        1.22094832      10.57348992       7.65736667       1.78423555       1.43257780      -0.69274749
C        3.74807008      10.71007688       7.49705085      -3.17953056      -1.62875451       0.89089239
C        6.19004821      10.65737550       7.28229441      -0.92586145       1.14236196       1.38256342
C        1.27359343       0.73007621       7.49857552      -0.67346293      -0.82234549      -0.43800208
C        3.75517364       0.65790089       7.41807248      -1.88396453       3.93930208       0.61256044
C        6.18416250       0.73503375       7.57099104      -1.37269372      -2.42012927      -0.55196931
C        8.55509057       0.76676776       7.65397270       2.36606026      -2.08484945      -0.07206545
C       11.05417386       0.72739627       7.70677456       1.61549045       1.29042202      -0.32609636
C       13.56518930       0.68403725       7.67010511      -0.31561448       1.41719078      -0.87577816
C        0.03104784       2.84799674       7.70372750      -1.46665057      -0.82486980      -1.00809021
C        2.50200425       2.80751869       7.50759001      -1.83434198       1.02628848      -0.19619471
C        4.92092177       2.83804749       7.46664336      -2.11172107       2.86871478      -0.02975023
C        7.29102424       2.85070609       7.45271934       1.97578865       2.22435442       0.90512036
C        9.78594923       2.89413749       7.51487837      -0.40472223      -2.24600156       0.89934103
C       12.28105983       2.84316566       7.67146859       0.09205681       0.40821431       0.09734171
C       -1.29608168       4.94865140       7.56926984       1.95737081       1.56103603      -0.76390715
C        1.23142526       4.94204650       7.42526025      -0.43702814      -0.38287557       1.04463279
C        3.69312750       4.95501554       7.49555602      -1.67887483       0.97060198      -1.21929040
C        6.14668463       5.03668915       7.49130787      -0.31190310      -0.53031162      -0.07275425
C        8.57825114       4.97207523       7.42060771      -0.21037177       0.53921587       0.64886982
C       10.99463872       4.94925560       7.58253271       1.85302156       2.25735478      -1.27228752
C       -2.46729774       7.11209610       7.56426449      -2.02881431      -2.17895259      -0.37500645
C        0.02042951       7.05152106       7.64950953      -0.80931308      -1.06708623      -1.21820410
C        2.47661583       7.12216939       7.41534305      -0.18369529      -1.30371385       0.99766773
C        4.89628448       7.10531038       7.33729755       0.57107107       1.65305375       0.40583938
C        7.36176507       7.11909314       7.34916085       0.95216409      -0.22568295       0.53637737
C        9.81704189       7.10439554       7.42501713      -0.71156977      -0.55315382      -0.33568760
C       -3.63265362       9.20365461       7.48898320      -2.53092196      -0.95090605      -0.67798628
C       -1.21472481       9.24137243       7.61206725      -0.93517115      -2.44149154       0.84914616
C        1.18511629       9.17071509       7.63004046       2.98520324       0.20664907       0.39448641
C        3.67234857       9.26740478       7.52784867       1.13755991      -0.23288564      -1.04372005
C        6.15746398       9.26272726       7.29880212       0.46470144      -1.68857869      -0.28014072
C        8.63806720       9.21332497       7.28664667       0.72086379       1.24958493      -0.49112981
C       -4.84462426      11.34398995       7.33493240      -1.82288772       0.25818581      -0.75698548
C       -2.46693081      11.34437130       7.36636656       1.60674844      -0.65777998       0.76999629
C        0.05779142      11.30540392       7.59878386      -2.84321124       0.59319901       0.45987445
C        2.45370573      11.35815647       7.56744179       0.97705494       0.74889267       0.81583340
C        4.95648952      11.37575632       7.53389882       0.96464217       1.19551952      -1.20871545
C        7.40425012      11.40040767       7.30426388       0.69296604      -1.94239850      -0.53772463
72
Lattice="14.76 0.0 0.0 -7.38 12.782534959858314 0.0 0.0 0.0 15.0" Properties=species:S:1:pos:R:3:REF_forces:R:3 REF_energy=-11165.372095964007 config_type=fd_force_conv_snapshot_045 snapshot_index=45 split=validation degauss_Ry=0.00285013035 kgrid=8 lattice_temperature_K=450.0 trajectory_seed=2 p4_key=seed2:snapshot045 pbc="T T T"
C       -0.02960133      -0.02525220       7.64662959       1.17425958       2.46594813       0.53480000
C        2.42694876       0.10189304       7.64755452      -0.70381532      -3.44125137       0.46737848
C        4.92439442       0.00609092       7.69389821      -0.53224355      -0.27242175      -1.02317179
C        7.37325373      -0.02892499       7.52755008      -0.75179648       1.78456465      -0.73969121
C        9.86457082      -0.02046419       7.46003774      -1.70511551      -0.43209188      -0.44259870
C       12.29155738       0.01216892       7.64966038       0.77205806      -2.77319855      -0.27888010
C       -1.25828722       2.12788118       7.48945019       2.00928472       1.33348954       0.93297878
C        1.25367319       2.16781434       7.59835636      -1.66603243       0.96725801      -0.53104953
C        3.69683103       2.13352995       7.58085776       1.09990893      -1.12756552      -0.37759710
C        6.17340006       2.13467619       7.52779701       1.25630323      -0.34990657      -1.21845479
C        8.64023810       2.11281670       7.45012788       1.07742284       2.36523133      -1.46809733
C       11.06019706       2.08640831       7.48913898       2.19638390       1.91970209      -0.01528495
C       -2.39627125       4.28780056       7.35012972      -2.47967345      -1.24313326       0.08742368
C        0.06651078       4.29208726       7.29130580      -1.82881694       0.14144718       1.15049076
C        2.46286087       4.25120384       7.47321597       1.65859525       1.61271340      -0.08509606
C        4.95735155       4.21243638       7.40598173      -0.12135633       0.64750482      -0.19275046
C        7.41735305       4.29057463       7.32804443       0.48461052      -2.77788285      -0.40761292
C        9.88108322       4.29219630       7.33264316      -0.29429155      -1.87202510      -0.66717942
C       -3.61375303       6.42930382       7.41498857      -3.71749841      -3.19789055      -1.28514046
C       -1.26601495       6.42859713       7.42183591       2.97394258       0.26545200      -0.32504169
C        1.24353311       6.38780241       7.52817343      -1.24821068       0.43398653      -0.35804720
C        3.71833374       6.36597335       7.50087135      -0.94503288      -0.18417455      -0.28976127
C        6.15914477       6.34963421       7.50269506       1.04305541       1.64936628      -0.25705195
C        8.69131308       6.36150352       7.46657308      -1.97971832       1.40358913       0.15033446
C       -4.92767103       8.49696294       7.55702008      -0.50139546       1.24829115       0.33917967
C       -2.51410236       8.56101783       7.47915266      -0.17051273      -1.26775852       0.19976649
C        0.04458188       8.56051086       7.38292329      -3.78941602      -1.93630268       0.33971678
C        2.41819106       8.50562831       7.46461945       1.46891315      -1.38668875       0.13185851
C        4.88635738       8.50346347       7.59234476       0.71411233       0.59201604      -0.43973037
C        7.35363554       8.51690341       7.49721053       0.56080516      -1.27888985       2.07645685
C       -6.23611408      10.65693187       7.66647768       3.26985547      -0.47495706       0.34337905
C       -3.73350891      10.71692873       7.71356973      -0.59260740      -0.84831261      -0.47584666
C       -1.25558300      10.60887360       7.44440148      -1.03661840       1.19120829       1.02005381
C        1.16239732      10.65841270       7.42533061       2.62922501      -0.74833474      -1.15993159
C        3.60874387      10.58085613       7.47590788       2.25337240       2.04480837       0.25733143
C        6.14610792      10.63017610       7.67707142      -2.78796029       0.12316433      -0.65534463
C        1.19104072       0.78260785       7.66636047       0.34604992      -1.71263316      -0.37527359
C        3.69443004       0.67472782       7.59314340      -0.59094544       3.03418892       0.95040880
C        6.10736792       0.73455570       7.56577295       3.14693437      -1.48316683       0.54359060
C        8.60938313       0.74269716       7.41120462       0.48969025      -3.84105997       1.12890352
C       11.08600395       0.66582483       7.54594605      -1.02358059       1.27765161      -0.12001961
C       13.54435567       0.71856586       7.67290675      -1.61760056      -0.44510604      -0.77537041
C        0.01200912       2.88248193       7.44237012      -0.03749594      -0.93295718      -0.05271456
C        2.49740317       2.86960080       7.56086969      -1.06486583      -1.45288489      -0.09975109
C        4.95267536       2.79311574       7.48212700      -1.01932208       1.83110110       0.24986546
C        7.44359999       2.82363991       7.32457419      -1.88680251       1.12916732       1.45332018
C        9.92708973       2.84900497       7.35238641      -3.45501063      -0.38170186       0.78722139
C       12.29337473       2.86665048       7.51401776       0.49866880      -1.34189756      -1.10909471
C       -1.19663784       4.99775117       7.33956304       0.65985640       0.79313339      -0.07963144
C        1.27426171       5.01425865       7.40830078      -0.87797362      -2.38335015       0.13964844
C        3.72234041       4.93438188       7.44369814       0.30822179       0.37825915       0.25403296
C        6.20294754       4.94480390       7.33431674      -2.29583931       0.48838953       0.98840790
C        8.62332998       4.97625459       7.32165472       1.80731043      -0.12211814       0.55821735
C       11.09043316       4.96503951       7.27038513       2.10759060       2.08771237       1.34296509
C       -2.48618711       7.13612606       7.39565400       2.73321302       1.08338188       0.55270850
C        0.03277543       7.14689325       7.49392346      -1.66531252      -1.06869060      -0.67413605
C        2.44403429       7.03137537       7.56671441       2.04569952       3.38438449      -0.68264614
C        4.91804533       7.11738914       7.46859910       0.67358738      -2.27400191       0.85868726
C        7.42676017       7.06970224       7.63471209      -0.97885780       0.13544083      -2.20498758
C        9.90581405       7.08551760       7.43567055      -1.04465567       0.64966172       0.59016511
C       -3.73225394       9.25602675       7.61775978      -0.07609514       1.16886901      -0.22579994
C       -1.30164478       9.19958901       7.43581462       3.44847309       1.59938866      -0.40513927
C        1.22677429       9.24802100       7.31580383       0.19961891       0.21316811       1.19171968
C        3.66427339       9.19661835       7.52486720      -1.29409073      -0.93179247      -0.10217615
C        6.11320901       9.21329118       7.60905392       0.82608542       0.10134183      -0.22239862
C        8.58032541       9.21816720       7.62496587       0.07954402       0.23421593      -0.78355732
C       -5.01775466      11.43147871       7.72154293       1.92608280      -0.71109746      -0.36608241
C       -2.45290893      11.38121364       7.64333467      -0.99632999      -1.19136693      -0.12145249
C       -0.03242919      11.32696958       7.45369623      -0.79362653       1.37199593       0.13698478
C        2.41945289      11.32129608       7.39130671      -0.47993471       1.50014022       0.82663641
C        4.85580964      11.31256822       7.59088801       1.38034687       1.20624359       0.48121538
C        7.34883970      11.35849503       7.67254821      -1.26862935       0.02903470       0.02774297
72
Lattice="14.76 0.0 0.0 -7.38 12.782534959858314 0.0 0.0 0.0 15.0" Properties=species:S:1:pos:R:3:REF_forces:R:3 REF_energy=-11165.069274350772 config_type=fd_force_conv_snapshot_051 snapshot_index=51 split=validation degauss_Ry=0.00285013035 kgrid=8 lattice_temperature_K=450.0 trajectory_seed=2 p4_key=seed2:snapshot051 pbc="T T T"
C        0.01452349      -0.03173166       7.31171001       0.47960099       1.21187148       0.60326102
C        2.45923190      -0.00396225       7.33303023       1.35471991      -0.92385084       0.45244217
C        4.92296453      -0.04513391       7.53189984      -0.41377843      -0.40588592      -0.94177246
C        7.41185245       0.01943598       7.60019593      -1.27997049      -1.51493898      -0.35277258
C        9.85709097       0.06769683       7.55846413      -0.69319975      -1.94668710      -0.43581021
C       12.26874370       0.04301088       7.32385449       2.97617352      -1.51309241       0.15313310
C       -1.21140342       2.12142539       7.47280157       0.25552523       0.43797328      -0.57120168
C        1.26162599       2.17336917       7.34870513      -1.49804220      -2.62233882       0.47637554
C        3.73479395       2.09139843       7.46262265      -0.93797083      -0.37343139      -0.07588740
C        6.12095593       2.11394623       7.53941229       0.99094712      -2.76867367       0.51433196
C        8.56195335       2.17903322       7.69336242       0.33250560      -1.84322154      -0.52607290
C       11.07320359       2.14988414       7.54063270       0.50917124       0.87788003      -0.17430922
C       -2.39474934       4.25609452       7.63471415      -2.13803837       0.41530284      -0.19701232
C       -0.00841866       4.32534505       7.38536085       1.22251713      -3.31035188       0.58066694
C        2.43153271       4.17447930       7.44578153       1.42231473       5.21323510      -0.03982150
C        4.90303809       4.19909700       7.48537019      -0.70580150       3.16649995      -0.14763326
C        7.34510376       4.29052878       7.68252432      -1.10302974      -1.50557039       0.85773236
C        9.80379879       4.22938017       7.73374703       1.43133596       2.44662166       0.54985458
C       -3.63051776       6.34654943       7.52737107      -3.88998909       0.09231649       1.31599113
C       -1.26663936       6.40003544       7.48637531       4.14983326      -0.79955523      -0.55584216
C        1.28623858       6.40506452       7.52616554      -2.56563777      -0.99320070       0.46259057
C        3.68071723       6.38342417       7.50238703      -1.51110418       1.43920456       0.68973828
C        6.11546921       6.42045574       7.61154286      -0.43193813       0.11286114       0.24202540
C        8.55809169       6.37171274       7.72069047       2.74459195       0.74907342      -0.18991762
C       -4.90817686       8.45908658       7.40544112      -1.09114456       1.04363546      -0.24903191
C       -2.38968848       8.47986909       7.33728222      -3.73117077      -0.17807743       0.23241281
C        0.00816052       8.51207931       7.35121123       0.70745292      -0.37601175       0.22758274
C        2.44102966       8.56428122       7.65206604       3.06937036      -1.06900016       0.43775988
C        4.90176211       8.57733454       7.60313487      -0.78421783       0.06533610       0.90701115
C        7.39404622       8.57813255       7.51950284      -0.80628330      -1.85917215       0.00360829
C       -6.15932923      10.67981236       7.29336553       1.87700327      -1.41455951      -0.11407471
C       -3.67939601      10.58219722       7.29606548      -1.05606340       0.29784662       0.05586082
C       -1.23746619      10.64729656       7.46271976       0.74001337      -0.36383655      -1.22518054
C        1.22695315      10.69483423       7.49227131       2.10250701      -2.83332277       0.72834776
C        3.67433243      10.72483956       7.58152214       0.68502184      -0.84040826       0.34356726
C        6.11409854      10.67365279       7.41850955       1.99747282      -0.48941026       0.53774623
C        1.25262513       0.67713026       7.37923789      -1.11819642       2.36894503      -0.81732053
C        3.70034270       0.66567865       7.45838399       0.41831720       1.29135507      -0.14961943
C        6.14954458       0.66310507       7.53125569       0.06055411       1.16609144       0.61437590
C        8.60840050       0.71563952       7.64108255       0.58625677       2.55070300      -0.06357001
C       11.07346182       0.75107744       7.31983239      -0.57036118       0.50831918       1.91257114
C       13.57892203       0.72411574       7.36230181      -2.46705036      -1.20508428      -0.17109586
C       -0.02256979       2.85402729       7.34570876       2.30031483       1.00250578       0.55232567
C        2.50945083       2.83100156       7.42822123      -0.71136768      -2.56770313      -0.37076336
C        4.95321351       2.78983597       7.50652248      -2.86014581       1.28284987      -0.29918385
C        7.28176392       2.82166149       7.67630882       3.91998436       2.37936263      -0.23573211
C        9.82859248       2.86212993       7.64936595      -0.73158092      -1.69175323       0.31350104
C       12.33956354       2.84822560       7.62260105      -1.12878756      -0.74366408      -0.75944911
C       -1.19281659       4.99539600       7.44976572      -2.59429091       0.50903266       0.95139944
C        1.22873858       4.93069968       7.55081211       0.93411649       1.67216476      -1.44211222
C        3.65040856       4.99589517       7.35293676       0.95106829      -3.45588455       1.53921688
C        6.08806923       4.98551222       7.64368854       1.11641619      -0.24291551      -0.71055495
C        8.58581949       4.96021091       7.81991341      -0.79253098      -0.29821223      -1.03411672
C       11.06342108       4.94558856       7.71288944       1.64839234      -0.42957349      -0.88921911
C       -2.45274468       7.05797318       7.47515704       0.52692831       1.83684623      -0.58837536
C        0.02737319       7.10537563       7.43202027      -1.18310366      -0.66038733       0.15879313
C        2.44134564       7.14893081       7.65997802       2.11220907      -1.45313249      -1.17797842
C        4.85693509       7.12818269       7.58833654       2.32377049       0.50731336      -0.26559059
C        7.38268558       7.11279846       7.63405640      -1.58681057       0.86325586      -0.02183047
C        9.84876497       7.06890722       7.59177192      -0.39232026      -0.87472503      -0.44854669
C       -3.67809676       9.14335081       7.32809429       0.97364849       1.32584797      -0.19571083
C       -1.23722238       9.22464308       7.28787193       2.16844270       0.60706728       0.94889185
C        1.26766082       9.15781653       7.46969692      -3.71653862       5.43818143      -0.14021383
C        3.67411302       9.35066906       7.71437684       0.37924209      -3.51090410      -1.05542756
C        6.15031814       9.27635347       7.57730907      -0.60316512      -0.93175056      -0.74650026
C        8.59609677       9.24565990       7.32576695       1.70626042      -0.43115883       0.94583712
C       -4.88442484      11.36832760       7.26505042      -1.43617040      -1.37569163       0.23524000
C       -2.49047756      11.30559535       7.40920354       1.83769753       0.79183884       0.57418724
C        0.04238099      11.37217219       7.49640422      -2.64885126       0.23232000       0.31124284
C        2.46645769      11.40242455       7.63097243      -1.39753161       1.66465714      -1.17909711
C        4.91442161      11.35636395       7.42814775      -0.79538979       3.34463909      -0.24181585
C        7.39193391      11.34468785       7.36314301      -1.64012496       0.90418422      -0.62945645
72
Lattice="14.76 0.0 0.0 -7.38 12.782534959858314 0.0 0.0 0.0 15.0" Properties=species:S:1:pos:R:3:REF_forces:R:3 REF_energy=-11165.584472923776 config_type=fd_force_conv_snapshot_057 snapshot_index=57 split=validation degauss_Ry=0.00285013035 kgrid=8 lattice_temperature_K=450.0 trajectory_seed=2 p4_key=seed2:snapshot057 pbc="T T T"
C       -0.02079437      -0.05862384       7.69311721       0.66698170       1.38160542       0.02628053
C        2.44388747       0.05891369       7.65689346       0.57584483      -2.02001188      -0.43384923
C        4.90469385      -0.00036800       7.50133332       0.86732026       2.56423574       1.18866419
C        7.36022199      -0.05872479       7.48241955       0.68634185       0.87821582      -0.15878362
C        9.86522124      -0.00685959       7.51858639      -1.91851836      -1.11813394      -0.22129459
C       12.28001921      -0.08854482       7.64365187       0.06421639       3.29728837       0.68802052
C       -1.22316221       2.09803868       7.75501983      -1.88672538      -0.15210981      -0.22027489
C        1.19861888       2.16414170       7.58319485       0.70888477      -2.95221778       0.69969873
C        3.71162359       2.14384459       7.55058355      -1.57864886       0.97724212       0.53965321
C        6.13709166       2.13813680       7.50816003       0.50873595      -2.15931502      -0.76412672
C        8.61337873       2.08664869       7.39788981      -0.87783453      -0.63432483      -0.45437461
C       11.08804537       2.10930293       7.52062153      -1.22118761      -0.13889665      -0.14980044
C       -2.45956375       4.26142191       7.46669865      -0.96832656      -2.04250004       0.22586653
C       -0.04877667       4.24847300       7.73690650       0.84846790      -1.23536133      -1.13407195
C        2.45742737       4.25934809       7.59812355      -0.32013654       0.69370394      -0.72033569
C        4.90732740       4.28211234       7.38049178       0.96267116      -1.17681294       0.96477252
C        7.37639239       4.25213719       7.41774173      -0.50753114      -0.66237505      -1.28878089
C        9.85582702       4.29319530       7.34691876      -1.48751276      -3.12311772      -0.38439921
C       -3.60449188       6.39556147       7.43122857      -4.84013513      -0.92120467      -0.39332762
C       -1.22104374       6.41929319       7.55759116      -0.17672220      -1.77210714      -0.02849656
C        1.17589060       6.36219388       7.59242116       2.33857336       0.34498008       0.01723153
C        3.71082112       6.38145542       7.33397389      -0.55527498       2.08834820       0.58511675
C        6.16545488       6.42064857       7.21277687      -0.25539436      -0.12786456       0.86534771
C        8.60445336       6.37855307       7.31525976       2.65464319       1.35389047       0.39373951
C       -4.86694443       8.60524544       7.49184628      -1.02051198      -2.75490644      -0.60884700
C       -2.44745827       8.58547599       7.60861932      -1.24860714      -2.53391550      -0.55985154
C        0.02176661       8.48924432       7.47528712       0.83227895       2.81161701       1.58139685
C        2.46083623       8.51983893       7.43540749       1.03354593      -1.28275062      -0.26646245
C        4.89168397       8.60804109       7.25904440       1.89513931      -2.78271215      -0.04955621
C        7.38149276       8.58844204       7.37785140       0.40327830      -2.97578503      -0.53145499
C       -6.19915453      10.63613078       7.51237605       3.05895456       0.97128410       0.01043251
C       -3.69493863      10.74425163       7.63345461       0.64261870      -1.00660360      -0.64206308
C       -1.21297103      10.59801918       7.62417021       0.35385527       2.88436046      -0.60128976
C        1.26820364      10.67025916       7.47392922       0.47115825      -1.15121530      -0.00430814
C        3.70469225      10.63738128       7.41861352      -1.64950126       0.40880206      -0.03580518
C        6.09193265      10.67998334       7.49668760       2.73495417      -2.24823817       0.36972952
C        1.21441614       0.68565302       7.62610397      -1.27146785       1.93187395       0.27103567
C        3.68274608       0.76146397       7.68402327       0.49248067      -1.48594593      -1.53601919
C        6.16136525       0.66869562       7.46061958      -1.45619081       1.84503468       0.39934271
C        8.58599719       0.62151965       7.48121005       1.41661845       2.90468786      -0.23907069
C       11.05939456       0.66537684       7.60037071       1.76258738       1.45135997      -0.27695486
C       13.51241698       0.67328925       7.76915495      -0.22694253      -1.03383595      -0.77774842
C       -0.01525091       2.79730886       7.74378341      -0.56138212       2.26489069      -0.30038481
C        2.41997250       2.84893121       7.51821178       2.04264556       0.20065018       0.71481296
C        4.93427941       2.85681472       7.54496838      -0.89478375       0.30421344      -0.79529980
C        7.35381581       2.78877006       7.34387846       1.66268433       2.02721688       1.39815536
C        9.83430489       2.81455500       7.33577618       0.70055054       0.52622074       1.02078092
C       12.28761509       2.83838119       7.59744690       1.29335668      -0.88268697       0.07457665
C       -1.26224844       4.93079308       7.53337707       1.63865480       3.17293516       0.98302067
C        1.19070404       4.94067274       7.62724677       0.31763794       0.45801657       0.57387665
C        3.71981249       4.99331527       7.47039062      -1.99455642      -0.85361859      -0.44990449
C        6.12449059       4.97431408       7.35149917       1.52826269       0.91818336      -0.51505007
C        8.60683558       4.96179324       7.32579952       0.06475298       0.19112630       0.31586388
C       11.07367370       4.92432297       7.37621462       1.14676317       3.37629811       0.15001127
C       -2.44791701       7.09558823       7.50483475       1.56373029       2.70184916       0.49944784
C        0.00973946       7.13530264       7.62631992      -0.94201672      -2.66644327      -0.89335370
C        2.42830486       7.05884400       7.48311675       1.08864699       0.95169332      -0.58828306
C        4.94375263       7.18139839       7.22017522      -1.03383904      -2.00854270       0.17356489
C        7.42723298       7.09124178       7.29868887      -2.44476558       2.46622632      -0.20658557
C        9.87394212       7.15152165       7.40593533       0.72348580      -1.25325338       0.02428227
C       -3.67371249       9.32841356       7.56817068       1.09932272      -0.78197969       0.52499998
C       -1.21084234       9.19404761       7.60574425       0.44058038       1.23071843      -0.35580648
C        1.28430311       9.23309420       7.51316577      -2.38297966       0.20143385      -0.70102130
C        3.69303448       9.26032125       7.30655060      -1.80446370      -1.00508896       0.60150676
C        6.12433743       9.27455718       7.36367931       0.96934137       0.11113825      -0.12687520
C        8.64225507       9.23938259       7.42162563      -1.50422313       0.86381636       0.46384938
C       -4.92959708      11.39237463       7.55263106      -1.28637870       0.88999276       0.82798778
C       -2.43671318      11.43062560       7.60432524      -0.22355768      -4.02419040       0.17503170
C        0.03685515      11.33438055       7.52113435      -1.85327687      -1.39212741       0.22875645
C        2.50364409      11.36918520       7.43075482      -0.93942376      -0.51285435       0.53667253
C        4.89069020      11.31229448       7.57140701       0.28033303       1.54624113      -0.49799517
C        7.35864485      11.30996175       7.60277401      -1.20808321       1.68165676      -0.20162000
72
Lattice="14.76 0.0 0.0 -7.38 12.782534959858314 0.0 0.0 0.0 15.0" Properties=species:S:1:pos:R:3:REF_forces:R:3 REF_energy=-11165.003849204202 config_type=fd_force_conv_snapshot_063 snapshot_index=63 split=validation degauss_Ry=0.00285013035 kgrid=8 lattice_temperature_K=450.0 trajectory_seed=2 p4_key=seed2:snapshot063 pbc="T T T"
C       -0.04263039      -0.01954967       7.39129868       1.75218289      -1.01945552      -0.40883189
C        2.46418768       0.01671786       7.46728862      -4.27873835      -2.55409686      -1.36053241
C        4.85472454      -0.02776380       7.58941477       0.75422077       2.96291434      -0.73321640
C        7.33827953      -0.00166682       7.37011457       2.07275909      -0.31619632       0.34664256
C        9.82441839      -0.01617412       7.45513236       1.61935893       0.45697759       0.32991059
C       12.35979202      -0.07746760       7.55570818      -2.89388459       1.16105311      -0.46857738
C       -1.21885558       2.04298977       7.40703643       0.31341259       1.92638799       0.05656607
C        1.19774670       2.11163567       7.32832346       0.33475043      -0.61165182       0.13976183
C        3.66566203       2.11444211       7.51845403      -0.69038259       0.59398577      -1.09999892
C        6.12548034       2.11570844       7.44527615       0.22372454       0.45608516       0.19350637
C        8.58182432       2.14471033       7.34392279       1.25563808      -0.48158073       0.65967771
C       11.08777086       2.11612380       7.43555855       2.24456792      -1.53974061      -0.44845824
C       -2.37912729       4.25942408       7.39441905      -1.63865378      -0.70593597      -0.42052141
C       -0.02133722       4.25210028       7.50820495       1.20176241      -0.69061039       0.04093428
C        2.46799591       4.24236776       7.45245568      -0.84294440      -0.65351349       0.28944682
C        4.96015207       4.29488965       7.43062938      -1.81284679      -2.35370739       0.09719490
C        7.40025334       4.25903623       7.50692059      -0.21261532       2.77063954      -0.00334912
C        9.92133704       4.25449598       7.46883377      -0.71514874       0.66317621      -0.43709011
C       -3.59929084       6.41384804       7.55620417      -1.90490154      -0.51122504      -1.10523909
C       -1.18181197       6.43600952       7.48229363      -0.09728720      -1.78499557      -1.30638729
C        1.23379602       6.36798424       7.55164454       0.09895662       1.39612444      -0.60341580
C        3.66224810       6.37440281       7.50324569       1.95211059       0.29402004       0.92549558
C        6.15737285       6.43376118       7.59391946       0.37477942       0.68504370       0.41758161
C        8.63908490       6.40087834       7.71591446       1.42652568       0.54136248      -0.95269862
C       -4.93303384       8.54651341       7.57727070       0.71974331      -2.00066150       0.53644293
C       -2.41138319       8.61737951       7.42174700      -1.53064610      -3.80380392       0.25626082
C       -0.02764115       8.55741899       7.48750430       3.98311368      -0.75065671      -0.49316458
C        2.50861220       8.51108168       7.62486435      -1.82759798       0.29120623      -0.13607743
C        4.89431042       8.54054792       7.73456679      -1.24184745      -1.01591588      -0.01870940
C        7.33118359       8.57245193       7.81532423       2.28732871      -1.59241377      -1.46033132
C       -6.24337564      10.69815549       7.49186892       3.05100137      -2.61155201       0.39505077
C       -3.73711580      10.63889015       7.49075280       0.55164484      -0.03016341       0.58884047
C       -1.24399948      10.73353967       7.33161720       0.51214498      -1.64202012       1.33142752
C        1.23162628      10.61610685       7.53681071       0.40426535       1.42336065      -0.29242596
C        3.64295457      10.69219737       7.46640663       1.87364155      -3.20120238       1.97408427
C        6.07164217      10.64681647       7.67229048       1.10620479      -1.66464994      -0.43720144
C        1.21028705       0.69286863       7.24249447      -0.47010873      -0.54530553       1.73619526
C        3.59126641       0.70796929       7.55407940       5.23763384       0.73809096       0.44377935
C        6.13791295       0.69994428       7.46404124      -1.95521005      -0.51657833       0.12692328
C        8.59059298       0.70781768       7.35087068       0.18547733       0.53271072       0.28776327
C       11.16002965       0.65486765       7.54505393      -3.89956131       1.34942910      -0.94650715
C       13.51417777       0.63821592       7.42740865       1.45395935       1.35701874       0.23358986
C       -0.01026654       2.80773248       7.47049995      -0.50841611       0.33164454      -0.88758209
C        2.42157848       2.79132597       7.37025476       1.36614075       2.09515237       0.80781027
C        4.90730472       2.81554782       7.44010102       0.19557122       1.36372289       0.48112822
C        7.34708751       2.86830667       7.46775800       0.95507278      -1.11803675      -0.84716512
C        9.87734048       2.80796694       7.35801689      -1.41229231       1.18389762       0.58434696
C       12.37791014       2.80267032       7.35232124      -2.56561437       0.96970981       0.85632596
C       -1.20688158       4.98965148       7.44806253       0.78938138       0.41154877       0.41602197
C        1.21588747       4.96407624       7.55642068       1.03170348      -0.95191186      -0.67322048
C        3.71395851       4.93517458       7.48558286      -1.30479834       1.37727389      -0.47070163
C        6.12053468       5.04094426       7.46070731       3.42804439      -1.94477035       0.48776141
C        8.69523532       5.00602757       7.57541521      -2.07583850      -2.56582700      -0.15543938
C       11.14490135       4.99219486       7.40991458      -0.03242161      -1.14953431       1.03982765
C       -2.39474546       7.09961005       7.38141346      -0.26642105       3.62753474       1.39235649
C        0.03743748       7.12039352       7.42532113      -0.86000675       0.67513672       1.34103007
C        2.45643810       7.09435329       7.53362653       0.47777447      -0.58846149       0.49679472
C        4.91802086       7.12657630       7.66211278      -1.08288926      -0.90157789      -0.70797100
C        7.42570797       7.13397657       7.70916144      -2.14568380       0.16304136       0.54838082
C        9.88971804       7.09608940       7.62081006      -0.35792970       0.96310156       0.35725633
C       -3.70348369       9.21435294       7.58716128       1.41088335       1.79895640      -1.63461766
C       -1.18719050       9.29810621       7.37484975      -1.97789567       0.72838864       0.08818807
C        1.28573820       9.23810565       7.58812976      -2.55033739      -1.45923397      -0.46890134
C        3.67830423       9.25973779       7.67913130       0.23515798       0.02043127      -1.03748435
C        6.07140845       9.22132558       7.76170206       2.77152091       1.56763554       0.19804693
C        8.61712898       9.25060974       7.60768073      -2.88690713       1.20741267       0.64886776
C       -4.94474783      11.33879429       7.44952740      -1.31900395       1.75861322       0.34321399
C       -2.50902069      11.39680731       7.50285440       0.49714182      -2.03850043      -0.73653107
C        0.01742795      11.35455280       7.40660991      -1.24758127       0.92888532      -0.03346162
C        2.45674920      11.33422734       7.52981035      -2.21687919       2.34795378      -0.72314385
C        4.88572276      11.32302551       7.54834487      -0.11984580       0.76007929       0.04826989
C        7.28767513      11.33716826       7.52951128       0.79383504       1.43577985      -0.03374959
72
Lattice="14.76 0.0 0.0 -7.38 12.782534959858314 0.0 0.0 0.0 15.0" Properties=species:S:1:pos:R:3:REF_forces:R:3 REF_energy=-11165.634609354322 config_type=fd_force_conv_snapshot_069 snapshot_index=69 split=validation degauss_Ry=0.00285013035 kgrid=8 lattice_temperature_K=450.0 trajectory_seed=2 p4_key=seed2:snapshot069 pbc="T T T"
C        0.02906638       0.04829287       7.50906953       1.17081533      -1.15995371       0.18993125
C        2.45526179       0.06444998       7.52512619       0.97469518      -3.49733176       1.39202045
C        4.93539165      -0.04052687       7.76198943      -0.91185176       0.60487516      -0.61008473
C        7.33026918      -0.00581040       7.62762577       1.59495479      -0.99248799      -0.25656447
C        9.81784474      -0.01534737       7.57051233       0.44963504       0.42238083       0.55172249
C       12.33370536       0.01845690       7.65916053      -2.43836996      -1.37592020      -0.45191226
C       -1.20637308       2.08753000       7.48741692       0.10879983       0.60557604      -0.66357113
C        1.21680884       2.12982038       7.51481167       0.89263740       1.77267124      -0.58979538
C        3.69017800       2.09917000       7.50571066      -0.93782299       0.36222884       1.05459504
C        6.10505400       2.13218379       7.63700153       0.47521365       0.28920514       0.21209518
C        8.55560989       2.15212533       7.65145243       1.25270214      -1.75723125      -0.05944982
C       11.08562283       2.15048169       7.49245457      -0.02513099      -1.18773190       0.72829917
C       -2.40222465       4.25192616       7.40747445      -1.09888615      -0.15377022      -0.81847444
C       -0.03088217       4.24317315       7.48948232       1.95670309       1.19791347      -0.94938164
C        2.41986204       4.27173961       7.39102679      -0.47561500      -1.92928794      -0.09052006
C        4.83969996       4.30799048       7.47500086       0.81584909      -3.44505841      -0.30212468
C        7.34184661       4.27599798       7.59380983      -1.61806747       0.94999768      -0.32379522
C        9.79212484       4.22970681       7.52091995       1.72132580       1.48860754       0.32841241
C       -3.64895024       6.29604318       7.37505058      -1.23458512       2.49163345      -0.21819256
C       -1.22601260       6.35005529       7.34455949       3.01123360       1.61609852       0.63325268
C        1.26073449       6.36692106       7.47316006      -1.31101990       1.61769003       0.09679843
C        3.67118254       6.41176009       7.29785125       0.03176135       0.11246314      -0.03203929
C        6.09055645       6.43772594       7.45060244       1.36295078      -1.43343192      -0.49365721
C        8.58928515       6.44812967       7.43804337       0.92269668      -2.24415346       0.26545252
C       -4.87188172       8.49494265       7.32997724      -1.01836948      -0.72285126       0.46976832
C       -2.44921436       8.46088793       7.42539649       0.33615734       0.44366982      -0.55321964
C        0.01915584       8.49908782       7.56700129       0.86883309      -0.83082139       0.36993367
C        2.43278033       8.54952445       7.40102218       1.59897343       0.26042190       0.41945800
C        4.98205286       8.59027029       7.30785807      -3.09437896      -0.01272799       0.22135116
C        7.34533025       8.55341429       7.36991541       1.85536306      -0.01873717       0.34740283
C       -6.13856252      10.64465811       7.59561894       2.25678323      -0.23974714      -1.02866469
C       -3.70150776      10.62478332       7.65620736       1.12037671       1.51632069      -0.98526164
C       -1.22585425      10.59123670       7.54411624      -0.05066513       0.94735484       0.32032629
C        1.26818588      10.63373145       7.58473266      -2.56963223       1.51135872       0.17385362
C        3.74116488      10.69995498       7.54714161      -2.04080388      -2.86781155      -0.84709467
C        6.21182198      10.73212156       7.52404815      -1.16464160       0.79819461       0.30237407
C        1.26469887       0.75672014       7.46369725      -2.12707724      -0.72271010       0.36433252
C        3.68077561       0.67212159       7.71649669       1.36332385       1.82300162      -1.42648814
C        6.13853817       0.70742673       7.67186722      -1.12165712       0.19302686       0.33124319
C        8.57375855       0.69643530       7.60027795       0.19244270       0.72489040       0.21310820
C       11.07580111       0.70065083       7.62237966      -0.21573098       1.33599225      -0.62659250
C       13.53320880       0.65289448       7.52509013       1.39914857       3.24048318       0.29652841
C       -0.00219061       2.84792217       7.48382552      -0.34275839      -1.32839362       0.37487327
C        2.43842421       2.82586865       7.44712232       0.62353314       0.51072805       0.19001738
C        4.88321555       2.83514101       7.57183755       0.22729323       0.91765474      -0.40666136
C        7.33687105       2.85929284       7.65309231      -0.15846454       0.11715617      -0.14191538
C        9.81825995       2.82707045       7.61584184       0.06604933       0.12893774      -0.87819962
C       12.37522011       2.83462864       7.38426811      -2.51890822      -0.42213169       1.11166736
C       -1.19417547       4.98582785       7.31186530      -1.32202576      -2.43723585       1.17257397
C        1.20600701       4.98697985       7.44893370       0.33767301      -1.99957238       0.04603252
C        3.63006552       4.92521662       7.30231593       0.17885159       4.24204511       0.66718430
C        6.02355265       5.00373345       7.47824800       3.96554790       0.36406718       0.73225764
C        8.58232176       4.98540764       7.54367090      -0.44546291       0.31503136      -0.24229279
C       11.09680229       4.93925592       7.44533494      -1.03402467      -2.65187180      -0.10657737
C       -2.42255497       7.00057360       7.31108206      -1.85313829       3.22087312       0.62630428
C        0.03480700       7.06496275       7.55453239      -1.16659024       0.71170167      -1.21923872
C        2.44449225       7.13733314       7.37135043       0.98465615      -1.18554852      -0.08599106
C        4.92157234       7.15970405       7.33295418      -1.13459363      -0.17573644      -0.16205920
C        7.34854113       7.12414055       7.42302123      -0.45693003       0.79394329      -0.19568178
C        9.87810741       7.05866894       7.38825942      -0.39821349       0.62586924      -0.48200934
C       -3.69389096       9.23998739       7.41187600       1.87758279      -1.65575161       0.75244774
C       -1.18617623       9.17127661       7.48773185      -2.59309792       0.12657207       0.25152048
C        1.23288952       9.25996058       7.63437487       0.20767674      -2.09977316      -1.29266068
C        3.70054032       9.24924793       7.31569687       0.46573451       1.10998174       1.23393797
C        6.15370413       9.36083048       7.41789129       1.56581957      -3.02288352      -0.41010767
C        8.65302313       9.17253096       7.38769565      -1.95499717       2.46403163       0.77525959
C       -4.89562527      11.38854116       7.63647142      -1.49218497      -0.66816929      -0.41757672
C       -2.44258535      11.33635768       7.65000938      -0.48907293      -1.12849369       0.32011777
C       -0.03302378      11.33743742       7.57921148       1.72758309       0.24666495       0.16930509
C        2.46865884      11.33234608       7.56753221       0.79740862       1.95298374       0.14205294
C        4.93112073      11.38333029       7.61865368       2.10981563       0.95531241      -0.23823482
C        7.46611119      11.43468567       7.57314168      -2.05383166      -1.76228270      -0.24172046
72
Lattice="14.76 0.0 0.0 -7.38 12.782534959858314 0.0 0.0 0.0 15.0" Properties=species:S:1:pos:R:3:REF_forces:R:3 REF_energy=-11164.91770177248 config_type=fd_force_conv_snapshot_075 snapshot_index=75 split=validation degauss_Ry=0.00285013035 kgrid=8 lattice_temperature_K=450.0 trajectory_seed=2 p4_key=seed2:snapshot075 pbc="T T T"
C       -0.03411871      -0.02172114       7.57276579       0.59027978       0.90113463      -0.92804483
C        2.49132819       0.10779300       7.42152918      -1.41671358      -3.21376839       0.44864130
C        4.97398006       0.04785096       7.35764460      -0.65424368       1.47058590       0.64108632
C        7.41255172      -0.04857643       7.43481027       0.26938502       2.21691082      -0.01832348
C        9.79216333       0.00881689       7.53002037       2.78327702      -0.90803393      -0.46683032
C       12.31932385      -0.03956376       7.64944412      -0.82113527       0.96804759      -0.03413962
C       -1.20890701       2.16770177       7.65224907      -0.81072591      -2.64479663      -0.90424747
C        1.21731384       2.12794490       7.51643987      -1.07919536       0.95996765       0.68961872
C        3.65264719       2.15186527       7.46646549       1.11877800       0.85775010      -0.32235232
C        6.17281356       2.11940622       7.27048826      -0.32793084       0.20361954       0.86464991
C        8.64561352       2.16670473       7.26162922       0.59360164      -0.76940853       0.94726537
C       11.10546429       2.12011564       7.50910992      -0.69310154      -0.07855877      -0.50017470
C       -2.44617406       4.22726656       7.48339489      -0.07115708       2.48759090       0.67529433
C       -0.01383822       4.26466210       7.67566661      -0.64795579       0.90954600      -0.29964742
C        2.40555114       4.27025688       7.67897718       2.62658705      -0.74503962      -0.94277905
C        4.92948147       4.18331898       7.41560409       0.04933870       2.76677028       1.15701751
C        7.38132834       4.20684977       7.28535929       0.65481601       1.85580066       1.76202276
C        9.88464784       4.32132378       7.38350786      -0.56332999      -0.54928019       0.10180309
C       -3.66602588       6.47156428       7.51699389      -1.06053994      -2.39234567       0.17814274
C       -1.25439967       6.40890289       7.43367776       0.51045602      -2.44871042       1.17411611
C        1.20518168       6.38910159       7.52793803      -1.10206095      -1.17024557       0.10718698
C        3.68535923       6.35364887       7.41733262       0.56952506      -1.61078122       1.09273067
C        6.16473581       6.38926846       7.62866971       0.04831489      -2.98015282      -0.20152049
C        8.55494656       6.42598958       7.65705800       3.09063724      -3.16652335      -1.06267010
C       -4.93961103       8.58568247       7.58772702      -0.10729933      -0.55375211      -0.54799979
C       -2.44682805       8.50097488       7.41617508      -1.52591270       2.89239104      -0.10055610
C       -0.07966317       8.55857912       7.48780412       2.65117400      -4.44354709      -0.08635256
C        2.45331455       8.45620305       7.38724216      -0.52366584       1.08549764       1.38963266
C        4.95170528       8.42552710       7.47259594      -0.89164289       2.32433356       1.16071707
C        7.44628438       8.56414266       7.72487341      -3.07789459      -1.58707950      -0.81931982
C       -6.15093367      10.77187060       7.55267499      -1.04165339      -2.10516193      -0.13798134
C       -3.62190705      10.69572478       7.33606809      -3.69096977       0.96796686       1.39795147
C       -1.21866869      10.63272124       7.45358775      -1.09116821       2.70045845      -0.30157317
C        1.19144104      10.59583171       7.43558584       2.72948029      -1.16543915       0.39703618
C        3.68282876      10.63693035       7.63269893      -1.02145738      -1.67582421      -0.55529735
C        6.11796931      10.58536151       7.55871187      -0.68413096       1.04872238       1.19099463
C        1.19729858       0.72759932       7.46036135       1.11058801      -0.32773826       0.45453581
C        3.72187112       0.76132216       7.39721348      -0.19828810      -0.02331759      -0.17563514
C        6.23155289       0.73810134       7.39742702      -1.72741237      -2.28560607      -0.63722966
C        8.61248063       0.76695591       7.45073497       0.08647083      -2.47601220      -0.64396133
C       11.09609912       0.68847267       7.55729730      -1.51947183      -0.08665646       0.29157750
C       13.53942360       0.68664699       7.57732549      -0.75641958       1.88743655       0.92984949
C       -0.01005513       2.86306752       7.62898492       0.68781715      -0.59879064       0.09710182
C        2.41757761       2.86882263       7.58050761       0.65651628      -1.42785263      -0.16353296
C        4.90667150       2.82183528       7.37841906       0.73565355      -1.58676711      -0.23719866
C        7.39917329       2.79060441       7.25589611      -0.10864685       2.14907072      -0.68554069
C        9.90046220       2.87497444       7.33977580      -0.78159916      -0.14307032       0.18403571
C       12.32026380       2.83293787       7.54922916      -0.07515335      -0.09898079       0.28881510
C       -1.25131994       4.98860081       7.57919925       0.75086394      -1.17027000      -0.61237892
C        1.20900723       4.95874034       7.66925682      -0.70567037       1.77440982      -0.25686940
C        3.69980311       4.89757293       7.52518895      -1.22429736       2.10418543      -0.09729106
C        6.17155347       4.90572042       7.55674835      -0.33376750       1.17901021      -1.76632910
C        8.60060101       4.98308680       7.42523061       0.32037025      -0.10192419       0.04890547
C       11.12512011       5.02171160       7.48232612      -1.36121760      -0.22298638      -0.41145544
C       -2.42155418       7.12794053       7.49406479      -2.46731055       0.62263325      -0.61066297
C       -0.06320163       7.06309895       7.47526219       2.34592749       2.89199663      -0.00956090
C        2.43541042       7.04910941       7.44256507       1.11568497       0.36436054      -0.39134607
C        4.94824012       7.04722161       7.51433458      -1.72160399      -0.62587053      -0.47165730
C        7.37429265       7.08274201       7.69001260      -0.26491361       3.12870422       0.38950619
C        9.81163758       7.10601973       7.59631036       0.77475977       2.35738150       0.25409647
C       -3.72140120       9.27926640       7.37466040       2.37143129      -1.36262528       0.77427718
C       -1.23889150       9.25017103       7.43976057      -2.36732909      -0.02747172       0.00438527
C        1.16729647       9.15349435       7.50895617       2.30966645       1.93376397      -1.03893342
C        3.70562540       9.15717939       7.52950318      -0.64370010       1.05462512      -0.83911603
C        6.15860024       9.16461728       7.60680357       0.54730276       0.86827851      -0.20188713
C        8.59530466       9.34220349       7.63773764       1.85590608      -1.09648011       0.10028922
C       -4.90964089      11.43365002       7.50793630       1.35433476       0.69002521      -1.39419072
C       -2.44904726      11.46427464       7.41283078       1.88536784      -3.85176142      -0.58430659
C        0.02333272      11.29711191       7.44894833      -1.66385162       2.00833496       0.04202314
C        2.43633552      11.32078587       7.45610641      -0.17579661       0.92463143       1.25085300
C        4.89309839      11.33675175       7.75044608       1.06063559      -0.80904106      -1.69770585
C        7.29007855      11.35866566       7.51011734       2.74538693      -0.02426916       0.67044009
72
Lattice="14.76 0.0 0.0 -7.38 12.782534959858314 0.0 0.0 0.0 15.0" Properties=species:S:1:pos:R:3:REF_forces:R:3 REF_energy=-11165.010715316637 config_type=fd_force_conv_snapshot_081 snapshot_index=81 split=validation degauss_Ry=0.00285013035 kgrid=8 lattice_temperature_K=450.0 trajectory_seed=2 p4_key=seed2:snapshot081 pbc="T T T"
C        0.01260638      -0.03506652       7.40502822       2.72444530      -0.71202125       0.51844650
C        2.48796310      -0.00085735       7.76533643      -0.72493616      -1.68100782      -1.90447216
C        4.90413570       0.03832890       7.54690110      -0.60275528      -3.33688053       1.12967305
C        7.34865726       0.05119813       7.52887308      -1.21177018      -3.09604581       0.26066692
C        9.85326419       0.08617287       7.22470402      -2.48298991      -2.34362507       2.00800791
C       12.25742259       0.05873685       7.27344322       3.29016872      -2.73823155       0.22014197
C       -1.19424167       2.12741724       7.37665448       1.12294448      -0.18679013      -0.10007736
C        1.26809166       2.13681171       7.44774654       0.00938915      -0.12021604       0.25959503
C        3.68463346       2.15171479       7.62254229       1.42630817       0.64179851      -0.47445415
C        6.16878381       2.11931977       7.55866138      -2.72923295       1.66738843       0.31469968
C        8.55428973       2.13632586       7.60935641       2.33195020       0.29651993      -0.38898605
C       11.14104245       2.17709646       7.47711225      -4.14146715      -0.23355335       0.39047292
C       -2.40823082       4.24493328       7.53649985      -1.28701325       1.88752448      -0.24736198
C        0.02805040       4.28872467       7.46972482      -0.96333168      -1.53339101      -0.09239002
C        2.40572157       4.28383953       7.62777576       3.35418302      -0.64613545       0.21485784
C        4.88690665       4.28294566       7.48441157       1.66827957      -0.03066298       0.96329645
C        7.38436195       4.25841900       7.60395848      -0.15931609       1.51044803      -0.28877757
C        9.80960008       4.26145647       7.63575795       2.23309797       0.41204242      -0.74893767
C       -3.69285311       6.37997649       7.45525208       2.37377871      -0.44159751      -0.53961310
C       -1.21094247       6.37015818       7.54254779      -0.23373102       0.60015744      -0.15432892
C        1.20537144       6.41076966       7.62143428       0.61055524       0.09470504       0.73841183
C        3.68559668       6.42826332       7.61584371      -1.04192927      -0.92405088       0.23419459
C        6.13090296       6.35453038       7.46162420       0.34095733       2.02685564       0.68870341
C        8.63397217       6.38568372       7.43761762      -0.03271240       0.53274826       0.90844557
C       -4.93968046       8.50603303       7.37865294       2.40593987       0.31212087       0.24916972
C       -2.38546426       8.47101549       7.45985889      -1.87710945       1.40642351       0.26562247
C       -0.01362717       8.52667876       7.76525874       0.55765068      -1.13512585      -0.72961249
C        2.45352665       8.54613079       7.67562993      -1.18205697       1.21902969      -1.31499071
C        4.92843361       8.49575215       7.31227319      -1.92541791       1.90994013       0.66511225
C        7.28690713       8.43745405       7.28247651       3.94226142       1.30360304       0.80499055
C       -6.14419932      10.54936226       7.44998661       1.31611917       2.25925226       0.08437281
C       -3.63572839      10.62710122       7.59108103      -2.86274545      -0.27402740      -0.59095649
C       -1.24900774      10.59472340       7.53639514      -0.74422561       2.36762374       0.92545624
C        1.16708925      10.70131458       7.45330181       0.00293440      -1.20826730       0.94594793
C        3.67438603      10.64019339       7.27669166      -0.62798603       0.53112204       0.79566130
C        6.17955027      10.64741068       7.35070978      -1.91523326      -0.98145667      -1.10099394
C        1.28104288       0.70995748       7.55074935      -1.83148034      -0.42385664      -0.13544906
C        3.69033893       0.73211207       7.66085099       0.13400050      -0.13343203       0.14030459
C        6.10493602       0.70369533       7.63905372       1.75820313       1.93550769      -1.19984926
C        8.55577679       0.73095416       7.46148351       2.10178607       0.43046798      -0.41426720
C       11.07508024       0.76910451       7.32886328      -0.12102774       0.62637318      -0.48302955
C       13.59966175       0.68282065       7.34118536      -3.35976000       1.40737199      -0.14600755
C        0.03993436       2.85551198       7.31143475      -0.46779782      -0.30563577       1.33995767
C        2.49620805       2.87399186       7.58541134      -2.32988252      -0.59903258      -0.17328284
C        4.91431325       2.89547927       7.49088923       0.55603114      -2.97009723       0.76972735
C        7.36125419       2.85188030       7.62749469       0.07974431      -0.18585271      -0.09306622
C        9.81268771       2.86024343       7.59731768       1.23726755      -1.12629822      -0.02528654
C       12.33828385       2.84772378       7.52275227       1.26819046      -0.21508615      -0.69970593
C       -1.19102259       4.98888385       7.51880933      -0.67978785      -1.85128941      -0.20318631
C        1.21171347       4.97361317       7.61018885       0.44706367       1.85979950      -0.50994669
C        3.68801124       4.94791042       7.68246053      -1.75467763       3.01454749      -1.20760319
C        6.15890710       4.98732086       7.53030660      -1.04588543      -1.81003709      -0.24357063
C        8.62817490       5.00132139       7.57255533      -1.51626952      -1.53582559       0.15871291
C       11.08221537       4.96625798       7.51280394       0.00126833      -1.03133710       0.70548577
C       -2.41206026       7.05664972       7.37459335      -1.59846666       0.82038811       1.31616185
C       -0.02399399       7.09096228       7.67878015       1.19590878       0.73387640      -0.08761985
C        2.43530952       7.16376538       7.63499877       0.42532114      -2.71539039       0.55268639
C        4.89059535       7.14279143       7.49523565       1.35562931      -3.32257285      -0.42676559
C        7.38029504       7.04801274       7.47131593      -1.06547929       0.23832969      -1.38970748
C        9.88564916       7.09393320       7.44497163      -2.13262234       0.52235432      -0.62097695
C       -3.62251491       9.24290345       7.43544409      -1.63306908      -3.07975427       0.14772222
C       -1.19056817       9.22498949       7.66848858      -2.09392467      -1.51326622      -0.97555881
C        1.15696988       9.24670385       7.64398570       3.39566674       1.38299742       0.07870532
C        3.68357148       9.20529581       7.42138594       0.00490181       1.38953651      -0.10044477
C        6.13856901       9.19546511       7.25182133      -0.68655705       1.36211132       0.36457960
C        8.56662871       9.16502533       7.34731505       0.16948583      -0.93310296      -0.04646138
C       -4.89078656      11.31409827       7.58376191      -0.83355730       0.53657997       0.78047919
C       -2.47492109      11.31041438       7.57897450       2.06609762       3.43749474      -0.33204383
C       -0.09754256      11.36716516       7.52933806       3.20308443       1.45588151      -0.65381868
C        2.42099281      11.39916379       7.36426838       0.98968008       0.37018229      -1.29516288
C        4.89911255      11.37767155       7.25638904       0.70687776       0.29564215       0.23020912
C        7.41988474      11.27725635       7.41319742      -0.91096679       2.57620732      -0.03191510
72
Lattice="14.76 0.0 0.0 -7.38 12.782534959858314 0.0 0.0 0.0 15.0" Properties=species:S:1:pos:R:3:REF_forces:R:3 REF_energy=-11165.612689360105 config_type=fd_force_conv_snapshot_087 snapshot_index=87 split=validation degauss_Ry=0.00285013035 kgrid=8 lattice_temperature_K=450.0 trajectory_seed=2 p4_key=seed2:snapshot087 pbc="T T T"
C       -0.00389360       0.00365014       7.58764294      -0.06175558       0.61164564      -0.72771501
C        2.47532836      -0.06399597       7.43304306      -0.62304772       2.71622368      -0.00580118
C        4.90055736       0.01696215       7.36902727       0.46567435      -2.34957923      -0.86254726
C        7.27779521       0.00070941       7.45663732       2.73259107      -0.07249457       0.39036211
C        9.78732047      -0.01687193       7.63196570      -0.48373635      -0.03071337       0.39004021
C       12.31121734       0.04008380       7.76478326      -0.86580433      -0.26006271      -1.10007734
C       -1.24312618       2.22712936       7.48851341      -0.13690790      -2.86645812       0.33486356
C        1.25061117       2.11012694       7.46123832       0.49202173       2.14902650      -0.44878554
C        3.72513976       2.09627771       7.46066030       0.31033138       1.97450695       0.26308839
C        6.17694522       2.10769834       7.52276718      -1.29545213       1.78225014      -0.77112809
C        8.56702232       2.10606443       7.49628195       0.91663247       0.74112434       1.37839412
C       11.04269244       2.09232241       7.64055752      -0.95488689       2.29225905       0.09783279
C       -2.47207200       4.32095291       7.54357646      -0.23592828      -1.75924006      -0.44750076
C        0.04259661       4.26571470       7.40658680      -1.45338060       0.08886350       0.32062505
C        2.46744795       4.25046937       7.56637525       2.65494478      -0.24798419      -0.85058469
C        5.02373867       4.28113537       7.52593884      -3.70446652      -1.17176664      -0.10734690
C        7.40834503       4.25012901       7.38302774      -1.11205200       0.91341448       0.64335532
C        9.80695231       4.24711338       7.37592564       1.64808407       0.07878709       1.72775690
C       -3.62498665       6.44168791       7.50837166      -3.64585539      -3.55486251      -0.63306422
C       -1.20455260       6.40813627       7.49926696       1.50491810      -0.03745866      -0.99616132
C        1.25744522       6.34543847       7.33961934       0.42548903       2.02195229      -0.00298891
C        3.71001122       6.36432160       7.43133887      -0.58142721      -0.07976025       0.11994530
C        6.20426551       6.42088560       7.44507077      -2.99982304       0.52270476       0.62374037
C        8.58564395       6.41287393       7.49586338      -0.49063282      -1.24852487      -0.68800741
C       -4.93150816       8.49157094       7.58338148       0.49800700       0.05175656      -0.84926828
C       -2.43705234       8.52223238       7.52577394       1.00420502      -0.18503561      -0.41862162
C        0.00482731       8.50427252       7.40196220       1.17055334       0.53880089       0.04837839
C        2.49969449       8.47466835       7.35175015      -0.91052353       2.84037582       0.68745616
C        4.89127538       8.48595946       7.59502723       0.99050438       1.30149165      -0.22885878
C        7.35707978       8.62526011       7.63973264       1.44895239      -3.10974953      -0.16991418
C       -6.17276826      10.67211053       7.42740737      -1.07993223      -0.48610588       1.83417023
C       -3.68106547      10.60726956       7.41573456      -0.45790139       0.88364213      -0.06689059
C       -1.26303328      10.66830472       7.39959260       1.96151491      -0.81942986       0.23666619
C        1.20621288      10.63341743       7.51148322       0.18976952      -0.38599329       0.41549850
C        3.71693359      10.64652238       7.60183187      -2.76608714       0.25566844       0.11128583
C        6.10217913      10.64565358       7.71538760      -0.50952348      -0.25381185      -0.20703603
C        1.24171687       0.73589579       7.43486732       0.36868822      -3.54549649       0.70019521
C        3.70959629       0.67650412       7.43841197      -2.01493344       0.59338798      -0.20510076
C        6.08955032       0.72712371       7.35248329       1.29542976      -0.58817790       1.10292304
C        8.52962254       0.69419385       7.57226446       0.72069899      -0.24058584      -0.53818383
C       11.01157949       0.70249068       7.73474322       1.75391685      -0.62789939      -0.38504147
C       13.56708837       0.76773757       7.57357452      -2.19875343      -0.19077200       1.00836815
C        0.01670773       2.84891400       7.44054928       0.08455073       0.81391999       0.03753296
C        2.51664457       2.85589545       7.46654351      -1.51248614      -2.12697646       0.50192305
C        4.97757083       2.84779910       7.50132734      -0.77721492      -0.80224486       0.18754115
C        7.37446039       2.85780821       7.53495122       0.38444086      -1.28483039      -1.02444448
C        9.79992169       2.82936773       7.61216984       0.40974977      -0.40691718      -1.79130120
C       12.23859639       2.86160135       7.54003865       1.85663087       0.79358642       0.22268607
C       -1.20744480       5.02152205       7.46477398      -0.00931022      -2.24607356       0.25285103
C        1.26703508       4.93654181       7.41799158      -0.50690970       1.18204102       0.19101600
C        3.74091297       4.93931003       7.56461553      -0.50741724       0.97958773      -0.59478795
C        6.17959882       4.99971689       7.40399684       2.37865815       0.22540450       0.25978555
C        8.61580451       4.96520168       7.37516468      -1.20061339       0.99111399       0.06699858
C       11.04272172       4.98247374       7.50686911       1.22854097       1.06303494      -0.37003445
C       -2.41457378       7.08904416       7.48948558      -0.23044566       2.21079879       0.66433552
C        0.05267059       7.10119495       7.35401642      -1.51105095      -1.12659878       0.68974856
C        2.48355045       7.11145077       7.32100466       0.15274281      -3.51519707       0.41407359
C        4.89383635       7.10333157       7.48105720       2.23726136      -1.39745242      -0.03030148
C        7.35156354       7.18881987       7.58232805       2.13444166      -1.19421751      -0.62855399
C        9.81764603       7.02496727       7.43957606       1.96528364       4.44783800       1.60281363
C       -3.66177452       9.20460770       7.56124425      -1.44704128      -0.34470394      -0.52606982
C       -1.20707584       9.25390470       7.45530741      -1.12580020      -1.11464058      -0.09669816
C        1.25177328       9.17035689       7.44015752      -0.50682974       2.05646678      -0.54872612
C        3.70646064       9.23188551       7.51389502      -0.38159105      -0.49212843      -0.04135285
C        6.12285801       9.21025897       7.68999877      -1.15089005       2.04077380      -0.23858783
C        8.62779324       9.27336539       7.55632071      -0.75080943      -0.85574386      -0.03208171
C       -4.94054317      11.32478043       7.44942648       1.18577761       0.43511756      -0.69231015
C       -2.45977634      11.34071716       7.26380966      -1.62683493       1.16678153       1.50009291
C       -0.03501097      11.38362607       7.53911229      -0.10001360      -1.36259880      -1.23286248
C        2.43065135      11.34266577       7.58918851       0.68952642      -0.08103989      -0.09494904
C        4.88677643      11.38311719       7.70398759       1.51727508       0.57138268       0.46299012
C        7.29627076      11.34666931       7.63160269       3.15026163       1.12759689      -0.83564915
72
Lattice="14.76 0.0 0.0 -7.38 12.782534959858314 0.0 0.0 0.0 15.0" Properties=species:S:1:pos:R:3:REF_forces:R:3 REF_energy=-11165.867678666724 config_type=fd_force_conv_snapshot_093 snapshot_index=93 split=validation degauss_Ry=0.00285013035 kgrid=8 lattice_temperature_K=450.0 trajectory_seed=2 p4_key=seed2:snapshot093 pbc="T T T"
C        0.00239796      -0.04983402       7.36443429       0.82847037       1.75999930       0.41613742
C        2.49724395       0.05797766       7.45420371      -0.17836565      -2.54485914       0.40381875
C        4.95064365       0.04799154       7.45192558       0.12518778       0.63316089       0.86060145
C        7.40492079       0.03083533       7.55810521      -1.05028459      -0.11607682      -0.27391068
C        9.86259565      -0.04632022       7.47953055      -0.28705544       1.64928992      -0.59251072
C       12.29107413      -0.10999379       7.27947730       0.12538319       3.07196794       0.14506884
C       -1.21780678       2.07549312       7.38943917       1.91291232       0.62273584      -0.07749151
C        1.21880333       2.08852947       7.48827765       1.02148566       0.71877529      -1.10048486
C        3.69639030       2.15910038       7.52231374       0.42702912       0.62004981      -1.08226577
C        6.19537994       2.16578649       7.41704262      -3.08986770      -0.04239903       0.00373556
C        8.61323588       2.13361553       7.53370680      -0.05859030      -0.11663681      -0.83485545
C       11.08108385       2.12143311       7.45383358       0.61674234      -0.24322636      -0.29506108
C       -2.49890166       4.24045073       7.60149490       2.28227675      -0.99843495      -0.69946347
C       -0.00105609       4.31107943       7.50855283      -0.96444214      -2.14810270      -0.09865323
C        2.41986329       4.34823546       7.40319787       0.80010673      -4.31980941       0.21607011
C        4.92749674       4.29077053       7.38117655      -1.31416102      -0.13260387      -0.80597219
C        7.39242459       4.27091026       7.27971858      -1.36624283      -0.23742235       0.85613390
C        9.78496050       4.22780203       7.48697088       1.39536134       1.13094241       0.18927227
C       -3.69487878       6.36020725       7.56924803      -2.75157018      -0.73387640       0.81596479
C       -1.25741214       6.42507820       7.66492868      -0.15657041      -0.41825138       0.07669395
C        1.20716681       6.41021914       7.71717398       0.18884778       0.51660045       0.06202606
C        3.69157511       6.41428188       7.49765653       0.26375379      -0.67291632       0.27534946
C        6.18284004       6.35135860       7.40213308      -0.09438623       3.13305144       0.16632338
C        8.61708402       6.41274034       7.50300694      -0.44987183      -1.00240036       0.17125938
C       -4.91793917       8.54928557       7.64395507       0.02640626      -0.08786694      -0.54168953
C       -2.50939763       8.50598451       7.66779791       1.45379249       2.26058101      -0.64652034
C        0.01622813       8.52645669       7.67925087      -1.88395733       1.38018797       0.72604431
C        2.44018336       8.45515545       7.62299286       0.38162473       2.43560500       0.33591180
C        4.89204237       8.50576208       7.42669582       3.35867860      -0.37224046       1.13250024
C        7.40844586       8.52097939       7.63702328       0.19713162       0.38550144      -1.42176940
C       -6.17128836      10.67070675       7.50747966       1.85507047      -0.84115671      -0.42666197
C       -3.67323071      10.67191611       7.54631077      -0.19234988       2.78184775      -0.36643645
C       -1.23896130      10.71765893       7.67938763       0.12774243      -1.43251661      -1.26332054
C        1.22124758      10.65883345       7.56791870      -0.25111682      -0.98903268       0.20920629
C        3.65827011      10.55287103       7.34680931       0.72710232       1.00719727      -0.13065164
C        6.16642825      10.63097225       7.34117369       0.01343941      -1.50956640       1.00338741
C        1.24594279       0.68024961       7.42320678      -0.73674807       0.22766913       0.24416430
C        3.74462993       0.75031753       7.56130148      -1.64597782      -0.03930625      -1.09050332
C        6.16156938       0.75525099       7.48719489       1.55714081      -0.04878900      -0.03969038
C        8.64073377       0.70598295       7.53062348      -0.22328540       0.03866451       0.24643021
C       11.06883645       0.70612590       7.38849864       0.74841728      -2.06756006      -0.01854871
C       13.53976538       0.65830314       7.33184788      -0.92774195      -1.03739127      -0.25022850
C        0.04778253       2.82337287       7.40553500      -2.82739535       1.35966312       0.72915766
C        2.43329891       2.79648225       7.40896411       0.83489736       3.33906288       0.88177628
C        4.92966671       2.89778667       7.36506988       0.16782670      -1.53413252       0.95571941
C        7.36550460       2.87135288       7.43288530       2.69537280      -0.61534880      -0.31336168
C        9.83550248       2.84134850       7.45504389       0.01655662      -1.28861145       0.60155432
C       12.36425885       2.78477254       7.45567574      -3.17018691       1.87637129       0.41393630
C       -1.26808673       5.00859093       7.59579090       0.65903339      -1.07041324       0.09865323
C        1.21152374       5.02643220       7.53000718      -0.62398900      -0.39765170       0.17113494
C        3.65789742       4.98974632       7.41030803       1.25973591       0.93838272       0.24033104
C        6.15031489       4.97149121       7.29248716       0.68721499      -0.00711347       0.34599001
C        8.58204471       4.95989677       7.41548418       1.18749253       1.36422040      -0.13299185
C       11.04022520       4.90183316       7.60250724      -0.69926190       1.96324347      -0.54357183
C       -2.53304314       7.07800183       7.58447542       2.73568050       1.49803269       0.81674897
C       -0.01182900       7.13565661       7.80091572      -0.71390664      -1.17532479      -1.23063256
C        2.45025037       7.09835901       7.68267194       0.14552212      -1.84801845      -0.60684642
C        4.95838734       7.10750977       7.47169207      -1.22960695      -1.42734895      -0.36273226
C        7.41639718       7.13528649       7.49930778      -1.35258847      -2.38165631       0.20872935
C        9.80814513       7.11309621       7.65418435       2.36950605      -0.31000871      -0.86283985
C       -3.70066391       9.30397145       7.64430993       0.58123078      -3.20360868       0.05270453
C       -1.24193277       9.28272579       7.62146248      -0.43796608      -2.02256344       0.98726916
C        1.24048156       9.19718281       7.69042520      -0.26765210       1.95347662      -0.86225364
C        3.66702678       9.14579919       7.48037221      -0.54195538       1.55504073      -0.43697132
C        6.19797961       9.20387807       7.53434942      -2.64218182       1.25251059      -1.16143595
C        8.63641368       9.24028337       7.49476844      -1.02083003       0.46530745       1.71830398
C       -4.93408006      11.37027799       7.45243350       1.34155844       1.16787476       0.54677748
C       -2.41196806      11.45009340       7.51546350      -2.55999522      -2.53033498       0.61790757
C       -0.02511478      11.39692125       7.59923580       2.33424080      -0.28821989       0.30272966
C        2.46502713      11.32756739       7.41649184      -0.40222364      -0.53142877       0.54834740
C        4.90561216      11.26253364       7.21495399      -0.28168929       0.50592985       0.87599259
C        7.38234619      11.35830731       7.47571004      -1.05595798      -0.82871771      -1.09953638
72
Lattice="14.76 0.0 0.0 -7.38 12.782534959858314 0.0 0.0 0.0 15.0" Properties=species:S:1:pos:R:3:REF_forces:R:3 REF_energy=-11165.907702530681 config_type=fd_force_conv_snapshot_099 snapshot_index=99 split=validation degauss_Ry=0.00285013035 kgrid=8 lattice_temperature_K=450.0 trajectory_seed=2 p4_key=seed2:snapshot099 pbc="T T T"
C       -0.01544037      -0.07513773       7.75790388       0.13873724       2.60114316      -0.98079409
C        2.47183803      -0.02289625       7.65412971      -1.54893205      -2.35399458      -0.46981100
C        4.91277641      -0.04013866       7.60572836       1.23312370      -0.02930441      -1.57603739
C        7.40210841      -0.01682586       7.30333276      -0.44550019      -0.26830516       0.27689341
C        9.80843819       0.03528255       7.47794152       1.63917314       0.26379544      -0.20532418
C       12.29632036       0.00239025       7.53195373      -1.04634334       3.14178856       0.47548028
C       -1.19771373       2.09323360       7.62113379       0.16254951       2.36495520      -0.47368385
C        1.27397860       2.06282613       7.74778352      -1.63518382       2.04804410      -0.41986757
C        3.67892969       2.04924561       7.74106959       1.48001877       2.40361353      -0.10827661
C        6.16186053       2.07295921       7.49114948       0.30457057       1.28047545      -0.82622452
C        8.58094794       2.16373685       7.38158249       0.75902385      -0.73179715      -0.66248792
C       11.04870124       2.21842679       7.57134459       1.19502304      -2.35621679      -1.11048182
C       -2.43293732       4.28125652       7.40909878       0.18942860      -1.28609794       0.62478167
C        0.03672705       4.22036641       7.43537274      -0.08805591       1.83844675       0.85938609
C        2.47065321       4.27609089       7.60364287       0.42043990      -1.35376912       0.46477240
C        4.89587777       4.22127667       7.59789958       1.64640360       1.39314736       0.98070205
C        7.37573051       4.25689891       7.49244539      -0.56167831       0.28243671      -1.15876328
C        9.83723623       4.25186472       7.42104021       0.69337639       2.94482792      -1.16152799
C       -3.68467420       6.43666159       7.39878705      -0.56992821      -1.98996366      -0.20951071
C       -1.16370540       6.34514047       7.37953383      -1.50697190       2.43465703      -0.05485551
C        1.28908141       6.43020037       7.51651597      -1.63984265      -0.84461793      -0.22487125
C        3.65880070       6.46159169       7.61294589       1.82360840      -0.66666520       0.23627410
C        6.12227540       6.41315780       7.58112714       1.24098459      -0.28634839       0.76011194
C        8.60345386       6.37478052       7.42769752      -0.12145531       0.68274282       0.39879995
C       -4.97429307       8.52668582       7.51484835       0.13786461      -0.66568818      -1.05945083
C       -2.54441576       8.51105964       7.33851466       3.73190662      -0.34000422      -0.02610930
C       -0.00342706       8.54572679       7.38064861       0.41586128      -0.28936661      -0.49910692
C        2.49580394       8.60673320       7.48576379      -1.84376944      -1.34280465      -0.17700863
C        4.93059419       8.53784573       7.46027375      -0.54343891       0.45745427       0.48911638
C        7.35506916       8.49068558       7.53799734      -0.40887199       1.61082261       0.14559746
C       -6.17571303      10.64913225       7.61488021      -0.80564489      -2.34926941      -1.10285208
C       -3.72859425      10.63431587       7.55381888       1.82283912      -1.70449047      -1.44543897
C       -1.23805956      10.67182492       7.28135701       1.12647846      -2.13821192       1.14456411
C        1.27411898      10.66095336       7.22037087      -0.99438675       0.35543779       1.09266742
C        3.70651371      10.70733848       7.44257653      -1.14012921      -1.77893754      -0.17203688
C        6.11609602      10.67618091       7.58233816      -0.56801171      -2.15202234      -0.63597908
C        1.23646375       0.65369049       7.73540956      -0.34222386      -0.48885644       0.32288968
C        3.67172946       0.65616801       7.63582167       1.29103446       0.23489084       0.78707998
C        6.16951651       0.67846310       7.35464251      -1.50621882      -1.03440828       1.65385954
C        8.59396368       0.72980678       7.41652574       0.02946793       0.44860582      -0.52073606
C       11.05196063       0.78678188       7.51631063       0.09800325      -1.63093044       0.39668574
C       13.53183375       0.70488384       7.64136509       0.57684242      -1.63246385       0.40901135
C        0.06357521       2.85694868       7.59693870      -1.11829952      -3.61264831       0.34486721
C        2.46356972       2.80236577       7.76914115       1.37605158       0.64626812      -0.84618605
C        4.96758086       2.77769006       7.68964777      -2.98749255       0.48104080      -0.68553529
C        7.35430879       2.84118046       7.29672756       0.13125764       0.09476726       1.90203964
C        9.81902297       2.88823885       7.39631685      -0.07289952      -1.51679043       1.00583484
C       12.33660485       2.83087139       7.51992863      -0.71402234       1.27387749       0.15561859
C       -1.20383695       4.95364136       7.44305054       1.01861091      -0.25267722      -0.76809753
C        1.25416632       4.95359600       7.49731640       0.30943201       1.71285607       0.16304754
C        3.69628468       5.02159359       7.58748647      -0.54219423      -1.43983217       0.43463908
C        6.15281474       4.98141290       7.64314050      -1.17892125      -0.63312284      -1.09018605
C        8.59734190       4.96252191       7.32474479       0.44428560       0.00961567       1.56401825
C       11.11692625       4.99482336       7.40047142      -2.25865551      -0.20988455       0.10493135
C       -2.45318919       7.08516457       7.34593050       0.84220546       0.52678073       0.24201126
C        0.05016152       7.11673448       7.39654243      -0.61913732      -0.54624578       0.39324611
C        2.46066694       7.19806659       7.63291889       0.46643617      -1.48450303      -0.89353008
C        4.91394588       7.16087565       7.60814397      -0.31226485      -2.16640921      -0.65168518
C        7.39903880       7.11488326       7.58146327      -1.85892404      -2.22327507      -0.98645644
C        9.80338979       7.12236283       7.44271073       1.15706687      -0.98052053      -0.07302781
C       -3.74273834       9.20613445       7.36605069      -0.42444285       1.27191548       1.53465934
C       -1.25068899       9.22270214       7.34517773      -0.86650393       0.68305598      -0.60821451
C        1.24346154       9.27484384       7.32603037       0.19929289      -1.02166049       0.35610010
C        3.71788994       9.24084623       7.42283863       0.01340753       2.82070457       0.25558668
C        6.13000550       9.22828908       7.48620187       0.69746495       1.22996176       0.49820446
C        8.55131487       9.19671630       7.53188161       1.17425958       2.22300716       0.56168911
C       -4.93890646      11.29382603       7.49525161      -0.45590236       3.03758175       1.90833036
C       -2.45457590      11.31721676       7.52754381      -1.21962747       1.52905613      -0.41289217
C        0.04241823      11.33547739       7.27857763      -1.54741047       1.38181471      -0.66435917
C        2.46347529      11.38888831       7.41063337       0.67349944       0.53967995      -0.55030041
C        4.89528208      11.41063676       7.52617437       1.05801178      -1.29930210       0.01229810
C        7.33026359      11.32190402       7.63639403       1.77524209       0.85213712       0.55591184
72
Lattice="14.76 0.0 0.0 -7.38 12.782534959858314 0.0 0.0 0.0 15.0" Properties=species:S:1:pos:R:3:REF_forces:R:3 REF_energy=-11166.039358961067 config_type=fd_force_conv_snapshot_105 snapshot_index=105 split=validation degauss_Ry=0.00285013035 kgrid=8 lattice_temperature_K=450.0 trajectory_seed=2 p4_key=seed2:snapshot105 pbc="T T T"
C       -0.01834348       0.00756617       7.13683160      -0.05839155       0.28275244      -0.73179972
C        2.50355134      -0.01706065       7.26561795      -2.18064978       0.66130599      -1.22255235
C        4.87581071       0.01587148       7.52595182       1.24249537       0.15987788       0.18568636
C        7.33690639      -0.01159644       7.70705473       0.54150672       0.59975558      -1.01539189
C        9.78425794      -0.02545441       7.53360285       2.17582150      -0.51513080       0.31733687
C       12.30366096      -0.02860921       7.31359039      -1.72221334       1.90146140       0.00261867
C       -1.29558470       2.16832304       7.26579961       1.70317227      -1.44309721       0.00029388
C        1.20133713       2.10379218       7.28742313      -0.56236402      -0.27751125       0.21760326
C        3.64899998       2.10853029       7.38957736       0.45360353       2.95947344       0.58113256
C        6.09745236       2.14863757       7.47577303       2.89519303      -1.11784084       0.18170989
C        8.62439382       2.07610901       7.37659981      -0.80309050       1.01860191       1.01015198
C       11.02453666       2.12506500       7.47685625       1.71020655      -1.02408813      -0.75758789
C       -2.46833305       4.26482149       7.58543193      -0.17737321      -1.53147143      -0.24228405
C       -0.02828017       4.22915851       7.48440845       0.77124867       1.02322732       0.35806571
C        2.40990376       4.25925542       7.38719046       2.11698926      -1.19726298       1.25029404
C        4.93603333       4.29479176       7.35836177       0.70826436      -1.94238616       0.09529331
C        7.41194277       4.24805007       7.40701732       1.69207384      -1.58092891       0.59177616
C        9.84046033       4.23599204       7.62701672       0.43490930       1.31107235      -0.64169258
C       -3.67661755       6.37623102       7.69838381       0.56921319       1.56499141      -0.10322336
C       -1.22810596       6.37545058       7.76748939       0.43193813       1.73682235      -0.47611483
C        1.22697704       6.43926507       7.56967694       1.90133413      -3.27689515       0.43747912
C        3.70439210       6.35334613       7.34981905       0.30596513       2.42958270       1.60007900
C        6.17304075       6.43138544       7.38531512       1.24131395      -1.87025746      -0.35879693
C        8.67119873       6.40332972       7.65347278      -2.34808824       0.53233585      -0.87123965
C       -4.89130055       8.54797227       7.57994545      -1.78258773      -1.12960389       0.19462685
C       -2.45172068       8.57443228       7.73299744       0.75815404      -0.51824132       0.15321178
C        0.05123029       8.53483799       7.86476727      -1.40038656       0.07465378       0.15658610
C        2.51201224       8.49807864       7.72699075      -0.32526872      -0.24365650      -0.02360118
C        4.92106554       8.56493842       7.35635049       0.12404519      -1.89831900       0.62629168
C        7.36650740       8.54258284       7.48644376       0.27864408       0.61245194      -0.18419409
C       -6.11857430      10.62929961       7.30084225      -0.59016382       1.80503012      -0.62838404
C       -3.70328927      10.64904454       7.56517417       1.01756087       0.51837399      -0.80045178
C       -1.22378045      10.68293053       7.75085275      -0.96751923       0.23595708       0.46141223
C        1.23691509      10.60363446       7.81572562      -0.00442924       1.39358445      -0.31295313
C        3.67931567      10.68227785       7.54113299       0.67115511      -2.29875315      -0.58655605
C        6.18597128      10.66065520       7.25965543      -2.03322684       0.13057167      -0.24691024
C        1.24366121       0.67610346       7.14563508      -0.56648679       0.50443116       0.79750966
C        3.67648050       0.74671110       7.30862078       0.43282388      -2.34734288       0.98553135
C        6.10436050       0.74477775       7.62507648       0.13980579      -1.91110252      -0.44851583
C        8.58614941       0.66879396       7.52730687      -0.70502168       0.48874126       0.22142238
C       11.05053120       0.69186985       7.48055427      -0.72117181      -0.42127294      -0.73018147
C       13.46241940       0.76417552       7.17143439       2.29347981      -2.43647326       0.32549909
C       -0.02924222       2.83175145       7.32806772      -0.38740971      -0.09120886      -0.13176904
C        2.38521954       2.81230138       7.48127932       2.08631986       0.85664632      -1.77893882
C        4.92001839       2.84045707       7.44332463      -2.52837297       1.61563777      -0.55793941
C        7.39803790       2.77213065       7.42259299      -0.74940072       2.33900325      -0.30210899
C        9.83826822       2.84934002       7.43464491      -1.16508357      -1.23512325       0.62672696
C       12.26822894       2.81448988       7.39486763      -1.17951337       2.58045144       0.94469941
C       -1.25548870       4.95738408       7.67900043       1.09352334       0.22950721      -0.80834506
C        1.22977086       4.94406501       7.47239541      -2.16676814       2.26313977       0.00521985
C        3.68866509       4.97015088       7.41880866      -0.01917040      -0.94886254      -1.13491142
C        6.24131147       4.93536272       7.30188716      -3.99777000       2.91275958       0.85941411
C        8.63605383       4.97911888       7.63357000      -0.23192662      -0.41597158      -0.80990290
C       11.08664993       4.96265093       7.64127307      -1.02529115       0.02039270       0.46148216
C       -2.45752982       7.15495060       7.73369954       0.86616815      -2.12618533       0.31908316
C        0.05221671       7.11674147       7.72247166      -3.08967179       0.12188649       0.60202406
C        2.49255980       7.07578851       7.63048021       0.00813368       0.47620250      -1.29650782
C        4.95958182       7.12528650       7.37947384      -1.53613824      -0.74668744      -0.54431205
C        7.39500357       7.14512481       7.47507996       0.99390569      -1.39848394       0.78486369
C        9.87634069       7.12151888       7.64321635      -0.15597829      -0.37564948       0.37090374
C       -3.69756314       9.23404854       7.59471554       1.26346992       1.17244361       0.47923100
C       -1.20238038       9.30139792       7.84927661      -0.29881130      -2.80589656      -0.54400429
C        1.28634356       9.20381641       7.91889456      -0.35415815       0.00628018      -0.98128620
C        3.70271094       9.21247412       7.50752054      -0.66943067       2.19397606       0.53727211
C        6.12422832       9.26279005       7.37726247       2.05274871      -0.33330624      -0.30198172
C        8.60817597       9.25138429       7.53526027       0.58177174      -0.64489155      -0.81231973
C       -4.87721835      11.35939038       7.25463299      -0.91463935      -0.80800722       1.47470430
C       -2.48068885      11.37959331       7.66042455       0.08543956       0.03123376      -0.46930912
C       -0.00196650      11.34251028       7.72944428       0.53926061       0.90988564       0.80286193
C        2.43927542      11.33078307       7.65182740       0.04534706       0.96127248       0.03428052
C        4.90871367      11.35123527       7.30349608       0.90998077       0.03196087       0.54795813
C        7.39715764      11.35771384       7.11334269       0.28097915       0.24417458       1.25373058
72
Lattice="14.76 0.0 0.0 -7.38 12.782534959858314 0.0 0.0 0.0 15.0" Properties=species:S:1:pos:R:3:REF_forces:R:3 REF_energy=-11165.632316523115 config_type=fd_force_conv_snapshot_111 snapshot_index=111 split=validation degauss_Ry=0.00285013035 kgrid=8 lattice_temperature_K=450.0 trajectory_seed=2 p4_key=seed2:snapshot111 pbc="T T T"
C        0.03218973      -0.02151482       7.94798451       0.01311803       0.08246068      -0.98694983
C        2.49158954      -0.01857229       7.64837009      -1.43240142      -0.53659334       0.54159697
C        4.90839976      -0.00293928       7.41253218       0.62250187       0.13448695       0.42069058
C        7.37388525       0.01702747       7.27766127      -0.57145287      -0.35801377       0.64421587
C        9.84418158      -0.01303716       7.43364294       1.90391012       0.20379592      -0.28909073
C       12.30324556       0.00882065       7.74114924      -0.34137951      -0.47185528      -0.45622914
C       -1.26012419       2.11395105       7.77209626       2.02587914      -1.71419330      -0.34100875
C        1.21608941       2.19282794       7.71027389       0.88964052      -3.14709172      -0.10252685
C        3.70219851       2.09274463       7.57391969      -0.12900022       2.57261960      -0.28829625
C        6.16259372       2.15434733       7.42318755       0.66556631      -1.77090078       0.77532233
C        8.65660760       2.09069798       7.52441986      -1.88453069       0.86872151       0.21950536
C       11.07068978       2.11088521       7.64821891       1.17316069       1.07354613       0.15376945
C       -2.46004196       4.18622860       7.51678196       1.68383629       1.39824252       0.21803520
C       -0.00958886       4.28101040       7.58672117      -0.48100686      -1.11891119      -0.30057661
C        2.42777490       4.28683565       7.48352847       1.45945149      -0.22296787       0.89733737
C        4.93886011       4.25351267       7.49605851      -0.19799294      -0.27756756       0.23026517
C        7.43564942       4.29892631       7.52416443      -2.02317974      -3.73708199       0.71305330
C        9.85390809       4.17730438       7.50096573       0.85750199       2.90188278       0.17482293
C       -3.73046741       6.29256255       7.40629108       2.24349500       3.41209301      -0.40851538
C       -1.20523463       6.41457472       7.41254215      -0.96493682      -1.07905240       0.01181319
C        1.19126323       6.45731290       7.36887523       2.15437696      -2.13973196       0.96871351
C        3.69741663       6.39225601       7.28499746      -1.33712277       2.26026707       1.67516601
C        6.11476342       6.43892067       7.48421899       2.15271629      -1.46751446       0.98369764
C        8.60076602       6.36316871       7.54165994       0.29798931       1.44495175      -0.56293198
C       -4.90157841       8.54128832       7.49242594      -0.86977977      -1.03545523      -0.20818042
C       -2.45572387       8.46184952       7.28894849      -0.27356306       2.50995744      -0.10093483
C       -0.02626392       8.56061077       7.28875371       0.20833906      -0.29262779      -0.48688903
C        2.41774658       8.57100450       7.19249050       0.33160289      -0.96915728       1.44037827
C        4.88054034       8.54320879       7.50959416       1.81196387       1.43655530      -0.40505262
C        7.35745182       8.57673087       7.62480468       0.41870106      -1.59021214      -0.41544656
C       -6.14024164      10.62545955       7.80929954       1.45760081       0.61781192      -0.76172145
C       -3.65785256      10.65452419       7.45660771      -0.13872053      -2.16079546      -0.31926365
C       -1.21607374      10.67440151       7.35871847      -1.34860197      -1.55160779      -1.65037724
C        1.21446767      10.72376628       7.09855951      -0.29921393      -2.82421336       0.82974795
C        3.62455722      10.62462593       7.29377785       4.24096293       0.50893316       2.06084254
C        6.13205971      10.69263539       7.76107121      -0.34412750      -0.91206465      -0.82239486
C        1.24928059       0.70212439       7.77201166       0.18511968       0.80391402       0.40588617
C        3.68373970       0.71128527       7.57996385       0.81459284      -1.19371075      -0.65772470
C        6.14322721       0.71936392       7.41265667       0.30770963      -0.22927015      -0.78951070
C        8.62605903       0.67227969       7.40000483      -0.12939822       1.12130514       0.00827047
C       11.10831516       0.76547118       7.60900207      -2.20497010      -4.39151439      -0.04748313
C       13.54801869       0.66869649       7.85268249      -0.05443334       1.02002219       0.32357513
C       -0.03466039       2.81943698       7.64240214       0.49065210       2.02193250       0.86518521
C        2.47314507       2.86351685       7.63372470      -0.43498438      -0.17327281      -0.50785175
C        4.95801075       2.80904881       7.44907614      -2.58123254       1.79444900       0.66801297
C        7.37785219       2.82743648       7.56337906       2.67856345       0.80272335      -1.11132797
C        9.88631235       2.81575390       7.58910684      -2.43557209      -1.30617697      -0.35992565
C       12.30116160       2.77784986       7.68029129      -0.35738462       1.87597457      -0.34884265
C       -1.24058840       4.96842322       7.48011480       0.33059039      -0.01100304       0.40673926
C        1.21314485       4.98983580       7.54424791      -0.38754084       1.19771987      -1.03415014
C        3.67397712       5.00008465       7.46181461       1.07460054      -0.86830396      -0.79571452
C        6.19510436       4.93372339       7.58999534      -2.17721221       3.33005579      -1.46703495
C        8.64094347       4.92981640       7.48994283       1.07007360       1.53674502       0.34567274
C       11.11388410       4.90472878       7.47197338      -2.78396479      -0.58104900      -0.08905196
C       -2.44944466       7.08182872       7.33552211      -1.24372719      -2.10587387       0.30993235
C        0.01707843       7.15462656       7.41327579      -2.15929522      -0.38916217      -0.65277867
C        2.41919637       7.16474420       7.32676101       1.25193749      -1.75620975      -1.06810156
C        4.91397590       7.17231587       7.43710736      -0.81988957      -3.18437709      -0.54555904
C        7.37268146       7.13836885       7.56862997      -0.60022763      -1.09592012      -0.23641859
C        9.82785439       7.09388742       7.42832825       0.16047515      -0.92992816       0.65439589
C       -3.66172191       9.21443189       7.36232881      -0.77089360       0.19487805       0.66084987
C       -1.25112367       9.23489690       7.23877180       0.04268186       0.29896042       0.99674496
C        1.17425910       9.26346557       7.17065741       1.50290956       1.67120266      -0.29301834
C        3.66988097       9.21851216       7.41885519      -1.51480451       1.26995295      -1.82519759
C        6.14127723       9.28014219       7.55292037      -1.19521021      -0.23333533       1.30406867
C        8.59295202       9.24624693       7.65923241       1.51810452      -0.91961058      -0.10744974
C       -4.86352668      11.30613963       7.63407361      -2.22222786       2.18857160       0.56961299
C       -2.45796892      11.34998227       7.36426333       0.85177202       1.62846707       0.52196017
C       -0.02063116      11.37731876       7.20673290       0.71615739       1.23380504       0.25823235
C        2.47327789      11.34191285       7.24897236      -2.12448943       2.39718783      -0.37597062
C        4.86658642      11.37955534       7.61041714       0.58739089      -0.74187716      -0.02518601
C        7.41276499      11.32590863       7.90544628      -1.36117647       1.67401262      -0.01342836
72
Lattice="14.76 0.0 0.0 -7.38 12.782534959858314 0.0 0.0 0.0 15.0" Properties=species:S:1:pos:R:3:REF_forces:R:3 REF_energy=-11165.187734892666 config_type=fd_force_conv_snapshot_117 snapshot_index=117 split=validation degauss_Ry=0.00285013035 kgrid=8 lattice_temperature_K=450.0 trajectory_seed=2 p4_key=seed2:snapshot117 pbc="T T T"
C       -0.02606838      -0.02623153       7.20169742      -1.08365236      -0.04209770      -0.12501938
C        2.44838376      -0.04142739       7.33314126      -0.07288872       1.33218496       0.30309013
C        4.92891229      -0.01973774       7.43625060       0.90646196      -1.11758552       0.44763986
C        7.41888373      -0.05471335       7.44087934       0.92858759       3.17037794       0.46987476
C        9.81060399       0.04784515       7.47910995       3.32548514      -0.31224145       0.04741551
C       12.27705575       0.04423436       7.29222534       0.81843587      -0.76189449      -0.58081632
C       -1.28383009       2.16435023       7.17925330       0.84961256      -2.20931295       1.04511718
C        1.18582097       2.07564446       7.37878055      -0.39923139       1.42519873       0.15080986
C        3.65135359       2.10851273       7.49139685       0.47552373       0.35447671       0.06744826
C        6.09111299       1.99264024       7.42071825       2.16938552       5.79895554       0.79582251
C        8.65240137       2.15409472       7.45747880      -3.90948603       0.07444629      -0.08354928
C       11.02782272       2.18910840       7.28793699      -0.55964894      -1.52546096       0.94738749
C       -2.46333552       4.26577556       7.41955177      -1.89157628      -0.56375268      -0.72247330
C       -0.06964963       4.21232854       7.56298438       1.64330182       3.90418904      -0.14300939
C        2.43176039       4.27987829       7.58362088      -1.67064678      -2.04034674      -0.00928143
C        4.85543330       4.23790631       7.59441058       2.55712433      -0.83943921       0.40698789
C        7.35142196       4.22068411       7.50548094      -0.48898423      -0.82736660      -0.28625274
C        9.77056020       4.32515377       7.33823768       2.18940181      -2.10355576       0.66557813
C       -3.68466659       6.38894103       7.49615458       2.50821166      -0.73331513       0.04230776
C       -1.19340715       6.39424994       7.64518205      -1.35071388       0.38196103      -0.32334219
C        1.20772399       6.44496373       7.67414009       1.26830231      -2.06776318       0.20492618
C        3.64557881       6.38493011       7.73933663       0.99749238      -0.05687872       0.22350343
C        6.14926312       6.37915880       7.56501717       0.82209892      -1.83833953       1.45312297
C        8.60801110       6.39955196       7.44344423      -0.03879332      -0.56570723       0.91689858
C       -4.89873178       8.46557940       7.46501333       0.40806261       2.12289792      -0.53654218
C       -2.39423568       8.56575553       7.68155707      -0.72274018      -1.88523080      -0.85051578
C        0.01764163       8.54630232       7.65693547       0.83586564      -1.25041668       1.48312389
C        2.49050055       8.56357806       7.79603383       0.11607040       0.30153229       0.70767635
C        4.94912666       8.50986512       7.69368760      -1.26654650       0.83676887       1.23602416
C        7.36399205       8.54921346       7.38803383       1.45124298      -1.27304522       1.08117768
C       -6.11711921      10.66495157       7.35574310       0.56620165      -1.56843052      -1.67571109
C       -3.68121140      10.66749742       7.50966456       3.09599619      -2.79112326      -0.91737346
C       -1.17728256      10.65458453       7.64676810       0.52432584       0.74799844      -0.39018059
C        1.28842604      10.66991091       7.69096187       0.33677055      -0.26125699       0.58513886
C        3.73397167      10.72719411       7.58010697       0.91304964      -1.90458118       0.75764831
C        6.18557475      10.65623306       7.34787377      -1.23688523       0.60438459      -0.08860587
C        1.15063672       0.66054937       7.30344890       3.57347138       0.83160275      -0.20279319
C        3.67846145       0.68683863       7.46254287      -0.10576413      -0.32811699      -0.73147551
C        6.21252477       0.64013464       7.44873392      -3.40654997      -1.15419006      -0.48444983
C        8.62504413       0.75974796       7.44872170      -0.56192591      -2.08876524       0.04210361
C       11.08346275       0.76199081       7.38013970      -2.59001542       0.05424359      -0.38793396
C       13.50775658       0.69969745       7.17604166       0.15411989       1.69358977      -0.02885729
C       -0.04845774       2.84803031       7.40382897       0.09255149      -1.88409668      -0.79076360
C        2.41323563       2.79888284       7.45791649      -0.11865615       1.15505884       0.51913324
C        4.89728171       2.83244971       7.53970777      -1.04400364      -2.76903105      -0.63726797
C        7.32528016       2.78250372       7.45049084       1.43389832       0.24407842       0.07085060
C        9.80687409       2.90168784       7.45359904       0.89887412       0.10931791      -1.30688634
C       12.23782357       2.82253167       7.26570699       2.41688917       2.76571279       0.00850290
C       -1.28364589       5.00541800       7.53867161       1.80770458      -2.41046038       0.19282374
C        1.19165723       5.00409838       7.62088750      -0.03307956      -1.39092696      -0.02951986
C        3.65727520       4.92860956       7.69512756      -0.80447350       2.49312957      -0.49524461
C        6.12582478       4.88550420       7.60077395      -0.42275929       3.32795726      -0.55445171
C        8.56810714       4.98541096       7.42020378      -0.86155379       0.20533833       0.04808580
C       11.05520894       4.94298647       7.35939022      -0.12924113       2.44177024       0.70382663
C       -2.38906413       7.12584365       7.59298015      -2.27605648      -0.14686424       0.32760714
C        0.01490439       7.09086554       7.70216927      -1.08789108       2.65862120      -0.44763189
C        2.42539937       7.16373740       7.72442520       2.14007263      -1.87601545       0.29189194
C        4.93793298       7.05475898       7.76689440      -1.41970789       1.57317344      -1.16250912
C        7.40727296       7.10512456       7.57808454      -1.75933236       0.77727611      -1.69746905
C        9.86702642       7.06156196       7.53994491      -1.10891705       0.95939789      -1.03404704
C       -3.63159486       9.19906882       7.50924858      -2.07034765       1.44510447       0.78358791
C       -1.17700513       9.26993979       7.70076452      -0.18439283      -0.78954593      -0.17128535
C        1.25611300       9.22608767       7.81465733      -0.17800673       1.98207860      -1.33844997
C        3.72275237       9.30099315       7.85607305       0.73570060      -1.35119750      -2.00446082
C        6.15465560       9.24822045       7.55726019       0.11547030      -0.18036289      -1.22475630
C        8.62444197       9.23128851       7.26174224       0.40329450      -0.47821388       1.86517696
C       -4.85764812      11.33681502       7.32012425      -2.37373628       0.98563728       0.76739613
C       -2.38662286      11.32754804       7.48680786      -2.81938071       1.50812093       0.55924013
C        0.05505539      11.37550692       7.61491956       0.43027360      -2.01173704      -0.13615045
C        2.54176746      11.41297143       7.62372347      -3.54009229       0.14659787      -0.34104115
C        4.93541142      11.40611864       7.32237756       0.92801552      -0.73952872       0.98000194
C        7.42305119      11.34908772       7.22306037      -1.24966875      -0.27498514       0.74116754
