72
Lattice="14.76 0.0 0.0 -7.38 12.782534959858314 0.0 0.0 0.0 15.0" Properties=species:S:1:pos:R:3:REF_forces:R:3 REF_energy=-11165.395827964276 config_type=fd_force_conv_snapshot_003 snapshot_index=3 split=validation degauss_Ry=0.00285013035 kgrid=8 lattice_temperature_K=450.0 trajectory_seed=2 p4_key=seed2:snapshot003 pbc="T T T"
C        0.03160171      -0.08775355       7.41743302      -0.83901344       3.59794906      -0.46101654
C        2.42433333       0.01319132       7.47112835       0.40937850      -1.84178995       0.25347838
C        4.85456670       0.02566661       7.41125377       3.11903507      -3.79625850      -0.12018236
C        7.38391907       0.02291454       7.45783341      -0.45654642      -1.42437701       0.36898647
C        9.83356927       0.05474719       7.58409444      -1.15046736      -0.36059825      -0.25558308
C       12.30535169      -0.02185163       7.38554248      -0.59453187       1.95787217       1.25238358
C       -1.18189017       2.11809701       7.58338366      -1.17291669       0.07770697      -0.64667461
C        1.26061417       2.19541174       7.64035598      -0.98509041      -2.56778207      -1.39639287
C        3.70899154       2.09154918       7.35971459      -1.74089755       0.96896625       1.59679853
C        6.12015641       2.10087196       7.47171678       0.20420318       0.71819627      -0.68684887
C        8.53792005       2.20180571       7.43834508       2.01382838      -1.52262503      -0.22560222
C       11.04291970       2.18071855       7.50731414       1.49485121      -2.57256638       0.37292874
C       -2.50769883       4.24238058       7.59841773       2.43834888       0.97976000      -0.07533487
C       -0.00678442       4.28104732       7.56350225      -1.89799684      -0.78625543       0.57045863
C        2.41018346       4.26003631       7.52263084       0.12304348      -1.08078070      -0.78168632
C        4.94399279       4.26900555       7.38550043      -2.31722524      -1.07073823       0.91904005
C        7.35106941       4.28490869       7.53733128       0.69521601       1.49398089      -0.40447438
C        9.81462562       4.24052661       7.48506905       0.54799182       1.88397918      -0.61130677
C       -3.67699094       6.36624263       7.54944932      -0.08953918       0.29714188      -1.40433835
C       -1.22190403       6.41476889       7.50177394       2.02372353      -1.85586289       0.51880568
C        1.26105362       6.41926639       7.51382658       0.48520470      -2.35656594       0.24618981
C        3.77578149       6.30723067       7.50246319      -4.06429343       1.92191504      -0.05268833
C        6.11236783       6.43980521       7.54042607       2.38408729       0.47610711       0.63732814
C        8.60913776       6.39719045       7.45451960       0.35027398       1.18329624       0.89190746
C       -4.86549329       8.50203392       7.32316346      -1.54249812      -0.87503202       1.72810580
C       -2.44332362       8.48239648       7.54986877       1.13803068       1.51626695      -1.51484282
C        0.01979800       8.54730008       7.54501618      -0.72197194      -0.56794280       0.43877495
C        2.46182367       8.50225779       7.58632866      -0.14071673      -0.50400024       0.57063449
C        4.86331627       8.54265011       7.65455005       2.03424628      -0.03967238      -1.32788351
C        7.36242692       8.53447660       7.61722102       2.53807528      -0.86351657      -0.65691249
C       -6.10268254      10.59170029       7.42575290      -0.02448616       0.66185852      -0.02100257
C       -3.68169647      10.63846069       7.41278794       1.43844197      -1.03104913       0.06917939
C       -1.26220548      10.70216969       7.46586237       2.30548198      -2.39584520       0.55918280
C        1.23171953      10.66923227       7.66219998       0.03901752      -0.82896840      -0.16204686
C        3.71258562      10.70279346       7.54009215      -1.86548318      -1.86674148      -0.13618491
C        6.15027019      10.61628537       7.35480008       1.45387296      -0.20480225       0.19961968
C        1.21982854       0.75966826       7.50346245      -0.13409049      -2.23611902       0.29198399
C        3.65847894       0.65049013       7.47942721      -0.43914776       3.51900205      -0.93044084
C        6.12762308       0.66807011       7.39514753      -0.39076474       2.08562875       0.51350869
C        8.57587419       0.79130497       7.48820030       0.44135017      -1.53294081       0.22076700
C       11.05512006       0.72958567       7.60862482       1.12037029       0.22483809      -1.75869498
C       13.53030091       0.70362834       7.41432568       1.35589285      -1.58216664       0.43503811
C        0.02923049       2.86240822       7.57432912      -0.64941309      -0.06051863       0.75253644
C        2.48634527       2.83574219       7.50572772       0.00761586       0.29713057       0.01626866
C        4.89692287       2.83600921       7.43617396       1.63009432      -0.46082242      -0.69263359
C        7.32678437       2.87941307       7.44137634      -0.53556619      -0.29602576       0.62748518
C        9.81634411       2.84265793       7.40744388      -0.83588286       0.96351782       0.89587159
C       12.31985706       2.82740834       7.57225758      -0.88068485       0.48890529      -0.07924063
C       -1.23600401       4.98241829       7.65079285      -1.15787188       0.05379879      -1.35447437
C        1.16641262       4.96451712       7.52043407       3.16043343       1.74585361       0.17573644
C        3.63161005       4.89302000       7.40694834       3.83643224       2.27288322       0.40402212
C        6.13756566       5.03131165       7.54586961      -0.33539269      -1.26586439      -0.93274352
C        8.62664492       5.01365534       7.49670349      -2.04572857      -2.63535374       0.04152460
C       11.04313740       4.97108121       7.49922457       0.31061317      -1.59766371       0.84148118
C       -2.43813168       7.06543929       7.45686720      -0.72221336       1.31093788       1.22906239
C        0.06996365       7.10601335       7.50313630      -2.98724161       1.40996161       0.02261722
C        2.53258571       7.04577863       7.56266701      -0.70864925       1.31076588      -0.31349744
C        4.89574597       7.14369124       7.54706576       0.89987685      -1.72562905       0.42298427
C        7.39117132       7.13638826       7.61245851      -1.17614086      -1.61244318      -0.84045634
C        9.86839815       7.06442858       7.41781408      -0.27000491       1.53515093       0.11523453
C       -3.64331600       9.20092683       7.41565225      -0.97549994       0.42263948      -0.02619491
C       -1.21095644       9.27374499       7.52162800      -1.05077284      -1.74442947       0.14253245
C        1.22035473       9.22390274       7.68765358       1.59527027       0.76570872      -1.10801279
C        3.65731256       9.23711701       7.57086914       0.62928084       1.68302176       0.44216907
C        6.17208140       9.20347447       7.52940781      -3.26237767       1.61870664       0.47897209
C        8.63161447       9.19643500       7.50415091       0.69837435      -0.19004489      -0.98703391
C       -4.87299508      11.32527471       7.46437557      -2.66981732       1.57930140      -0.53754619
C       -2.46350266      11.34256499       7.38107845      -1.63708746       2.64215303       0.49636304
C       -0.00501097      11.34654886       7.58532336       0.34561257       2.33704973      -0.78863602
C        2.45749036      11.39792008       7.57672296       0.33237679       0.35973024       0.47915361
C        4.94091506      11.35112380       7.39661622      -0.06582307       0.29644614      -0.00299893
C        7.43077691      11.28842117       7.29937383      -1.06610073       0.69566518       1.05449168
72
Lattice="14.76 0.0 0.0 -7.38 12.782534959858314 0.0 0.0 0.0 15.0" Properties=species:S:1:pos:R:3:REF_forces:R:3 REF_energy=-11165.112109967027 config_type=fd_force_conv_snapshot_009 snapshot_index=9 split=validation degauss_Ry=0.00285013035 kgrid=8 lattice_temperature_K=450.0 trajectory_seed=2 p4_key=seed2:snapshot009 pbc="T T T"
C        0.01415498       0.00425536       7.36968992      -0.65752518       0.05502084       0.47196070
C        2.52048665       0.00919065       7.48339514      -2.13100152       1.37396848      -0.89900602
C        4.96933029      -0.01618811       7.46657393       0.02636229      -0.06488642       0.28941880
C        7.37134951      -0.03896072       7.43201297       2.14256711       0.40159423       1.75740737
C        9.78055802       0.02755252       7.59674252       2.06396643      -1.48679028       0.38811959
C       12.26663814      -0.03026829       7.45327153      -0.75250122       0.89875225      -0.64495969
C       -1.25692547       2.13924849       7.38001159      -0.43574414      -0.35510663      -0.20354267
C        1.13075146       2.17723420       7.39591296       3.04777926      -1.55069557       0.32035791
C        3.60139230       2.08234821       7.50871152       2.74877050       1.47700981       0.45665260
C        6.22962201       2.12698726       7.66343007      -3.42950889      -0.92092467       0.14827141
C        8.63871973       2.20263086       7.63360035      -0.99321869      -3.05527145       0.30066943
C       11.03805492       2.18714308       7.46259095       1.95426132      -3.70695432       0.14633871
C       -2.49265807       4.26693149       7.43426876       2.80170566      -1.27085438       0.14012435
C       -0.00143984       4.32265098       7.48141668      -1.77215137      -2.78843003      -0.33482577
C        2.41718299       4.24727902       7.46939259       1.65114625      -0.97492735       0.38835639
C        4.92338102       4.21464690       7.50251299      -2.60199959      -1.68274408       0.59192297
C        7.35794313       4.33031688       7.55599125      -0.23685594      -2.85827199       0.08343024
C        9.83437164       4.31022742       7.50429641      -0.42929658      -1.83253887      -0.66341378
C       -3.64479656       6.35796275       7.51617618      -2.77413264       1.45728199      -0.29283888
C       -1.26503516       6.42181868       7.53869964       1.48041112      -0.06224512       0.34437819
C        1.19787180       6.39056281       7.53091675       3.46777847      -1.29243571      -0.02371740
C        3.68350391       6.32165772       7.37777096      -0.08714497       1.80914877       0.99352286
C        6.11255826       6.40189473       7.44252968       0.97860429      -1.46636801      -0.01353917
C        8.63235495       6.40465431       7.41694100      -1.49403359       0.63825373      -0.56478549
C       -4.90884225       8.53233901       7.55922339      -1.60370194      -0.18555240      -0.36690388
C       -2.45030797       8.54235048       7.49499375      -0.57134720       0.53468199       1.24276560
C        0.06164056       8.49879558       7.64613257       1.08927485       1.91859420      -0.80389140
C        2.49907149       8.51234068       7.49233947      -0.10932536      -1.71796999       0.23636691
C        4.94862523       8.53144947       7.36727496      -0.57902786      -1.56955255       0.95737572
C        7.33973647       8.54723415       7.53008940       2.92242950      -1.79956035       0.15532214
C       -6.13336697      10.70072052       7.60704152      -0.21669617      -1.70546338      -1.15411319
C       -3.65210046      10.64667339       7.56627293       0.22732897       2.64972647      -0.82881644
C       -1.19160655      10.59426820       7.40217936       2.03265220       1.15603843       1.17917553
C        1.27522850      10.65203497       7.63984179       0.09224758       0.17481136      -0.37726157
C        3.68161452      10.63475722       7.55206942      -0.53992806      -0.89108471      -0.94067512
C        6.11409384      10.67033298       7.45402030       1.14032205      -2.09388302      -0.05199053
C        1.23929510       0.77195091       7.38164812      -0.49554028      -2.77503586       0.33936916
C        3.73413085       0.68287483       7.49249258      -0.78824649       0.30829250       0.02584062
C        6.18644492       0.67822805       7.54127905      -0.01289588       1.49472214      -0.43523326
C        8.60240669       0.71271875       7.59990996      -2.09526036       1.91785321      -0.62567975
C       10.99658658       0.69878627       7.55414539       2.88071258       1.80874433      -0.71079510
C       13.50801079       0.70379704       7.36591607       0.09419339      -0.13121599       0.21845352
C       -0.04378320       2.85949947       7.41784244      -1.52663235       1.85093588      -0.10132358
C        2.37546377       2.83737557       7.48428849       1.18138282      -0.31885022      -0.37555872
C        4.88741456       2.77226988       7.61530368       1.15343467       1.00204426      -0.62285051
C        7.41021744       2.88129410       7.77172174      -0.04941660       0.95245462      -1.78733116
C        9.86377550       2.85416278       7.52227868      -1.96364302       2.95685143       0.30040024
C       12.27975667       2.85545426       7.36783279      -0.09468396      -0.23009908       0.50309213
C       -1.25952791       4.99227855       7.47306182       0.47708439       1.06704278       0.14215938
C        1.23096270       4.94370238       7.49548253      -1.27376513       2.78011868      -0.01384950
C        3.66878999       4.91192127       7.48193212       0.59088270       0.51854266      -0.61142710
C        6.09056022       4.92407573       7.47306678       2.14465202       3.15284996       0.18701613
C        8.57268052       4.98861022       7.35495502       1.97193225       0.70970186       1.73421140
C       11.09901916       4.93930183       7.52884627      -2.61538321       2.41561184      -0.47639765
C       -2.50447629       7.13727925       7.56255001       2.55281722      -0.60511813      -0.51787237
C        0.05009411       7.11448323       7.60161728      -3.61969288      -0.94396638      -0.11562457
C        2.47029307       7.07004046       7.48406641      -0.75147972      -0.07302062      -0.44123087
C        4.90780201       7.10274403       7.41688903      -0.20469041      -0.57213165      -0.69149974
C        7.36605525       7.10077707       7.47905232       0.11996510       0.32554254      -0.23837803
C        9.86409011       7.10527782       7.41204467       0.50769980      -0.43411483       1.15537534
C       -3.72750914       9.28061390       7.60757670       2.93152117      -2.26869746      -0.84739241
C       -1.15457582       9.19716673       7.53525056      -2.25593554      -0.27901149      -0.29546398
C        1.32501130       9.25877602       7.58788555      -2.54406415      -1.98704648       0.48169695
C        3.71261109       9.16512467       7.44466917       0.17816074       3.47014492       0.27085980
C        6.16961767       9.22521919       7.51286925      -2.43631488       1.91585084      -0.84838974
C        8.59118582       9.24161534       7.56878422       1.03699455       0.82931421       0.32425030
C       -4.85754923      11.41233097       7.45854529      -1.76335357      -2.12813860       1.63546329
C       -2.36472864      11.34355716       7.45831087      -2.73328501      -0.45043850      -0.07487772
C        0.05330418      11.31964824       7.50769191      -1.60174893       0.48705616      -0.67253194
C        2.46766833      11.38466704       7.66127894       0.37007919      -0.70753262      -0.58592150
C        4.88092775      11.31368270       7.33909216       0.39506568       2.18327359       1.78908722
C        7.34481707      11.33473918       7.51148698       1.78698740       2.54509800      -0.44530221
72
Lattice="14.76 0.0 0.0 -7.38 12.782534959858314 0.0 0.0 0.0 15.0" Properties=species:S:1:pos:R:3:REF_forces:R:3 REF_energy=-11165.5130699804 config_type=fd_force_conv_snapshot_015 snapshot_index=15 split=validation degauss_Ry=0.00285013035 kgrid=8 lattice_temperature_K=450.0 trajectory_seed=2 p4_key=seed2:snapshot015 pbc="T T T"
C        0.00591909      -0.02301437       7.62341192      -0.87192279      -0.01721534      -1.12445628
C        2.41045610       0.01946167       7.57697140       1.83012280      -0.07440798       0.35654259
C        4.95757032      -0.01969077       7.64540073      -3.29118585       0.75356205       0.42767781
C        7.35123074      -0.06116651       7.46691429       1.07172656       1.71040247       0.26727389
C        9.75203630      -0.01539552       7.49230635       2.75035559       1.03815464       0.19531951
C       12.28798267      -0.01010077       7.61774427      -0.51185085       1.03643662      -0.82168446
C       -1.18591042       2.08546963       7.70770311      -1.01790231       2.46472788       0.48253101
C        1.26676731       2.13423439       7.56686009      -0.36773152       2.02484041       0.34366213
C        3.73068531       2.14046805       7.60252649       0.96574311      -0.03312532      -0.25798809
C        6.16624667       2.12811894       7.49063020      -0.00017895      -0.31285903       0.95374352
C        8.64157210       2.14794171       7.49207031      -0.95848386      -2.14358116      -0.34757304
C       11.08983212       2.10203119       7.66647514       0.80911408       0.41972642      -0.56633484
C       -2.40121307       4.25471701       7.77057895      -0.99133202      -0.93674158      -0.88845035
C        0.02038036       4.33006119       7.67471920      -1.46090339      -2.52979839       0.30666627
C        2.43958175       4.28141880       7.45035350       2.97766528      -0.40579618      -0.05778400
C        4.96629445       4.31489739       7.42344176      -0.84804315      -1.21654626       0.54901640
C        7.44004196       4.27687278       7.35592413       0.28485021      -1.75562406       0.57294874
C        9.96391497       4.21580137       7.45333551      -2.09598772      -1.64594234       0.04360437
C       -3.65298322       6.38820963       7.37415060      -1.77525289      -2.91591175      -0.07730767
C       -1.23216191       6.42480792       7.62204969      -1.27559421      -0.83534782      -1.00892042
C        1.23763517       6.44526469       7.41305355       0.42339384      -1.83648011       0.82261829
C        3.71093026       6.43860341       7.36009777      -0.06007331      -0.03401827       0.32296732
C        6.15901770       6.42556562       7.42808271       0.49931518      -0.68586748      -1.27237056
C        8.60370608       6.30175777       7.23209150       2.46790371       1.40884061      -0.13571002
C       -4.90663067       8.48638722       7.31804002      -1.72968960      -1.29862178      -0.03133789
C       -2.47019203       8.55524928       7.43250610      -0.87512510      -0.73480226      -0.01091176
C       -0.06529615       8.53916022       7.48037295       1.67926461      -0.36268393       0.43688416
C        2.41892479       8.55744724       7.40240339       1.39762211      -0.90381784       0.06821754
C        4.88079827       8.61566093       7.39958939      -0.42862784      -2.98347031      -0.19123788
C        7.32696474       8.47727654       7.39548118       2.75546309      -0.46131247      -0.76178856
C       -6.18798932      10.65917535       7.42311400       0.51907359      -3.65556491       0.22529240
C       -3.74038723      10.65975903       7.47205556       0.40024980      -0.17312266       1.28383151
C       -1.25826493      10.72780502       7.60254266      -0.83842774      -4.17466524      -0.44577812
C        1.21044773      10.58527553       7.56970211      -0.72921782       3.00209281       0.12188443
C        3.62291960      10.69588788       7.50370083       1.03353488       0.13681406       0.30480479
C        6.08930514      10.63307531       7.50604975       2.71031811      -0.13303479      -0.28713283
C        1.19962126       0.74816200       7.57766499       0.83040539      -1.81957896       0.21159922
C        3.69174762       0.72006633       7.66847830       0.13246041      -0.92354103      -0.62120398
C        6.15332285       0.67316591       7.55824405       0.34199734       1.20971715      -0.30462533
C        8.57893686       0.68514397       7.42317989      -1.03734217       1.34437662       0.64724591
C       11.02794881       0.71907774       7.50792260       1.08953453      -2.24229146       1.24590748
C       13.54173497       0.69751668       7.60329982      -0.34742366      -1.27174064       0.82583679
C        0.01762395       2.85127506       7.73117545       1.16300998       0.66665440      -1.09182641
C        2.55401809       2.84431339       7.46506187      -3.96512367       0.73816706       0.93144151
C        4.95826054       2.88132117       7.58507328       0.22792572      -0.53779559      -1.07699860
C        7.39679904       2.82580778       7.48418418       0.43307327       1.49580534      -0.84090346
C        9.88995167       2.78800469       7.55401304      -0.60070303       1.58102456       0.00184708
C       12.33400471       2.83534925       7.77657196       0.60423084      -1.41402961      -0.31223477
C       -1.23987811       5.01498900       7.68910853       2.06892712      -0.33871070       0.54478565
C        1.23293879       4.98239510       7.53376875       0.44319956       1.90721784      -0.57599730
C        3.70902966       5.01657485       7.40095855      -0.48254850      -0.33326151      -0.01601926
C        6.19982267       5.00112988       7.37617930      -0.01385388       0.15924667       0.21703350
C        8.75194266       4.88953388       7.31261822      -3.97522425       1.46089645      -0.07004148
C       11.14060321       4.88551284       7.50810845       0.98609031       4.03021603       0.29736248
C       -2.49011709       7.10872658       7.43844860       2.50749304       1.45948517       0.74168947
C       -0.00815933       7.08425353       7.50713120      -0.33939282       2.70336045      -0.19719847
C        2.47085035       7.15333946       7.36760030      -0.39805125      -0.89391395      -0.15209386
C        4.94593999       7.15692651       7.41704757      -1.50757045       0.46172976      -0.23922238
C        7.40141080       7.06714490       7.25336759      -1.13930415      -0.30470581       1.28109792
C        9.84417396       7.02801635       7.23165828       0.35698250       1.38205280       0.59454755
C       -3.71441847       9.22935225       7.42328459       0.13235756       0.64362580      -0.48023553
C       -1.27311852       9.28904414       7.48994711       0.84791357      -0.84308710       0.42012906
C        1.22708940       9.21558359       7.55482157      -2.97318564      -0.58463569      -0.77423167
C        3.60588988       9.30310540       7.35634742       2.09714986      -0.55339499       0.85785243
C        6.13697688       9.20172171       7.44638406      -1.40853747       2.26146829      -0.00249783
C        8.58267533       9.12864097       7.38285181       0.46190434       3.65435726      -0.14430856
C       -4.98573558      11.36397108       7.52981818       1.34130801       0.63332210      -0.62997015
C       -2.48866768      11.35138814       7.66675102      -0.92380508       1.12963423      -1.07938433
C       -0.03342002      11.31862856       7.52744891       1.76736397       1.11505402       0.36688305
C        2.39501824      11.37833471       7.61163580       0.17634631      -1.24010656      -1.13912314
C        4.91033001      11.36897931       7.56451006      -1.79646732      -0.39083313      -0.21583768
C        7.36471989      11.31612726       7.46288360      -1.54932491       1.91897601       0.97997597
72
Lattice="14.76 0.0 0.0 -7.38 12.782534959858314 0.0 0.0 0.0 15.0" Properties=species:S:1:pos:R:3:REF_forces:R:3 REF_energy=-11164.972748905411 config_type=fd_force_conv_snapshot_021 snapshot_index=21 split=validation degauss_Ry=0.00285013035 kgrid=8 lattice_temperature_K=450.0 trajectory_seed=2 p4_key=seed2:snapshot021 pbc="T T T"
C        0.00598710      -0.04228612       7.44612208      -0.24865679      -0.17038186       0.39562901
C        2.46074258      -0.00926522       7.46507383      -0.22910149      -0.62033880      -0.23177801
C        4.94264864      -0.03283461       7.29097687       0.97147590      -0.54086060      -0.81392513
C        7.39304900      -0.02866827       7.17380140       0.49350114      -0.03550231       1.45480859
C        9.86554119      -0.00939196       7.36750370      -0.12628873      -0.02409124      -0.23614297
C       12.32219726       0.00976625       7.27790581       0.98574553      -2.11263947       0.93132453
C       -1.28493594       2.15526379       7.27822593       2.25379921      -1.89226482       0.53415234
C        1.15416471       2.06108752       7.41680587       2.43643135       2.28985636       1.30079411
C        3.66514930       2.10192448       7.38120722       1.67601191      -1.44698909       1.23013402
C        6.15015764       2.11990739       7.38983720      -0.37847564      -1.06708803      -0.21714663
C        8.58456185       2.16158481       7.44688756      -0.72682927      -1.57972641      -0.35970530
C       11.06217205       2.08752645       7.37457144      -0.54703614       2.70048724      -0.84284978
C       -2.58874909       4.26875138       7.45744471       4.40470184      -0.09698407      -0.53497278
C       -0.02064910       4.25999265       7.53303636      -2.60037543      -1.08129260      -0.72084759
C        2.45286146       4.23322314       7.58975795       0.24898743       0.27839134       0.15253018
C        4.94116774       4.25538621       7.76144347      -3.14556166      -1.35569539      -0.99847171
C        7.29816895       4.32088974       7.67947902       0.85719371      -1.43737008      -0.67825959
C        9.77641338       4.36023194       7.56610961      -0.64587757      -3.32556484      -0.33535747
C       -3.67752370       6.44088538       7.61961841       0.63257340      -2.19122755      -0.39001912
C       -1.25290972       6.43815130       7.45763291      -1.32047410      -1.69877979       0.27000903
C        1.14639067       6.36552462       7.47050750       2.02353404       1.97876830       0.09206889
C        3.67054246       6.41258781       7.58058633      -0.98881182       0.00029928       0.98067968
C        6.15098064       6.44624891       7.81458776      -1.82362408      -0.14454768      -0.35190355
C        8.62903027       6.40013483       7.78701688      -0.20446389       1.14228611       0.18220945
C       -4.86813088       8.55380412       7.73616085       0.89543218      -1.96526461      -0.10179435
C       -2.42342273       8.56377445       7.52589075      -0.17263158      -1.19532231      -0.77524597
C        0.03575461       8.52566221       7.43506758       1.36596309       0.86547600       0.35592141
C        2.47211707       8.54095520       7.54791340      -0.46709668      -0.51859922      -0.35880387
C        4.92204110       8.55761324       7.58477571       1.27176481      -0.72102192       0.51620732
C        7.43506030       8.48478623       7.84893415      -1.38677360       1.72847835      -1.27500543
C       -6.11831043      10.59901329       7.58410024       0.20090472       0.15204167      -0.20114743
C       -3.63729185      10.72490993       7.29363802       0.29235448      -3.54957838       0.88547662
C       -1.12742067      10.63553569       7.25895920      -1.45825618      -1.66100566       0.68763948
C        1.27751203      10.68744612       7.55775881      -0.81245292      -0.61219663      -1.29743599
C        3.68673321      10.64010194       7.49404233       1.02370581       0.50986853      -0.14004902
C        6.16913732      10.64093488       7.51958393       0.43707880      -1.37284696       0.18148492
C        1.18578056       0.69014547       7.55318733       1.97723927      -1.18617562      -1.41152047
C        3.71879380       0.64131039       7.36593381      -1.78072574       1.87051432      -0.01989751
C        6.15640355       0.65545704       7.23955922       0.74527796       2.53068799       0.08798752
C        8.61989729       0.64826161       7.36517938      -0.32175428       3.55344069      -0.60148953
C       11.10483597       0.68214577       7.26683184      -1.38996357       1.20065787       0.72425019
C       13.56517714       0.69391466       7.35776214      -2.03951858       0.71488983      -0.90857978
C       -0.04602545       2.79341669       7.40112201       0.38123238       2.48066255       0.19658038
C        2.47103634       2.78278542       7.54099730      -2.86519057       1.22057723      -0.95963340
C        4.90846667       2.77522672       7.51252754       0.25492874       2.64598268       0.33245958
C        7.33740721       2.89206280       7.44396699       0.50721643      -0.57812026       0.89195708
C        9.77988557       2.86498928       7.48900887       2.26880416       0.49758688      -0.14826369
C       12.29283810       2.87043055       7.26226921      -3.33836740      -1.19859044       1.30074629
C       -1.32580882       4.98461072       7.54125066       2.15922529      -0.05867283      -0.80263002
C        1.19012708       4.95908271       7.52478515       0.81263186      -0.42353525       0.22611181
C        3.69728708       4.98315553       7.71150087      -0.90212759      -1.05067488      -0.79473030
C        6.08348256       5.01297350       7.78899432       1.93961708       0.65662452       0.00401632
C        8.50996929       5.03147337       7.67301364       2.52067817      -1.42516762       0.06745109
C       11.02311623       4.99727829       7.50476436      -1.66943374       1.60528240       0.64200960
C       -2.46900250       7.13532466       7.48511066       0.24062929       0.82429567       0.82548815
C       -0.05404452       7.14728131       7.41989097       2.23648308      -2.60661678       0.33802062
C        2.41073025       7.12109111       7.49706429       0.07398504      -1.39807514       0.23510039
C        4.85628874       7.16937360       7.71161690       2.80566567      -1.95247903      -0.31352418
C        7.41791850       7.11591391       7.79494648      -1.19834362      -1.37174010       0.88232779
C        9.89630688       7.07961180       7.79618290      -1.94167063       2.71415034      -0.38605911
C       -3.64256523       9.26985505       7.50483331      -0.69089913       1.03678732       0.02451418
C       -1.15766890       9.17982041       7.43389365      -1.69368310       3.64167915      -0.63066692
C        1.27711428       9.29032442       7.52785326      -0.93758979      -1.95424563       0.03451577
C        3.70587545       9.22222618       7.54151728      -0.52384067       1.55421489      -0.04065814
C        6.21298799       9.19300181       7.62164663      -1.38226183       1.45222797       0.56473535
C        8.64847007       9.17180328       7.77080446       0.44266786       2.59688541      -0.41657322
C       -4.89638566      11.34534444       7.41283690      -0.32354402       0.78586617       0.41720288
C       -2.35285552      11.33392528       7.20210253      -2.01672961       0.78365527       0.49194562
C        0.05696405      11.34711702       7.31969812      -0.05705586       0.49394954      -0.21765082
C        2.47789038      11.37430933       7.44426438       1.01258759      -0.26669513       0.54970108
C        4.93399075      11.34593993       7.46125494      -0.10459016       0.55234315      -0.76631318
C        7.41437643      11.30897495       7.49886287      -0.38995125       0.82905504       0.29085990
72
Lattice="14.76 0.0 0.0 -7.38 12.782534959858314 0.0 0.0 0.0 15.0" Properties=species:S:1:pos:R:3:REF_forces:R:3 REF_energy=-11165.705494465063 config_type=fd_force_conv_snapshot_027 snapshot_index=27 split=validation degauss_Ry=0.00285013035 kgrid=8 lattice_temperature_K=450.0 trajectory_seed=2 p4_key=seed2:snapshot027 pbc="T T T"
C       -0.00957606       0.03536914       7.55799449       0.94645444      -1.70312367      -0.43088604
C        2.46841453       0.00750907       7.69565139      -0.17775707       0.32943056       0.17301930
C        4.93757843      -0.08421940       7.76420248       0.43829930       2.76940669       0.73183289
C        7.39071646      -0.03332874       7.76253251      -0.33400790      -0.20725303      -0.40562726
C        9.81164106       0.00840223       7.53179733       0.46898850      -0.51160402       0.10721963
C       12.29968794      -0.04939925       7.46963469      -0.05935932       1.87328108       0.27806969
C       -1.20164275       2.18308617       7.65670103       0.31412273      -3.46301319      -0.30221826
C        1.24351198       2.13939149       7.72977204       0.69833219       0.25589830      -0.32790307
C        3.76722003       2.06756846       7.72662789      -0.23409663       0.97773371       0.40706888
C        6.18831169       2.09304799       7.68089711      -0.99517916       0.78898671       0.25485880
C        8.60082014       2.14897554       7.56694875      -0.28238143      -1.32363373      -0.34080512
C       11.10066100       2.14682043       7.56284869      -0.34772628       0.29347060       0.72845600
C       -2.44732547       4.30243909       7.60965512       0.34211202      -1.11828409       0.34584037
C       -0.00959609       4.30782827       7.59148507      -0.41713706      -0.87110286       0.78271862
C        2.52606513       4.19992376       7.51766127      -0.91893052       0.63884046       0.52718645
C        5.01033239       4.28655002       7.50846219      -2.49289817      -1.91594365       0.72706658
C        7.44134697       4.32966636       7.27177128      -1.73446182      -3.62970424       1.16284671
C        9.86386107       4.31515812       7.31360024       1.02603960      -2.63694526       0.50783427
C       -3.74777418       6.45091166       7.37531324       1.93211255      -3.03875314      -0.18418046
C       -1.26613221       6.44204668       7.57504044       0.33342863      -0.62484646      -0.11362168
C        1.24972171       6.40111495       7.47199901       0.14178554      -0.05479458      -0.04770502
C        3.69965835       6.38823798       7.44028313       0.92299595      -1.54463985      -0.53208749
C        6.17013018       6.39046761       7.21730062      -0.45569178       0.34920440       0.21245205
C        8.58559527       6.38268211       7.15815379       0.41592864       0.95345556      -0.52687097
C       -4.89684032       8.55432227       7.25795531      -1.70820674      -2.44279817      -0.30783921
C       -2.49047389       8.50469456       7.49107254       0.31368873       2.54842243       0.30616157
C       -0.10126865       8.51764586       7.52711540       2.93044491       0.04607828       0.01072536
C        2.41465515       8.54808091       7.43041789       0.83773457      -0.63506685      -0.10104127
C        4.85850763       8.50691048       7.25172839       1.32096133      -0.05332854       0.54872175
C        7.41421318       8.49649465       7.12299257      -1.63023033       1.80193631       0.89092761
C       -6.12303324      10.66418115       7.33067441      -1.48149072      -0.14742808       0.63608989
C       -3.79310477      10.67999249       7.58910722       5.44021775      -2.65947481      -0.20440116
C       -1.28835391      10.67634331       7.77194517       1.21312309      -2.98771572      -0.57132792
C        1.17289683      10.59538865       7.60020662       0.31657633       0.93376373      -0.61880308
C        3.66386007      10.67196862       7.43678667      -1.49396572       0.15434487      -0.27994248
C        6.17006442      10.61070323       7.33922349      -0.86160521       1.29652608       0.20297343
C        1.22834901       0.73513244       7.69857490       0.37805449      -0.63098214      -0.19544575
C        3.74253162       0.64846264       7.77304308      -1.16713531       0.76820757      -0.31474082
C        6.17401771       0.66383581       7.81039958      -0.49160238       0.21042063      -0.54074825
C        8.58793084       0.69178885       7.59403547       0.56760342       1.25529150       0.64153035
C       11.07591063       0.72241691       7.56799453      -0.11642444      -0.92571849      -0.74642853
C       13.53464977       0.70258712       7.49296271      -0.77165594       1.07261179       1.05135931
C        0.00094169       2.86127018       7.68401150       1.69448245       1.31880109      -0.19441679
C        2.54889465       2.76909121       7.68724369      -2.02433982       1.59082509      -0.36730343
C        4.96655619       2.84198248       7.71087745       0.71957284      -0.27346330      -1.02631573
C        7.37107610       2.83550094       7.50842351       1.29248507       1.89660973      -0.32896905
C        9.81060611       2.84976043       7.52619793       2.49374844       1.25601500      -0.81494097
C       12.38464962       2.86007553       7.68258666      -4.30796177       1.27416262      -1.03925635
C       -1.27007680       5.04296532       7.67733816       2.21056405      -0.93820069      -0.90422201
C        1.23581547       4.94620028       7.48943600       1.43356793       1.04519226       0.33937045
C        3.73481321       4.95225222       7.48737117      -0.27890067       0.01492448       0.01505355
C        6.19115869       4.99726871       7.37730086       1.66652531      -0.10861342      -0.86416808
C        8.66545425       5.00016902       7.14927840      -1.34548117      -0.72513799       0.71317825
C       11.12081552       4.98269370       7.38946627      -2.55443007       1.44878372       0.28800803
C       -2.50713388       7.13029996       7.49927769      -0.05181261      -0.46123688      -0.28000650
C       -0.01969623       7.12651434       7.48759639      -0.11100918      -1.61377758       0.34876449
C        2.52884821       7.12663106       7.45389315      -3.57663641      -0.40776436      -0.09128368
C        4.92715443       7.02951491       7.27161614      -0.49500781       3.60333063       0.16713842
C        7.38153882       7.11186397       7.13939923      -0.02243288      -1.01329232      -0.25703138
C        9.78100605       7.06895360       7.21794124       1.79051213       3.38120763       0.33151367
C       -3.70084445       9.23541516       7.38543917      -0.41713861       1.20681720       0.82072878
C       -1.26453537       9.23379727       7.63539304      -1.96726750       0.66976235      -0.15618192
C        1.15091466       9.18135372       7.48070330       0.76306871       1.29122755       0.55638364
C        3.63898744       9.29158076       7.38758248       0.50669090      -2.93361457      -0.30044189
C        6.12970706       9.20234678       7.25933435       0.71559277      -0.52738828      -0.77188631
C        8.63141780       9.23495832       7.22366644      -0.23673432       0.69270841      -0.30389154
C       -4.92857453      11.37695958       7.56313732      -2.14803662       1.03680892      -0.41970174
C       -2.49644772      11.33528313       7.74761305      -1.54696927      -0.70929254      -0.12779283
C       -0.04016662      11.32046471       7.74387183       0.54756038       0.90549368       0.02906581
C        2.39044860      11.35502284       7.47314619       1.09299087       0.09643154       0.76293938
C        4.89086650      11.31910056       7.41371999       2.13285323       1.02547755      -0.08169346
C        7.40806491      11.37062838       7.40456761      -1.10311690      -0.23395368      -0.18497622
72
Lattice="14.76 0.0 0.0 -7.38 12.782534959858314 0.0 0.0 0.0 15.0" Properties=species:S:1:pos:R:3:REF_forces:R:3 REF_energy=-11165.030409283596 config_type=fd_force_conv_snapshot_033 snapshot_index=33 split=validation degauss_Ry=0.00285013035 kgrid=8 lattice_temperature_K=450.0 trajectory_seed=2 p4_key=seed2:snapshot033 pbc="T T T"
C        0.02049796      -0.05036546       7.46298389       0.11253101       0.00426289       1.29670117
C        2.50917958       0.03474828       7.50564557      -3.65870654      -1.58497197       1.35239255
C        4.88001505      -0.01407118       7.30109477       0.73650407       2.17235051       0.92251876
C        7.30172942       0.05973882       7.41132039       0.39615120      -1.54131592      -1.84437597
C        9.81513257       0.00000957       7.44337349       0.01339159      -0.89673162      -0.18223234
C       12.37395028      -0.02563756       7.46179132      -1.97735728      -1.18144813       0.88234578
C       -1.23523187       2.14921614       7.34585888       0.25980715      -1.51638317      -0.35956081
C        1.22579812       2.10643764       7.30020080      -1.55082515       0.74319408       0.45301372
C        3.66428878       2.15017383       7.38439198       0.65262440       0.14260598      -0.26237568
C        6.17511597       2.16780565       7.38935695      -1.58503291       0.47950046       0.09602068
C        8.64681998       2.14522968       7.49636027      -1.59891763       1.05836171       0.04227434
C       11.04835836       2.08115261       7.41722882       1.83546247       1.66882002      -0.05840724
C       -2.49845728       4.26973262       7.41311658      -0.05349232      -0.37783904      -0.36949144
C       -0.02354874       4.24444421       7.13328747      -0.99603328       0.09512747       1.25039637
C        2.51156973       4.25465933       7.27034271      -2.17588038       1.52110500       0.46675164
C        4.95687636       4.25787711       7.44654913      -1.49588967       1.00625033      -0.40185340
C        7.33902605       4.28327153       7.58354668       1.61227914       0.54943832       0.31956061
C        9.81690145       4.24813490       7.49732968       0.74170541       2.24458026       1.16147400
C       -3.73853653       6.35424829       7.54273460       3.59309661       1.14076145       0.73309273
C       -1.23433374       6.44106413       7.35226446      -1.22017048      -1.76292008      -1.11895489
C        1.18912589       6.40854387       7.27200010       1.24083881      -2.33169540       0.60114680
C        3.69731098       6.39952257       7.61306446       1.07429200      -1.21288115      -0.68252119
C        6.15961546       6.40337608       7.69143508       0.26986016       0.70219450       0.65580023
C        8.64264915       6.34129360       7.69925130      -0.60687213       2.31300554       0.73193522
C       -4.88338144       8.49873875       7.77156400      -1.32379211       0.07469055       1.05519591
C       -2.51190127       8.53348076       7.37165063       0.12032351       0.92087376       1.32121664
C       -0.00498839       8.57217412       7.33705023      -0.55846135      -2.27523604      -0.32510700
C        2.45796195       8.48714805       7.56388088       0.30074862       0.38694820      -0.09344623
C        4.92830322       8.53564829       7.82652925       0.78353443      -1.29608230       0.22409761
C        7.41947040       8.49693270       7.87958979      -1.36839201      -0.33887243       0.62664623
C       -6.04344506      10.63992289       7.88833315      -3.05390980      -0.68165318      -0.14074142
C       -3.66679226      10.70274833       7.58663831      -0.11208210      -1.68915538       0.39599565
C       -1.19833977      10.63629303       7.31899663      -2.55167308       0.12982657      -0.76606019
C        1.26063607      10.67985132       7.28377425      -2.43031289      -1.63336630       0.82064599
C        3.62925258      10.65935222       7.69118583       3.58426153      -1.30795052      -0.26839000
C        6.15982935      10.62300023       7.80183036       0.83284768       0.50080230       0.43018464
C        1.21095882       0.68952756       7.45989140       2.34729069       0.42396463      -0.59741073
C        3.67913587       0.72560499       7.51006542       1.14967058       0.91534924      -1.80362630
C        6.07255737       0.78948471       7.30250569       1.89476856      -2.84968553       0.62645057
C        8.54609016       0.73072088       7.41398157       2.27815527      -0.04191155       0.51300861
C       11.08914818       0.61989727       7.44424616      -0.65132291       3.13382688      -0.15792461
C       13.57788942       0.70189723       7.41766453      -0.99701159      -0.06298971      -0.23719327
C       -0.02547671       2.82928913       7.26341780       1.11467684       0.10407671      -0.51093168
C        2.41303982       2.87168875       7.31753469       2.53815550      -2.19794430      -0.11778429
C        4.92286859       2.84889328       7.30942988       0.07818468       0.43885877       1.11113643
C        7.40232958       2.86767586       7.57150597      -0.53176121      -0.31712989      -1.10044835
C        9.85911389       2.91144304       7.46782051      -0.28679962      -6.40196614      -0.18272033
C       12.30794096       2.85256608       7.35411325      -1.96693326      -1.59313008       0.48189081
C       -1.30540218       4.97198432       7.22213717       2.59877260       1.32479639       0.82008035
C        1.21016132       4.90664131       7.28448468       0.78352235       3.36517680      -1.30796903
C        3.74611292       4.98594643       7.39232202      -1.43650182      -0.45152017       0.59649568
C        6.11545633       5.03524879       7.59684895       2.04340121      -3.44284263      -0.43588066
C        8.62400310       4.95994621       7.60797757      -2.07144449      -0.47399341      -0.24337883
C       11.02331073       4.94847764       7.60059428       1.19494873       0.60757893      -1.55522611
C       -2.45627283       7.14656398       7.43349456      -2.02917941      -2.31079825      -0.02832353
C       -0.02677875       7.13879275       7.25725581       1.24945381      -0.08786359       0.64380475
C        2.45883238       7.05148812       7.47145643      -0.90936191       1.77953532       0.29346957
C        4.95715129       7.08539539       7.78718419      -2.41108490       1.94505574      -0.64761641
C        7.39755924       7.07236186       7.78465959       0.99298807       0.27269609      -0.19656341
C        9.88615073       7.08104357       7.75391615      -2.13849963      -0.19834852      -1.00173470
C       -3.74003362       9.27569798       7.66907844       2.99303045      -0.71402312      -1.54979799
C       -1.25709130       9.19971417       7.31608995       0.34340657       2.31849048       0.01558654
C        1.22814863       9.22459472       7.43213321       0.97380558       1.59131977      -0.75982398
C        3.70731189       9.21812985       7.71828214      -2.11989307       0.38677336      -0.08291371
C        6.16829189       9.22740750       7.90447367       0.28864541      -0.89152719      -0.37265698
C        8.63927632       9.16249643       7.96076061       1.25228356       2.62682874      -0.92672405
C       -4.86202249      11.39027289       7.72460403      -0.59349366       0.78655059      -0.63132333
C       -2.45687093      11.37405924       7.35099991       1.00337378      -0.66279620       0.30476803
C       -0.03652506      11.37642661       7.20805270       2.27507431       1.01454779       1.48809177
C        2.45848123      11.34645768       7.45731533      -0.98233804       1.83260314      -0.06818540
C        4.92665255      11.32640895       7.69635006      -0.14548047       1.09644720      -0.55276790
C        7.42804233      11.32097661       7.78179898       0.03503874       0.50779622      -0.79174705
72
Lattice="14.76 0.0 0.0 -7.38 12.782534959858314 0.0 0.0 0.0 15.0" Properties=species:S:1:pos:R:3:REF_forces:R:3 REF_energy=-11165.389490432972 config_type=fd_force_conv_snapshot_039 snapshot_index=39 split=validation degauss_Ry=0.00285013035 kgrid=8 lattice_temperature_K=450.0 trajectory_seed=2 p4_key=seed2:snapshot039 pbc="T T T"
C        0.01720892      -0.00773796       7.42897684       1.28848315       1.63768576       1.09424145
C        2.52342518       0.02193151       7.43717293      -0.96652473      -2.12295885      -0.64449354
C        4.92955685      -0.02440953       7.44831415       2.55569068       0.19869511      -0.10663342
C        7.41242865      -0.07400142       7.65649660      -1.10741167       3.70811543      -0.63249061
C        9.86027938       0.04121776       7.66199366      -2.91516407      -1.41015547      -0.26245358
C       12.32984825       0.03590826       7.62628370      -1.27386232      -1.41887408       0.39595889
C       -1.22304392       2.10249905       7.71368883       0.20572399       1.36288882       0.17024122
C        1.25330023       2.14972702       7.54315599       0.08807597      -1.37088007       0.66522949
C        3.70660780       2.15223098       7.48693731       1.36079132      -2.97343016      -0.30750394
C        6.09647539       2.17620582       7.48105922       2.00670128      -3.49513810       0.35058380
C        8.51494571       2.17344549       7.54959769       1.52975599      -0.39712745      -0.24018629
C       11.01861381       2.18895389       7.68419092       0.59310465      -1.58445518      -0.44543745
C       -2.50939380       4.29487598       7.57276102      -0.34154560      -2.60282389       0.82128800
C       -0.02220062       4.24488309       7.58585230      -0.13655592       0.96086882      -0.23255834
C        2.43762497       4.20314495       7.44726569       1.82450160       1.84595000       0.33215336
C        4.91283205       4.30717106       7.45619531       0.95397389      -1.50482040       0.54746834
C        7.35627164       4.28898131       7.52488353      -0.93060565      -0.42559188      -1.20911114
C        9.80349852       4.26986300       7.48340719      -1.05037175       0.23270335       0.02765144
C       -3.75621246       6.38601991       7.45814793       2.13429690      -0.51992797       1.15488195
C       -1.27745393       6.39047292       7.46169032       2.21588520      -0.96846411       1.98596225
C        1.28124726       6.35204946       7.52870360      -1.70144217       0.91451106      -0.50653612
C        3.68722942       6.40159770       7.37394297       0.07592699      -1.01825918       0.39252826
C        6.15006379       6.46239715       7.43496330      -1.39134605      -2.00804211      -0.56871799
C        8.55786636       6.38238606       7.40191909       1.40881258       0.59790773      -0.13870896
C       -4.86596352       8.50439571       7.35386186      -1.75990803       0.79088419       0.52808119
C       -2.49509749       8.48097888       7.69537667       3.81860370       2.01634549      -1.36584019
C        0.01977551       8.44423010       7.67599773      -2.24641834       1.86918094      -0.26229135
C        2.46410777       8.51213359       7.58224186      -0.62382342       1.00348382      -0.69198491
C        4.89169676       8.55324331       7.33972367       0.56328859      -0.19108182       0.50113037
C        7.41886771       8.50284872       7.30881182      -1.44685334       2.24353485      -0.44689604
C       -6.11865667      10.67916280       7.21808870       0.59911846      -0.98607720       1.04470144
C       -3.63944983      10.56742993       7.29147336      -0.57045014       3.33766086       1.01298791
C       -1.23394071      10.64755181       7.53939103       1.19487546      -0.52226150      -0.22955478
C        1.22094832      10.57348992       7.65736667       1.78423555       1.43257780      -0.69274749
C        3.74807008      10.71007688       7.49705085      -3.17953056      -1.62875451       0.89089239
C        6.19004821      10.65737550       7.28229441      -0.92586145       1.14236196       1.38256342
C        1.27359343       0.73007621       7.49857552      -0.67346293      -0.82234549      -0.43800208
C        3.75517364       0.65790089       7.41807248      -1.88396453       3.93930208       0.61256044
C        6.18416250       0.73503375       7.57099104      -1.37269372      -2.42012927      -0.55196931
C        8.55509057       0.76676776       7.65397270       2.36606026      -2.08484945      -0.07206545
C       11.05417386       0.72739627       7.70677456       1.61549045       1.29042202      -0.32609636
C       13.56518930       0.68403725       7.67010511      -0.31561448       1.41719078      -0.87577816
C        0.03104784       2.84799674       7.70372750      -1.46665057      -0.82486980      -1.00809021
C        2.50200425       2.80751869       7.50759001      -1.83434198       1.02628848      -0.19619471
C        4.92092177       2.83804749       7.46664336      -2.11172107       2.86871478      -0.02975023
C        7.29102424       2.85070609       7.45271934       1.97578865       2.22435442       0.90512036
C        9.78594923       2.89413749       7.51487837      -0.40472223      -2.24600156       0.89934103
C       12.28105983       2.84316566       7.67146859       0.09205681       0.40821431       0.09734171
C       -1.29608168       4.94865140       7.56926984       1.95737081       1.56103603      -0.76390715
C        1.23142526       4.94204650       7.42526025      -0.43702814      -0.38287557       1.04463279
C        3.69312750       4.95501554       7.49555602      -1.67887483       0.97060198      -1.21929040
C        6.14668463       5.03668915       7.49130787      -0.31190310      -0.53031162      -0.07275425
C        8.57825114       4.97207523       7.42060771      -0.21037177       0.53921587       0.64886982
C       10.99463872       4.94925560       7.58253271       1.85302156       2.25735478      -1.27228752
C       -2.46729774       7.11209610       7.56426449      -2.02881431      -2.17895259      -0.37500645
C        0.02042951       7.05152106       7.64950953      -0.80931308      -1.06708623      -1.21820410
C        2.47661583       7.12216939       7.41534305      -0.18369529      -1.30371385       0.99766773
C        4.89628448       7.10531038       7.33729755       0.57107107       1.65305375       0.40583938
C        7.36176507       7.11909314       7.34916085       0.95216409      -0.22568295       0.53637737
C        9.81704189       7.10439554       7.42501713      -0.71156977      -0.55315382      -0.33568760
C       -3.63265362       9.20365461       7.48898320      -2.53092196      -0.95090605      -0.67798628
C       -1.21472481       9.24137243       7.61206725      -0.93517115      -2.44149154       0.84914616
C        1.18511629       9.17071509       7.63004046       2.98520324       0.20664907       0.39448641
C        3.67234857       9.26740478       7.52784867       1.13755991      -0.23288564      -1.04372005
C        6.15746398       9.26272726       7.29880212       0.46470144      -1.68857869      -0.28014072
C        8.63806720       9.21332497       7.28664667       0.72086379       1.24958493      -0.49112981
C       -4.84462426      11.34398995       7.33493240      -1.82288772       0.25818581      -0.75698548
C       -2.46693081      11.34437130       7.36636656       1.60674844      -0.65777998       0.76999629
C        0.05779142      11.30540392       7.59878386      -2.84321124       0.59319901       0.45987445
C        2.45370573      11.35815647       7.56744179       0.97705494       0.74889267       0.81583340
C        4.95648952      11.37575632       7.53389882       0.96464217       1.19551952      -1.20871545
C        7.40425012      11.40040767       7.30426388       0.69296604      -1.94239850      -0.53772463
72
Lattice="14.76 0.0 0.0 -7.38 12.782534959858314 0.0 0.0 0.0 15.0" Properties=species:S:1:pos:R:3:REF_forces:R:3 REF_energy=-11165.372095964007 config_type=fd_force_conv_snapshot_045 snapshot_index=45 split=validation degauss_Ry=0.00285013035 kgrid=8 lattice_temperature_K=450.0 trajectory_seed=2 p4_key=seed2:snapshot045 pbc="T T T"
C       -0.02960133      -0.02525220       7.64662959       1.17425958       2.46594813       0.53480000
C        2.42694876       0.10189304       7.64755452      -0.70381532      -3.44125137       0.46737848
C        4.92439442       0.00609092       7.69389821      -0.53224355      -0.27242175      -1.02317179
C        7.37325373      -0.02892499       7.52755008      -0.75179648       1.78456465      -0.73969121
C        9.86457082      -0.02046419       7.46003774      -1.70511551      -0.43209188      -0.44259870
C       12.29155738       0.01216892       7.64966038       0.77205806      -2.77319855      -0.27888010
C       -1.25828722       2.12788118       7.48945019       2.00928472       1.33348954       0.93297878
C        1.25367319       2.16781434       7.59835636      -1.66603243       0.96725801      -0.53104953
C        3.69683103       2.13352995       7.58085776       1.09990893      -1.12756552      -0.37759710
C        6.17340006       2.13467619       7.52779701       1.25630323      -0.34990657      -1.21845479
C        8.64023810       2.11281670       7.45012788       1.07742284       2.36523133      -1.46809733
C       11.06019706       2.08640831       7.48913898       2.19638390       1.91970209      -0.01528495
C       -2.39627125       4.28780056       7.35012972      -2.47967345      -1.24313326       0.08742368
C        0.06651078       4.29208726       7.29130580      -1.82881694       0.14144718       1.15049076
C        2.46286087       4.25120384       7.47321597       1.65859525       1.61271340      -0.08509606
C        4.95735155       4.21243638       7.40598173      -0.12135633       0.64750482      -0.19275046
C        7.41735305       4.29057463       7.32804443       0.48461052      -2.77788285      -0.40761292
C        9.88108322       4.29219630       7.33264316      -0.29429155      -1.87202510      -0.66717942
C       -3.61375303       6.42930382       7.41498857      -3.71749841      -3.19789055      -1.28514046
C       -1.26601495       6.42859713       7.42183591       2.97394258       0.26545200      -0.32504169
C        1.24353311       6.38780241       7.52817343      -1.24821068       0.43398653      -0.35804720
C        3.71833374       6.36597335       7.50087135      -0.94503288      -0.18417455      -0.28976127
C        6.15914477       6.34963421       7.50269506       1.04305541       1.64936628      -0.25705195
C        8.69131308       6.36150352       7.46657308      -1.97971832       1.40358913       0.15033446
C       -4.92767103       8.49696294       7.55702008      -0.50139546       1.24829115       0.33917967
C       -2.51410236       8.56101783       7.47915266      -0.17051273      -1.26775852       0.19976649
C        0.04458188       8.56051086       7.38292329      -3.78941602      -1.93630268       0.33971678
C        2.41819106       8.50562831       7.46461945       1.46891315      -1.38668875       0.13185851
C        4.88635738       8.50346347       7.59234476       0.71411233       0.59201604      -0.43973037
C        7.35363554       8.51690341       7.49721053       0.56080516      -1.27888985       2.07645685
C       -6.23611408      10.65693187       7.66647768       3.26985547      -0.47495706       0.34337905
C       -3.73350891      10.71692873       7.71356973      -0.59260740      -0.84831261      -0.47584666
C       -1.25558300      10.60887360       7.44440148      -1.03661840       1.19120829       1.02005381
C        1.16239732      10.65841270       7.42533061       2.62922501      -0.74833474      -1.15993159
C        3.60874387      10.58085613       7.47590788       2.25337240       2.04480837       0.25733143
C        6.14610792      10.63017610       7.67707142      -2.78796029       0.12316433      -0.65534463
C        1.19104072       0.78260785       7.66636047       0.34604992      -1.71263316      -0.37527359
C        3.69443004       0.67472782       7.59314340      -0.59094544       3.03418892       0.95040880
C        6.10736792       0.73455570       7.56577295       3.14693437      -1.48316683       0.54359060
C        8.60938313       0.74269716       7.41120462       0.48969025      -3.84105997       1.12890352
C       11.08600395       0.66582483       7.54594605      -1.02358059       1.27765161      -0.12001961
C       13.54435567       0.71856586       7.67290675      -1.61760056      -0.44510604      -0.77537041
C        0.01200912       2.88248193       7.44237012      -0.03749594      -0.93295718      -0.05271456
C        2.49740317       2.86960080       7.56086969      -1.06486583      -1.45288489      -0.09975109
C        4.95267536       2.79311574       7.48212700      -1.01932208       1.83110110       0.24986546
C        7.44359999       2.82363991       7.32457419      -1.88680251       1.12916732       1.45332018
C        9.92708973       2.84900497       7.35238641      -3.45501063      -0.38170186       0.78722139
C       12.29337473       2.86665048       7.51401776       0.49866880      -1.34189756      -1.10909471
C       -1.19663784       4.99775117       7.33956304       0.65985640       0.79313339      -0.07963144
C        1.27426171       5.01425865       7.40830078      -0.87797362      -2.38335015       0.13964844
C        3.72234041       4.93438188       7.44369814       0.30822179       0.37825915       0.25403296
C        6.20294754       4.94480390       7.33431674      -2.29583931       0.48838953       0.98840790
C        8.62332998       4.97625459       7.32165472       1.80731043      -0.12211814       0.55821735
C       11.09043316       4.96503951       7.27038513       2.10759060       2.08771237       1.34296509
C       -2.48618711       7.13612606       7.39565400       2.73321302       1.08338188       0.55270850
C        0.03277543       7.14689325       7.49392346      -1.66531252      -1.06869060      -0.67413605
C        2.44403429       7.03137537       7.56671441       2.04569952       3.38438449      -0.68264614
C        4.91804533       7.11738914       7.46859910       0.67358738      -2.27400191       0.85868726
C        7.42676017       7.06970224       7.63471209      -0.97885780       0.13544083      -2.20498758
C        9.90581405       7.08551760       7.43567055      -1.04465567       0.64966172       0.59016511
C       -3.73225394       9.25602675       7.61775978      -0.07609514       1.16886901      -0.22579994
C       -1.30164478       9.19958901       7.43581462       3.44847309       1.59938866      -0.40513927
C        1.22677429       9.24802100       7.31580383       0.19961891       0.21316811       1.19171968
C        3.66427339       9.19661835       7.52486720      -1.29409073      -0.93179247      -0.10217615
C        6.11320901       9.21329118       7.60905392       0.82608542       0.10134183      -0.22239862
C        8.58032541       9.21816720       7.62496587       0.07954402       0.23421593      -0.78355732
C       -5.01775466      11.43147871       7.72154293       1.92608280      -0.71109746      -0.36608241
C       -2.45290893      11.38121364       7.64333467      -0.99632999      -1.19136693      -0.12145249
C       -0.03242919      11.32696958       7.45369623      -0.79362653       1.37199593       0.13698478
C        2.41945289      11.32129608       7.39130671      -0.47993471       1.50014022       0.82663641
C        4.85580964      11.31256822       7.59088801       1.38034687       1.20624359       0.48121538
C        7.34883970      11.35849503       7.67254821      -1.26862935       0.02903470       0.02774297
72
Lattice="14.76 0.0 0.0 -7.38 12.782534959858314 0.0 0.0 0.0 15.0" Properties=species:S:1:pos:R:3:REF_forces:R:3 REF_energy=-11165.069274350772 config_type=fd_force_conv_snapshot_051 snapshot_index=51 split=validation degauss_Ry=0.00285013035 kgrid=8 lattice_temperature_K=450.0 trajectory_seed=2 p4_key=seed2:snapshot051 pbc="T T T"
C        0.01452349      -0.03173166       7.31171001       0.47960099       1.21187148       0.60326102
C        2.45923190      -0.00396225       7.33303023       1.35471991      -0.92385084       0.45244217
C        4.92296453      -0.04513391       7.53189984      -0.41377843      -0.40588592      -0.94177246
C        7.41185245       0.01943598       7.60019593      -1.27997049      -1.51493898      -0.35277258
C        9.85709097       0.06769683       7.55846413      -0.69319975      -1.94668710      -0.43581021
C       12.26874370       0.04301088       7.32385449       2.97617352      -1.51309241       0.15313310
C       -1.21140342       2.12142539       7.47280157       0.25552523       0.43797328      -0.57120168
C        1.26162599       2.17336917       7.34870513      -1.49804220      -2.62233882       0.47637554
C        3.73479395       2.09139843       7.46262265      -0.93797083      -0.37343139      -0.07588740
C        6.12095593       2.11394623       7.53941229       0.99094712      -2.76867367       0.51433196
C        8.56195335       2.17903322       7.69336242       0.33250560      -1.84322154      -0.52607290
C       11.07320359       2.14988414       7.54063270       0.50917124       0.87788003      -0.17430922
C       -2.39474934       4.25609452       7.63471415      -2.13803837       0.41530284      -0.19701232
C       -0.00841866       4.32534505       7.38536085       1.22251713      -3.31035188       0.58066694
C        2.43153271       4.17447930       7.44578153       1.42231473       5.21323510      -0.03982150
C        4.90303809       4.19909700       7.48537019      -0.70580150       3.16649995      -0.14763326
C        7.34510376       4.29052878       7.68252432      -1.10302974      -1.50557039       0.85773236
C        9.80379879       4.22938017       7.73374703       1.43133596       2.44662166       0.54985458
C       -3.63051776       6.34654943       7.52737107      -3.88998909       0.09231649       1.31599113
C       -1.26663936       6.40003544       7.48637531       4.14983326      -0.79955523      -0.55584216
C        1.28623858       6.40506452       7.52616554      -2.56563777      -0.99320070       0.46259057
C        3.68071723       6.38342417       7.50238703      -1.51110418       1.43920456       0.68973828
C        6.11546921       6.42045574       7.61154286      -0.43193813       0.11286114       0.24202540
C        8.55809169       6.37171274       7.72069047       2.74459195       0.74907342      -0.18991762
C       -4.90817686       8.45908658       7.40544112      -1.09114456       1.04363546      -0.24903191
C       -2.38968848       8.47986909       7.33728222      -3.73117077      -0.17807743       0.23241281
C        0.00816052       8.51207931       7.35121123       0.70745292      -0.37601175       0.22758274
C        2.44102966       8.56428122       7.65206604       3.06937036      -1.06900016       0.43775988
C        4.90176211       8.57733454       7.60313487      -0.78421783       0.06533610       0.90701115
C        7.39404622       8.57813255       7.51950284      -0.80628330      -1.85917215       0.00360829
C       -6.15932923      10.67981236       7.29336553       1.87700327      -1.41455951      -0.11407471
C       -3.67939601      10.58219722       7.29606548      -1.05606340       0.29784662       0.05586082
C       -1.23746619      10.64729656       7.46271976       0.74001337      -0.36383655      -1.22518054
C        1.22695315      10.69483423       7.49227131       2.10250701      -2.83332277       0.72834776
C        3.67433243      10.72483956       7.58152214       0.68502184      -0.84040826       0.34356726
C        6.11409854      10.67365279       7.41850955       1.99747282      -0.48941026       0.53774623
C        1.25262513       0.67713026       7.37923789      -1.11819642       2.36894503      -0.81732053
C        3.70034270       0.66567865       7.45838399       0.41831720       1.29135507      -0.14961943
C        6.14954458       0.66310507       7.53125569       0.06055411       1.16609144       0.61437590
C        8.60840050       0.71563952       7.64108255       0.58625677       2.55070300      -0.06357001
C       11.07346182       0.75107744       7.31983239      -0.57036118       0.50831918       1.91257114
C       13.57892203       0.72411574       7.36230181      -2.46705036      -1.20508428      -0.17109586
C       -0.02256979       2.85402729       7.34570876       2.30031483       1.00250578       0.55232567
C        2.50945083       2.83100156       7.42822123      -0.71136768      -2.56770313      -0.37076336
C        4.95321351       2.78983597       7.50652248      -2.86014581       1.28284987      -0.29918385
C        7.28176392       2.82166149       7.67630882       3.91998436       2.37936263      -0.23573211
C        9.82859248       2.86212993       7.64936595      -0.73158092      -1.69175323       0.31350104
C       12.33956354       2.84822560       7.62260105      -1.12878756      -0.74366408      -0.75944911
C       -1.19281659       4.99539600       7.44976572      -2.59429091       0.50903266       0.95139944
C        1.22873858       4.93069968       7.55081211       0.93411649       1.67216476      -1.44211222
C        3.65040856       4.99589517       7.35293676       0.95106829      -3.45588455       1.53921688
C        6.08806923       4.98551222       7.64368854       1.11641619      -0.24291551      -0.71055495
C        8.58581949       4.96021091       7.81991341      -0.79253098      -0.29821223      -1.03411672
C       11.06342108       4.94558856       7.71288944       1.64839234      -0.42957349      -0.88921911
C       -2.45274468       7.05797318       7.47515704       0.52692831       1.83684623      -0.58837536
C        0.02737319       7.10537563       7.43202027      -1.18310366      -0.66038733       0.15879313
C        2.44134564       7.14893081       7.65997802       2.11220907      -1.45313249      -1.17797842
C        4.85693509       7.12818269       7.58833654       2.32377049       0.50731336      -0.26559059
C        7.38268558       7.11279846       7.63405640      -1.58681057       0.86325586      -0.02183047
C        9.84876497       7.06890722       7.59177192      -0.39232026      -0.87472503      -0.44854669
C       -3.67809676       9.14335081       7.32809429       0.97364849       1.32584797      -0.19571083
C       -1.23722238       9.22464308       7.28787193       2.16844270       0.60706728       0.94889185
C        1.26766082       9.15781653       7.46969692      -3.71653862       5.43818143      -0.14021383
C        3.67411302       9.35066906       7.71437684       0.37924209      -3.51090410      -1.05542756
C        6.15031814       9.27635347       7.57730907      -0.60316512      -0.93175056      -0.74650026
C        8.59609677       9.24565990       7.32576695       1.70626042      -0.43115883       0.94583712
C       -4.88442484      11.36832760       7.26505042      -1.43617040      -1.37569163       0.23524000
C       -2.49047756      11.30559535       7.40920354       1.83769753       0.79183884       0.57418724
C        0.04238099      11.37217219       7.49640422      -2.64885126       0.23232000       0.31124284
C        2.46645769      11.40242455       7.63097243      -1.39753161       1.66465714      -1.17909711
C        4.91442161      11.35636395       7.42814775      -0.79538979       3.34463909      -0.24181585
C        7.39193391      11.34468785       7.36314301      -1.64012496       0.90418422      -0.62945645
72
Lattice="14.76 0.0 0.0 -7.38 12.782534959858314 0.0 0.0 0.0 15.0" Properties=species:S:1:pos:R:3:REF_forces:R:3 REF_energy=-11165.584472923776 config_type=fd_force_conv_snapshot_057 snapshot_index=57 split=validation degauss_Ry=0.00285013035 kgrid=8 lattice_temperature_K=450.0 trajectory_seed=2 p4_key=seed2:snapshot057 pbc="T T T"
C       -0.02079437      -0.05862384       7.69311721       0.66698170       1.38160542       0.02628053
C        2.44388747       0.05891369       7.65689346       0.57584483      -2.02001188      -0.43384923
C        4.90469385      -0.00036800       7.50133332       0.86732026       2.56423574       1.18866419
C        7.36022199      -0.05872479       7.48241955       0.68634185       0.87821582      -0.15878362
C        9.86522124      -0.00685959       7.51858639      -1.91851836      -1.11813394      -0.22129459
C       12.28001921      -0.08854482       7.64365187       0.06421639       3.29728837       0.68802052
C       -1.22316221       2.09803868       7.75501983      -1.88672538      -0.15210981      -0.22027489
C        1.19861888       2.16414170       7.58319485       0.70888477      -2.95221778       0.69969873
C        3.71162359       2.14384459       7.55058355      -1.57864886       0.97724212       0.53965321
C        6.13709166       2.13813680       7.50816003       0.50873595      -2.15931502      -0.76412672
C        8.61337873       2.08664869       7.39788981      -0.87783453      -0.63432483      -0.45437461
C       11.08804537       2.10930293       7.52062153      -1.22118761      -0.13889665      -0.14980044
C       -2.45956375       4.26142191       7.46669865      -0.96832656      -2.04250004       0.22586653
C       -0.04877667       4.24847300       7.73690650       0.84846790      -1.23536133      -1.13407195
C        2.45742737       4.25934809       7.59812355      -0.32013654       0.69370394      -0.72033569
C        4.90732740       4.28211234       7.38049178       0.96267116      -1.17681294       0.96477252
C        7.37639239       4.25213719       7.41774173      -0.50753114      -0.66237505      -1.28878089
C        9.85582702       4.29319530       7.34691876      -1.48751276      -3.12311772      -0.38439921
C       -3.60449188       6.39556147       7.43122857      -4.84013513      -0.92120467      -0.39332762
C       -1.22104374       6.41929319       7.55759116      -0.17672220      -1.77210714      -0.02849656
C        1.17589060       6.36219388       7.59242116       2.33857336       0.34498008       0.01723153
C        3.71082112       6.38145542       7.33397389      -0.55527498       2.08834820       0.58511675
C        6.16545488       6.42064857       7.21277687      -0.25539436      -0.12786456       0.86534771
C        8.60445336       6.37855307       7.31525976       2.65464319       1.35389047       0.39373951
C       -4.86694443       8.60524544       7.49184628      -1.02051198      -2.75490644      -0.60884700
C       -2.44745827       8.58547599       7.60861932      -1.24860714      -2.53391550      -0.55985154
C        0.02176661       8.48924432       7.47528712       0.83227895       2.81161701       1.58139685
C        2.46083623       8.51983893       7.43540749       1.03354593      -1.28275062      -0.26646245
C        4.89168397       8.60804109       7.25904440       1.89513931      -2.78271215      -0.04955621
C        7.38149276       8.58844204       7.37785140       0.40327830      -2.97578503      -0.53145499
C       -6.19915453      10.63613078       7.51237605       3.05895456       0.97128410       0.01043251
C       -3.69493863      10.74425163       7.63345461       0.64261870      -1.00660360      -0.64206308
C       -1.21297103      10.59801918       7.62417021       0.35385527       2.88436046      -0.60128976
C        1.26820364      10.67025916       7.47392922       0.47115825      -1.15121530      -0.00430814
C        3.70469225      10.63738128       7.41861352      -1.64950126       0.40880206      -0.03580518
C        6.09193265      10.67998334       7.49668760       2.73495417      -2.24823817       0.36972952
C        1.21441614       0.68565302       7.62610397      -1.27146785       1.93187395       0.27103567
C        3.68274608       0.76146397       7.68402327       0.49248067      -1.48594593      -1.53601919
C        6.16136525       0.66869562       7.46061958      -1.45619081       1.84503468       0.39934271
C        8.58599719       0.62151965       7.48121005       1.41661845       2.90468786      -0.23907069
C       11.05939456       0.66537684       7.60037071       1.76258738       1.45135997      -0.27695486
C       13.51241698       0.67328925       7.76915495      -0.22694253      -1.03383595      -0.77774842
C       -0.01525091       2.79730886       7.74378341      -0.56138212       2.26489069      -0.30038481
C        2.41997250       2.84893121       7.51821178       2.04264556       0.20065018       0.71481296
C        4.93427941       2.85681472       7.54496838      -0.89478375       0.30421344      -0.79529980
C        7.35381581       2.78877006       7.34387846       1.66268433       2.02721688       1.39815536
C        9.83430489       2.81455500       7.33577618       0.70055054       0.52622074       1.02078092
C       12.28761509       2.83838119       7.59744690       1.29335668      -0.88268697       0.07457665
C       -1.26224844       4.93079308       7.53337707       1.63865480       3.17293516       0.98302067
C        1.19070404       4.94067274       7.62724677       0.31763794       0.45801657       0.57387665
C        3.71981249       4.99331527       7.47039062      -1.99455642      -0.85361859      -0.44990449
C        6.12449059       4.97431408       7.35149917       1.52826269       0.91818336      -0.51505007
C        8.60683558       4.96179324       7.32579952       0.06475298       0.19112630       0.31586388
C       11.07367370       4.92432297       7.37621462       1.14676317       3.37629811       0.15001127
C       -2.44791701       7.09558823       7.50483475       1.56373029       2.70184916       0.49944784
C        0.00973946       7.13530264       7.62631992      -0.94201672      -2.66644327      -0.89335370
C        2.42830486       7.05884400       7.48311675       1.08864699       0.95169332      -0.58828306
C        4.94375263       7.18139839       7.22017522      -1.03383904      -2.00854270       0.17356489
C        7.42723298       7.09124178       7.29868887      -2.44476558       2.46622632      -0.20658557
C        9.87394212       7.15152165       7.40593533       0.72348580      -1.25325338       0.02428227
C       -3.67371249       9.32841356       7.56817068       1.09932272      -0.78197969       0.52499998
C       -1.21084234       9.19404761       7.60574425       0.44058038       1.23071843      -0.35580648
C        1.28430311       9.23309420       7.51316577      -2.38297966       0.20143385      -0.70102130
C        3.69303448       9.26032125       7.30655060      -1.80446370      -1.00508896       0.60150676
C        6.12433743       9.27455718       7.36367931       0.96934137       0.11113825      -0.12687520
C        8.64225507       9.23938259       7.42162563      -1.50422313       0.86381636       0.46384938
C       -4.92959708      11.39237463       7.55263106      -1.28637870       0.88999276       0.82798778
C       -2.43671318      11.43062560       7.60432524      -0.22355768      -4.02419040       0.17503170
C        0.03685515      11.33438055       7.52113435      -1.85327687      -1.39212741       0.22875645
C        2.50364409      11.36918520       7.43075482      -0.93942376      -0.51285435       0.53667253
C        4.89069020      11.31229448       7.57140701       0.28033303       1.54624113      -0.49799517
C        7.35864485      11.30996175       7.60277401      -1.20808321       1.68165676      -0.20162000
72
Lattice="14.76 0.0 0.0 -7.38 12.782534959858314 0.0 0.0 0.0 15.0" Properties=species:S:1:pos:R:3:REF_forces:R:3 REF_energy=-11165.003849204202 config_type=fd_force_conv_snapshot_063 snapshot_index=63 split=validation degauss_Ry=0.00285013035 kgrid=8 lattice_temperature_K=450.0 trajectory_seed=2 p4_key=seed2:snapshot063 pbc="T T T"
C       -0.04263039      -0.01954967       7.39129868       1.75218289      -1.01945552      -0.40883189
C        2.46418768       0.01671786       7.46728862      -4.27873835      -2.55409686      -1.36053241
C        4.85472454      -0.02776380       7.58941477       0.75422077       2.96291434      -0.73321640
C        7.33827953      -0.00166682       7.37011457       2.07275909      -0.31619632       0.34664256
C        9.82441839      -0.01617412       7.45513236       1.61935893       0.45697759       0.32991059
C       12.35979202      -0.07746760       7.55570818      -2.89388459       1.16105311      -0.46857738
C       -1.21885558       2.04298977       7.40703643       0.31341259       1.92638799       0.05656607
C        1.19774670       2.11163567       7.32832346       0.33475043      -0.61165182       0.13976183
C        3.66566203       2.11444211       7.51845403      -0.69038259       0.59398577      -1.09999892
C        6.12548034       2.11570844       7.44527615       0.22372454       0.45608516       0.19350637
C        8.58182432       2.14471033       7.34392279       1.25563808      -0.48158073       0.65967771
C       11.08777086       2.11612380       7.43555855       2.24456792      -1.53974061      -0.44845824
C       -2.37912729       4.25942408       7.39441905      -1.63865378      -0.70593597      -0.42052141
C       -0.02133722       4.25210028       7.50820495       1.20176241      -0.69061039       0.04093428
C        2.46799591       4.24236776       7.45245568      -0.84294440      -0.65351349       0.28944682
C        4.96015207       4.29488965       7.43062938      -1.81284679      -2.35370739       0.09719490
C        7.40025334       4.25903623       7.50692059      -0.21261532       2.77063954      -0.00334912
C        9.92133704       4.25449598       7.46883377      -0.71514874       0.66317621      -0.43709011
C       -3.59929084       6.41384804       7.55620417      -1.90490154      -0.51122504      -1.10523909
C       -1.18181197       6.43600952       7.48229363      -0.09728720      -1.78499557      -1.30638729
C        1.23379602       6.36798424       7.55164454       0.09895662       1.39612444      -0.60341580
C        3.66224810       6.37440281       7.50324569       1.95211059       0.29402004       0.92549558
C        6.15737285       6.43376118       7.59391946       0.37477942       0.68504370       0.41758161
C        8.63908490       6.40087834       7.71591446       1.42652568       0.54136248      -0.95269862
C       -4.93303384       8.54651341       7.57727070       0.71974331      -2.00066150       0.53644293
C       -2.41138319       8.61737951       7.42174700      -1.53064610      -3.80380392       0.25626082
C       -0.02764115       8.55741899       7.48750430       3.98311368      -0.75065671      -0.49316458
C        2.50861220       8.51108168       7.62486435      -1.82759798       0.29120623      -0.13607743
C        4.89431042       8.54054792       7.73456679      -1.24184745      -1.01591588      -0.01870940
C        7.33118359       8.57245193       7.81532423       2.28732871      -1.59241377      -1.46033132
C       -6.24337564      10.69815549       7.49186892       3.05100137      -2.61155201       0.39505077
C       -3.73711580      10.63889015       7.49075280       0.55164484      -0.03016341       0.58884047
C       -1.24399948      10.73353967       7.33161720       0.51214498      -1.64202012       1.33142752
C        1.23162628      10.61610685       7.53681071       0.40426535       1.42336065      -0.29242596
C        3.64295457      10.69219737       7.46640663       1.87364155      -3.20120238       1.97408427
C        6.07164217      10.64681647       7.67229048       1.10620479      -1.66464994      -0.43720144
C        1.21028705       0.69286863       7.24249447      -0.47010873      -0.54530553       1.73619526
C        3.59126641       0.70796929       7.55407940       5.23763384       0.73809096       0.44377935
C        6.13791295       0.69994428       7.46404124      -1.95521005      -0.51657833       0.12692328
C        8.59059298       0.70781768       7.35087068       0.18547733       0.53271072       0.28776327
C       11.16002965       0.65486765       7.54505393      -3.89956131       1.34942910      -0.94650715
C       13.51417777       0.63821592       7.42740865       1.45395935       1.35701874       0.23358986
C       -0.01026654       2.80773248       7.47049995      -0.50841611       0.33164454      -0.88758209
C        2.42157848       2.79132597       7.37025476       1.36614075       2.09515237       0.80781027
C        4.90730472       2.81554782       7.44010102       0.19557122       1.36372289       0.48112822
C        7.34708751       2.86830667       7.46775800       0.95507278      -1.11803675      -0.84716512
C        9.87734048       2.80796694       7.35801689      -1.41229231       1.18389762       0.58434696
C       12.37791014       2.80267032       7.35232124      -2.56561437       0.96970981       0.85632596
C       -1.20688158       4.98965148       7.44806253       0.78938138       0.41154877       0.41602197
C        1.21588747       4.96407624       7.55642068       1.03170348      -0.95191186      -0.67322048
C        3.71395851       4.93517458       7.48558286      -1.30479834       1.37727389      -0.47070163
C        6.12053468       5.04094426       7.46070731       3.42804439      -1.94477035       0.48776141
C        8.69523532       5.00602757       7.57541521      -2.07583850      -2.56582700      -0.15543938
C       11.14490135       4.99219486       7.40991458      -0.03242161      -1.14953431       1.03982765
C       -2.39474546       7.09961005       7.38141346      -0.26642105       3.62753474       1.39235649
C        0.03743748       7.12039352       7.42532113      -0.86000675       0.67513672       1.34103007
C        2.45643810       7.09435329       7.53362653       0.47777447      -0.58846149       0.49679472
C        4.91802086       7.12657630       7.66211278      -1.08288926      -0.90157789      -0.70797100
C        7.42570797       7.13397657       7.70916144      -2.14568380       0.16304136       0.54838082
C        9.88971804       7.09608940       7.62081006      -0.35792970       0.96310156       0.35725633
C       -3.70348369       9.21435294       7.58716128       1.41088335       1.79895640      -1.63461766
C       -1.18719050       9.29810621       7.37484975      -1.97789567       0.72838864       0.08818807
C        1.28573820       9.23810565       7.58812976      -2.55033739      -1.45923397      -0.46890134
C        3.67830423       9.25973779       7.67913130       0.23515798       0.02043127      -1.03748435
C        6.07140845       9.22132558       7.76170206       2.77152091       1.56763554       0.19804693
C        8.61712898       9.25060974       7.60768073      -2.88690713       1.20741267       0.64886776
C       -4.94474783      11.33879429       7.44952740      -1.31900395       1.75861322       0.34321399
C       -2.50902069      11.39680731       7.50285440       0.49714182      -2.03850043      -0.73653107
C        0.01742795      11.35455280       7.40660991      -1.24758127       0.92888532      -0.03346162
C        2.45674920      11.33422734       7.52981035      -2.21687919       2.34795378      -0.72314385
C        4.88572276      11.32302551       7.54834487      -0.11984580       0.76007929       0.04826989
C        7.28767513      11.33716826       7.52951128       0.79383504       1.43577985      -0.03374959
72
Lattice="14.76 0.0 0.0 -7.38 12.782534959858314 0.0 0.0 0.0 15.0" Properties=species:S:1:pos:R:3:REF_forces:R:3 REF_energy=-11165.634609354322 config_type=fd_force_conv_snapshot_069 snapshot_index=69 split=validation degauss_Ry=0.00285013035 kgrid=8 lattice_temperature_K=450.0 trajectory_seed=2 p4_key=seed2:snapshot069 pbc="T T T"
C        0.02906638       0.04829287       7.50906953       1.17081533      -1.15995371       0.18993125
C        2.45526179       0.06444998       7.52512619       0.97469518      -3.49733176       1.39202045
C        4.93539165      -0.04052687       7.76198943      -0.91185176       0.60487516      -0.61008473
C        7.33026918      -0.00581040       7.62762577       1.59495479      -0.99248799      -0.25656447
C        9.81784474      -0.01534737       7.57051233       0.44963504       0.42238083       0.55172249
C       12.33370536       0.01845690       7.65916053      -2.43836996      -1.37592020      -0.45191226
C       -1.20637308       2.08753000       7.48741692       0.10879983       0.60557604      -0.66357113
C        1.21680884       2.12982038       7.51481167       0.89263740       1.77267124      -0.58979538
C        3.69017800       2.09917000       7.50571066      -0.93782299       0.36222884       1.05459504
C        6.10505400       2.13218379       7.63700153       0.47521365       0.28920514       0.21209518
C        8.55560989       2.15212533       7.65145243       1.25270214      -1.75723125      -0.05944982
C       11.08562283       2.15048169       7.49245457      -0.02513099      -1.18773190       0.72829917
C       -2.40222465       4.25192616       7.40747445      -1.09888615      -0.15377022      -0.81847444
C       -0.03088217       4.24317315       7.48948232       1.95670309       1.19791347      -0.94938164
C        2.41986204       4.27173961       7.39102679      -0.47561500      -1.92928794      -0.09052006
C        4.83969996       4.30799048       7.47500086       0.81584909      -3.44505841      -0.30212468
C        7.34184661       4.27599798       7.59380983      -1.61806747       0.94999768      -0.32379522
C        9.79212484       4.22970681       7.52091995       1.72132580       1.48860754       0.32841241
C       -3.64895024       6.29604318       7.37505058      -1.23458512       2.49163345      -0.21819256
C       -1.22601260       6.35005529       7.34455949       3.01123360       1.61609852       0.63325268
C        1.26073449       6.36692106       7.47316006      -1.31101990       1.61769003       0.09679843
C        3.67118254       6.41176009       7.29785125       0.03176135       0.11246314      -0.03203929
C        6.09055645       6.43772594       7.45060244       1.36295078      -1.43343192      -0.49365721
C        8.58928515       6.44812967       7.43804337       0.92269668      -2.24415346       0.26545252
C       -4.87188172       8.49494265       7.32997724      -1.01836948      -0.72285126       0.46976832
C       -2.44921436       8.46088793       7.42539649       0.33615734       0.44366982      -0.55321964
C        0.01915584       8.49908782       7.56700129       0.86883309      -0.83082139       0.36993367
C        2.43278033       8.54952445       7.40102218       1.59897343       0.26042190       0.41945800
C        4.98205286       8.59027029       7.30785807      -3.09437896      -0.01272799       0.22135116
C        7.34533025       8.55341429       7.36991541       1.85536306      -0.01873717       0.34740283
C       -6.13856252      10.64465811       7.59561894       2.25678323      -0.23974714      -1.02866469
C       -3.70150776      10.62478332       7.65620736       1.12037671       1.51632069      -0.98526164
C       -1.22585425      10.59123670       7.54411624      -0.05066513       0.94735484       0.32032629
C        1.26818588      10.63373145       7.58473266      -2.56963223       1.51135872       0.17385362
C        3.74116488      10.69995498       7.54714161      -2.04080388      -2.86781155      -0.84709467
C        6.21182198      10.73212156       7.52404815      -1.16464160       0.79819461       0.30237407
C        1.26469887       0.75672014       7.46369725      -2.12707724      -0.72271010       0.36433252
C        3.68077561       0.67212159       7.71649669       1.36332385       1.82300162      -1.42648814
C        6.13853817       0.70742673       7.67186722      -1.12165712       0.19302686       0.33124319
C        8.57375855       0.69643530       7.60027795       0.19244270       0.72489040       0.21310820
C       11.07580111       0.70065083       7.62237966      -0.21573098       1.33599225      -0.62659250
C       13.53320880       0.65289448       7.52509013       1.39914857       3.24048318       0.29652841
C       -0.00219061       2.84792217       7.48382552      -0.34275839      -1.32839362       0.37487327
C        2.43842421       2.82586865       7.44712232       0.62353314       0.51072805       0.19001738
C        4.88321555       2.83514101       7.57183755       0.22729323       0.91765474      -0.40666136
C        7.33687105       2.85929284       7.65309231      -0.15846454       0.11715617      -0.14191538
C        9.81825995       2.82707045       7.61584184       0.06604933       0.12893774      -0.87819962
C       12.37522011       2.83462864       7.38426811      -2.51890822      -0.42213169       1.11166736
C       -1.19417547       4.98582785       7.31186530      -1.32202576      -2.43723585       1.17257397
C        1.20600701       4.98697985       7.44893370       0.33767301      -1.99957238       0.04603252
C        3.63006552       4.92521662       7.30231593       0.17885159       4.24204511       0.66718430
C        6.02355265       5.00373345       7.47824800       3.96554790       0.36406718       0.73225764
C        8.58232176       4.98540764       7.54367090      -0.44546291       0.31503136      -0.24229279
C       11.09680229       4.93925592       7.44533494      -1.03402467      -2.65187180      -0.10657737
C       -2.42255497       7.00057360       7.31108206      -1.85313829       3.22087312       0.62630428
C        0.03480700       7.06496275       7.55453239      -1.16659024       0.71170167      -1.21923872
C        2.44449225       7.13733314       7.37135043       0.98465615      -1.18554852      -0.08599106
C        4.92157234       7.15970405       7.33295418      -1.13459363      -0.17573644      -0.16205920
C        7.34854113       7.12414055       7.42302123      -0.45693003       0.79394329      -0.19568178
C        9.87810741       7.05866894       7.38825942      -0.39821349       0.62586924      -0.48200934
C       -3.69389096       9.23998739       7.41187600       1.87758279      -1.65575161       0.75244774
C       -1.18617623       9.17127661       7.48773185      -2.59309792       0.12657207       0.25152048
C        1.23288952       9.25996058       7.63437487       0.20767674      -2.09977316      -1.29266068
C        3.70054032       9.24924793       7.31569687       0.46573451       1.10998174       1.23393797
C        6.15370413       9.36083048       7.41789129       1.56581957      -3.02288352      -0.41010767
C        8.65302313       9.17253096       7.38769565      -1.95499717       2.46403163       0.77525959
C       -4.89562527      11.38854116       7.63647142      -1.49218497      -0.66816929      -0.41757672
C       -2.44258535      11.33635768       7.65000938      -0.48907293      -1.12849369       0.32011777
C       -0.03302378      11.33743742       7.57921148       1.72758309       0.24666495       0.16930509
C        2.46865884      11.33234608       7.56753221       0.79740862       1.95298374       0.14205294
C        4.93112073      11.38333029       7.61865368       2.10981563       0.95531241      -0.23823482
C        7.46611119      11.43468567       7.57314168      -2.05383166      -1.76228270      -0.24172046
72
Lattice="14.76 0.0 0.0 -7.38 12.782534959858314 0.0 0.0 0.0 15.0" Properties=species:S:1:pos:R:3:REF_forces:R:3 REF_energy=-11164.91770177248 config_type=fd_force_conv_snapshot_075 snapshot_index=75 split=validation degauss_Ry=0.00285013035 kgrid=8 lattice_temperature_K=450.0 trajectory_seed=2 p4_key=seed2:snapshot075 pbc="T T T"
C       -0.03411871      -0.02172114       7.57276579       0.59027978       0.90113463      -0.92804483
C        2.49132819       0.10779300       7.42152918      -1.41671358      -3.21376839       0.44864130
C        4.97398006       0.04785096       7.35764460      -0.65424368       1.47058590       0.64108632
C        7.41255172      -0.04857643       7.43481027       0.26938502       2.21691082      -0.01832348
C        9.79216333       0.00881689       7.53002037       2.78327702      -0.90803393      -0.46683032
C       12.31932385      -0.03956376       7.64944412      -0.82113527       0.96804759      -0.03413962
C       -1.20890701       2.16770177       7.65224907      -0.81072591      -2.64479663      -0.90424747
C        1.21731384       2.12794490       7.51643987      -1.07919536       0.95996765       0.68961872
C        3.65264719       2.15186527       7.46646549       1.11877800       0.85775010      -0.32235232
C        6.17281356       2.11940622       7.27048826      -0.32793084       0.20361954       0.86464991
C        8.64561352       2.16670473       7.26162922       0.59360164      -0.76940853       0.94726537
C       11.10546429       2.12011564       7.50910992      -0.69310154      -0.07855877      -0.50017470
C       -2.44617406       4.22726656       7.48339489      -0.07115708       2.48759090       0.67529433
C       -0.01383822       4.26466210       7.67566661      -0.64795579       0.90954600      -0.29964742
C        2.40555114       4.27025688       7.67897718       2.62658705      -0.74503962      -0.94277905
C        4.92948147       4.18331898       7.41560409       0.04933870       2.76677028       1.15701751
C        7.38132834       4.20684977       7.28535929       0.65481601       1.85580066       1.76202276
C        9.88464784       4.32132378       7.38350786      -0.56332999      -0.54928019       0.10180309
C       -3.66602588       6.47156428       7.51699389      -1.06053994      -2.39234567       0.17814274
C       -1.25439967       6.40890289       7.43367776       0.51045602      -2.44871042       1.17411611
C        1.20518168       6.38910159       7.52793803      -1.10206095      -1.17024557       0.10718698
C        3.68535923       6.35364887       7.41733262       0.56952506      -1.61078122       1.09273067
C        6.16473581       6.38926846       7.62866971       0.04831489      -2.98015282      -0.20152049
C        8.55494656       6.42598958       7.65705800       3.09063724      -3.16652335      -1.06267010
C       -4.93961103       8.58568247       7.58772702      -0.10729933      -0.55375211      -0.54799979
C       -2.44682805       8.50097488       7.41617508      -1.52591270       2.89239104      -0.10055610
C       -0.07966317       8.55857912       7.48780412       2.65117400      -4.44354709      -0.08635256
C        2.45331455       8.45620305       7.38724216      -0.52366584       1.08549764       1.38963266
C        4.95170528       8.42552710       7.47259594      -0.89164289       2.32433356       1.16071707
C        7.44628438       8.56414266       7.72487341      -3.07789459      -1.58707950      -0.81931982
C       -6.15093367      10.77187060       7.55267499      -1.04165339      -2.10516193      -0.13798134
C       -3.62190705      10.69572478       7.33606809      -3.69096977       0.96796686       1.39795147
C       -1.21866869      10.63272124       7.45358775      -1.09116821       2.70045845      -0.30157317
C        1.19144104      10.59583171       7.43558584       2.72948029      -1.16543915       0.39703618
C        3.68282876      10.63693035       7.63269893      -1.02145738      -1.67582421      -0.55529735
C        6.11796931      10.58536151       7.55871187      -0.68413096       1.04872238       1.19099463
C        1.19729858       0.72759932       7.46036135       1.11058801      -0.32773826       0.45453581
C        3.72187112       0.76132216       7.39721348      -0.19828810      -0.02331759      -0.17563514
C        6.23155289       0.73810134       7.39742702      -1.72741237      -2.28560607      -0.63722966
C        8.61248063       0.76695591       7.45073497       0.08647083      -2.47601220      -0.64396133
C       11.09609912       0.68847267       7.55729730      -1.51947183      -0.08665646       0.29157750
C       13.53942360       0.68664699       7.57732549      -0.75641958       1.88743655       0.92984949
C       -0.01005513       2.86306752       7.62898492       0.68781715      -0.59879064       0.09710182
C        2.41757761       2.86882263       7.58050761       0.65651628      -1.42785263      -0.16353296
C        4.90667150       2.82183528       7.37841906       0.73565355      -1.58676711      -0.23719866
C        7.39917329       2.79060441       7.25589611      -0.10864685       2.14907072      -0.68554069
C        9.90046220       2.87497444       7.33977580      -0.78159916      -0.14307032       0.18403571
C       12.32026380       2.83293787       7.54922916      -0.07515335      -0.09898079       0.28881510
C       -1.25131994       4.98860081       7.57919925       0.75086394      -1.17027000      -0.61237892
C        1.20900723       4.95874034       7.66925682      -0.70567037       1.77440982      -0.25686940
C        3.69980311       4.89757293       7.52518895      -1.22429736       2.10418543      -0.09729106
C        6.17155347       4.90572042       7.55674835      -0.33376750       1.17901021      -1.76632910
C        8.60060101       4.98308680       7.42523061       0.32037025      -0.10192419       0.04890547
C       11.12512011       5.02171160       7.48232612      -1.36121760      -0.22298638      -0.41145544
C       -2.42155418       7.12794053       7.49406479      -2.46731055       0.62263325      -0.61066297
C       -0.06320163       7.06309895       7.47526219       2.34592749       2.89199663      -0.00956090
C        2.43541042       7.04910941       7.44256507       1.11568497       0.36436054      -0.39134607
C        4.94824012       7.04722161       7.51433458      -1.72160399      -0.62587053      -0.47165730
C        7.37429265       7.08274201       7.69001260      -0.26491361       3.12870422       0.38950619
C        9.81163758       7.10601973       7.59631036       0.77475977       2.35738150       0.25409647
C       -3.72140120       9.27926640       7.37466040       2.37143129      -1.36262528       0.77427718
C       -1.23889150       9.25017103       7.43976057      -2.36732909      -0.02747172       0.00438527
C        1.16729647       9.15349435       7.50895617       2.30966645       1.93376397      -1.03893342
C        3.70562540       9.15717939       7.52950318      -0.64370010       1.05462512      -0.83911603
C        6.15860024       9.16461728       7.60680357       0.54730276       0.86827851      -0.20188713
C        8.59530466       9.34220349       7.63773764       1.85590608      -1.09648011       0.10028922
C       -4.90964089      11.43365002       7.50793630       1.35433476       0.69002521      -1.39419072
C       -2.44904726      11.46427464       7.41283078       1.88536784      -3.85176142      -0.58430659
C        0.02333272      11.29711191       7.44894833      -1.66385162       2.00833496       0.04202314
C        2.43633552      11.32078587       7.45610641      -0.17579661       0.92463143       1.25085300
C        4.89309839      11.33675175       7.75044608       1.06063559      -0.80904106      -1.69770585
C        7.29007855      11.35866566       7.51011734       2.74538693      -0.02426916       0.67044009
72
Lattice="14.76 0.0 0.0 -7.38 12.782534959858314 0.0 0.0 0.0 15.0" Properties=species:S:1:pos:R:3:REF_forces:R:3 REF_energy=-11165.010715316637 config_type=fd_force_conv_snapshot_081 snapshot_index=81 split=validation degauss_Ry=0.00285013035 kgrid=8 lattice_temperature_K=450.0 trajectory_seed=2 p4_key=seed2:snapshot081 pbc="T T T"
C        0.01260638      -0.03506652       7.40502822       2.72444530      -0.71202125       0.51844650
C        2.48796310      -0.00085735       7.76533643      -0.72493616      -1.68100782      -1.90447216
C        4.90413570       0.03832890       7.54690110      -0.60275528      -3.33688053       1.12967305
C        7.34865726       0.05119813       7.52887308      -1.21177018      -3.09604581       0.26066692
C        9.85326419       0.08617287       7.22470402      -2.48298991      -2.34362507       2.00800791
C       12.25742259       0.05873685       7.27344322       3.29016872      -2.73823155       0.22014197
C       -1.19424167       2.12741724       7.37665448       1.12294448      -0.18679013      -0.10007736
C        1.26809166       2.13681171       7.44774654       0.00938915      -0.12021604       0.25959503
C        3.68463346       2.15171479       7.62254229       1.42630817       0.64179851      -0.47445415
C        6.16878381       2.11931977       7.55866138      -2.72923295       1.66738843       0.31469968
C        8.55428973       2.13632586       7.60935641       2.33195020       0.29651993      -0.38898605
C       11.14104245       2.17709646       7.47711225      -4.14146715      -0.23355335       0.39047292
C       -2.40823082       4.24493328       7.53649985      -1.28701325       1.88752448      -0.24736198
C        0.02805040       4.28872467       7.46972482      -0.96333168      -1.53339101      -0.09239002
C        2.40572157       4.28383953       7.62777576       3.35418302      -0.64613545       0.21485784
C        4.88690665       4.28294566       7.48441157       1.66827957      -0.03066298       0.96329645
C        7.38436195       4.25841900       7.60395848      -0.15931609       1.51044803      -0.28877757
C        9.80960008       4.26145647       7.63575795       2.23309797       0.41204242      -0.74893767
C       -3.69285311       6.37997649       7.45525208       2.37377871      -0.44159751      -0.53961310
C       -1.21094247       6.37015818       7.54254779      -0.23373102       0.60015744      -0.15432892
C        1.20537144       6.41076966       7.62143428       0.61055524       0.09470504       0.73841183
C        3.68559668       6.42826332       7.61584371      -1.04192927      -0.92405088       0.23419459
C        6.13090296       6.35453038       7.46162420       0.34095733       2.02685564       0.68870341
C        8.63397217       6.38568372       7.43761762      -0.03271240       0.53274826       0.90844557
C       -4.93968046       8.50603303       7.37865294       2.40593987       0.31212087       0.24916972
C       -2.38546426       8.47101549       7.45985889      -1.87710945       1.40642351       0.26562247
C       -0.01362717       8.52667876       7.76525874       0.55765068      -1.13512585      -0.72961249
C        2.45352665       8.54613079       7.67562993      -1.18205697       1.21902969      -1.31499071
C        4.92843361       8.49575215       7.31227319      -1.92541791       1.90994013       0.66511225
C        7.28690713       8.43745405       7.28247651       3.94226142       1.30360304       0.80499055
C       -6.14419932      10.54936226       7.44998661       1.31611917       2.25925226       0.08437281
C       -3.63572839      10.62710122       7.59108103      -2.86274545      -0.27402740      -0.59095649
C       -1.24900774      10.59472340       7.53639514      -0.74422561       2.36762374       0.92545624
C        1.16708925      10.70131458       7.45330181       0.00293440      -1.20826730       0.94594793
C        3.67438603      10.64019339       7.27669166      -0.62798603       0.53112204       0.79566130
C        6.17955027      10.64741068       7.35070978      -1.91523326      -0.98145667      -1.10099394
C        1.28104288       0.70995748       7.55074935      -1.83148034      -0.42385664      -0.13544906
C        3.69033893       0.73211207       7.66085099       0.13400050      -0.13343203       0.14030459
C        6.10493602       0.70369533       7.63905372       1.75820313       1.93550769      -1.19984926
C        8.55577679       0.73095416       7.46148351       2.10178607       0.43046798      -0.41426720
C       11.07508024       0.76910451       7.32886328      -0.12102774       0.62637318      -0.48302955
C       13.59966175       0.68282065       7.34118536      -3.35976000       1.40737199      -0.14600755
C        0.03993436       2.85551198       7.31143475      -0.46779782      -0.30563577       1.33995767
C        2.49620805       2.87399186       7.58541134      -2.32988252      -0.59903258      -0.17328284
C        4.91431325       2.89547927       7.49088923       0.55603114      -2.97009723       0.76972735
C        7.36125419       2.85188030       7.62749469       0.07974431      -0.18585271      -0.09306622
C        9.81268771       2.86024343       7.59731768       1.23726755      -1.12629822      -0.02528654
C       12.33828385       2.84772378       7.52275227       1.26819046      -0.21508615      -0.69970593
C       -1.19102259       4.98888385       7.51880933      -0.67978785      -1.85128941      -0.20318631
C        1.21171347       4.97361317       7.61018885       0.44706367       1.85979950      -0.50994669
C        3.68801124       4.94791042       7.68246053      -1.75467763       3.01454749      -1.20760319
C        6.15890710       4.98732086       7.53030660      -1.04588543      -1.81003709      -0.24357063
C        8.62817490       5.00132139       7.57255533      -1.51626952      -1.53582559       0.15871291
C       11.08221537       4.96625798       7.51280394       0.00126833      -1.03133710       0.70548577
C       -2.41206026       7.05664972       7.37459335      -1.59846666       0.82038811       1.31616185
C       -0.02399399       7.09096228       7.67878015       1.19590878       0.73387640      -0.08761985
C        2.43530952       7.16376538       7.63499877       0.42532114      -2.71539039       0.55268639
C        4.89059535       7.14279143       7.49523565       1.35562931      -3.32257285      -0.42676559
C        7.38029504       7.04801274       7.47131593      -1.06547929       0.23832969      -1.38970748
C        9.88564916       7.09393320       7.44497163      -2.13262234       0.52235432      -0.62097695
C       -3.62251491       9.24290345       7.43544409      -1.63306908      -3.07975427       0.14772222
C       -1.19056817       9.22498949       7.66848858      -2.09392467      -1.51326622      -0.97555881
C        1.15696988       9.24670385       7.64398570       3.39566674       1.38299742       0.07870532
C        3.68357148       9.20529581       7.42138594       0.00490181       1.38953651      -0.10044477
C        6.13856901       9.19546511       7.25182133      -0.68655705       1.36211132       0.36457960
C        8.56662871       9.16502533       7.34731505       0.16948583      -0.93310296      -0.04646138
C       -4.89078656      11.31409827       7.58376191      -0.83355730       0.53657997       0.78047919
C       -2.47492109      11.31041438       7.57897450       2.06609762       3.43749474      -0.33204383
C       -0.09754256      11.36716516       7.52933806       3.20308443       1.45588151      -0.65381868
C        2.42099281      11.39916379       7.36426838       0.98968008       0.37018229      -1.29516288
C        4.89911255      11.37767155       7.25638904       0.70687776       0.29564215       0.23020912
C        7.41988474      11.27725635       7.41319742      -0.91096679       2.57620732      -0.03191510
72
Lattice="14.76 0.0 0.0 -7.38 12.782534959858314 0.0 0.0 0.0 15.0" Properties=species:S:1:pos:R:3:REF_forces:R:3 REF_energy=-11165.612689360105 config_type=fd_force_conv_snapshot_087 snapshot_index=87 split=validation degauss_Ry=0.00285013035 kgrid=8 lattice_temperature_K=450.0 trajectory_seed=2 p4_key=seed2:snapshot087 pbc="T T T"
C       -0.00389360       0.00365014       7.58764294      -0.06175558       0.61164564      -0.72771501
C        2.47532836      -0.06399597       7.43304306      -0.62304772       2.71622368      -0.00580118
C        4.90055736       0.01696215       7.36902727       0.46567435      -2.34957923      -0.86254726
C        7.27779521       0.00070941       7.45663732       2.73259107      -0.07249457       0.39036211
C        9.78732047      -0.01687193       7.63196570      -0.48373635      -0.03071337       0.39004021
C       12.31121734       0.04008380       7.76478326      -0.86580433      -0.26006271      -1.10007734
C       -1.24312618       2.22712936       7.48851341      -0.13690790      -2.86645812       0.33486356
C        1.25061117       2.11012694       7.46123832       0.49202173       2.14902650      -0.44878554
C        3.72513976       2.09627771       7.46066030       0.31033138       1.97450695       0.26308839
C        6.17694522       2.10769834       7.52276718      -1.29545213       1.78225014      -0.77112809
C        8.56702232       2.10606443       7.49628195       0.91663247       0.74112434       1.37839412
C       11.04269244       2.09232241       7.64055752      -0.95488689       2.29225905       0.09783279
C       -2.47207200       4.32095291       7.54357646      -0.23592828      -1.75924006      -0.44750076
C        0.04259661       4.26571470       7.40658680      -1.45338060       0.08886350       0.32062505
C        2.46744795       4.25046937       7.56637525       2.65494478      -0.24798419      -0.85058469
C        5.02373867       4.28113537       7.52593884      -3.70446652      -1.17176664      -0.10734690
C        7.40834503       4.25012901       7.38302774      -1.11205200       0.91341448       0.64335532
C        9.80695231       4.24711338       7.37592564       1.64808407       0.07878709       1.72775690
C       -3.62498665       6.44168791       7.50837166      -3.64585539      -3.55486251      -0.63306422
C       -1.20455260       6.40813627       7.49926696       1.50491810      -0.03745866      -0.99616132
C        1.25744522       6.34543847       7.33961934       0.42548903       2.02195229      -0.00298891
C        3.71001122       6.36432160       7.43133887      -0.58142721      -0.07976025       0.11994530
C        6.20426551       6.42088560       7.44507077      -2.99982304       0.52270476       0.62374037
C        8.58564395       6.41287393       7.49586338      -0.49063282      -1.24852487      -0.68800741
C       -4.93150816       8.49157094       7.58338148       0.49800700       0.05175656      -0.84926828
C       -2.43705234       8.52223238       7.52577394       1.00420502      -0.18503561      -0.41862162
C        0.00482731       8.50427252       7.40196220       1.17055334       0.53880089       0.04837839
C        2.49969449       8.47466835       7.35175015      -0.91052353       2.84037582       0.68745616
C        4.89127538       8.48595946       7.59502723       0.99050438       1.30149165      -0.22885878
C        7.35707978       8.62526011       7.63973264       1.44895239      -3.10974953      -0.16991418
C       -6.17276826      10.67211053       7.42740737      -1.07993223      -0.48610588       1.83417023
C       -3.68106547      10.60726956       7.41573456      -0.45790139       0.88364213      -0.06689059
C       -1.26303328      10.66830472       7.39959260       1.96151491      -0.81942986       0.23666619
C        1.20621288      10.63341743       7.51148322       0.18976952      -0.38599329       0.41549850
C        3.71693359      10.64652238       7.60183187      -2.76608714       0.25566844       0.11128583
C        6.10217913      10.64565358       7.71538760      -0.50952348      -0.25381185      -0.20703603
C        1.24171687       0.73589579       7.43486732       0.36868822      -3.54549649       0.70019521
C        3.70959629       0.67650412       7.43841197      -2.01493344       0.59338798      -0.20510076
C        6.08955032       0.72712371       7.35248329       1.29542976      -0.58817790       1.10292304
C        8.52962254       0.69419385       7.57226446       0.72069899      -0.24058584      -0.53818383
C       11.01157949       0.70249068       7.73474322       1.75391685      -0.62789939      -0.38504147
C       13.56708837       0.76773757       7.57357452      -2.19875343      -0.19077200       1.00836815
C        0.01670773       2.84891400       7.44054928       0.08455073       0.81391999       0.03753296
C        2.51664457       2.85589545       7.46654351      -1.51248614      -2.12697646       0.50192305
C        4.97757083       2.84779910       7.50132734      -0.77721492      -0.80224486       0.18754115
C        7.37446039       2.85780821       7.53495122       0.38444086      -1.28483039      -1.02444448
C        9.79992169       2.82936773       7.61216984       0.40974977      -0.40691718      -1.79130120
C       12.23859639       2.86160135       7.54003865       1.85663087       0.79358642       0.22268607
C       -1.20744480       5.02152205       7.46477398      -0.00931022      -2.24607356       0.25285103
C        1.26703508       4.93654181       7.41799158      -0.50690970       1.18204102       0.19101600
C        3.74091297       4.93931003       7.56461553      -0.50741724       0.97958773      -0.59478795
C        6.17959882       4.99971689       7.40399684       2.37865815       0.22540450       0.25978555
C        8.61580451       4.96520168       7.37516468      -1.20061339       0.99111399       0.06699858
C       11.04272172       4.98247374       7.50686911       1.22854097       1.06303494      -0.37003445
C       -2.41457378       7.08904416       7.48948558      -0.23044566       2.21079879       0.66433552
C        0.05267059       7.10119495       7.35401642      -1.51105095      -1.12659878       0.68974856
C        2.48355045       7.11145077       7.32100466       0.15274281      -3.51519707       0.41407359
C        4.89383635       7.10333157       7.48105720       2.23726136      -1.39745242      -0.03030148
C        7.35156354       7.18881987       7.58232805       2.13444166      -1.19421751      -0.62855399
C        9.81764603       7.02496727       7.43957606       1.96528364       4.44783800       1.60281363
C       -3.66177452       9.20460770       7.56124425      -1.44704128      -0.34470394      -0.52606982
C       -1.20707584       9.25390470       7.45530741      -1.12580020      -1.11464058      -0.09669816
C        1.25177328       9.17035689       7.44015752      -0.50682974       2.05646678      -0.54872612
C        3.70646064       9.23188551       7.51389502      -0.38159105      -0.49212843      -0.04135285
C        6.12285801       9.21025897       7.68999877      -1.15089005       2.04077380      -0.23858783
C        8.62779324       9.27336539       7.55632071      -0.75080943      -0.85574386      -0.03208171
C       -4.94054317      11.32478043       7.44942648       1.18577761       0.43511756      -0.69231015
C       -2.45977634      11.34071716       7.26380966      -1.62683493       1.16678153       1.50009291
C       -0.03501097      11.38362607       7.53911229      -0.10001360      -1.36259880      -1.23286248
C        2.43065135      11.34266577       7.58918851       0.68952642      -0.08103989      -0.09494904
C        4.88677643      11.38311719       7.70398759       1.51727508       0.57138268       0.46299012
C        7.29627076      11.34666931       7.63160269       3.15026163       1.12759689      -0.83564915
72
Lattice="14.76 0.0 0.0 -7.38 12.782534959858314 0.0 0.0 0.0 15.0" Properties=species:S:1:pos:R:3:REF_forces:R:3 REF_energy=-11165.867678666724 config_type=fd_force_conv_snapshot_093 snapshot_index=93 split=validation degauss_Ry=0.00285013035 kgrid=8 lattice_temperature_K=450.0 trajectory_seed=2 p4_key=seed2:snapshot093 pbc="T T T"
C        0.00239796      -0.04983402       7.36443429       0.82847037       1.75999930       0.41613742
C        2.49724395       0.05797766       7.45420371      -0.17836565      -2.54485914       0.40381875
C        4.95064365       0.04799154       7.45192558       0.12518778       0.63316089       0.86060145
C        7.40492079       0.03083533       7.55810521      -1.05028459      -0.11607682      -0.27391068
C        9.86259565      -0.04632022       7.47953055      -0.28705544       1.64928992      -0.59251072
C       12.29107413      -0.10999379       7.27947730       0.12538319       3.07196794       0.14506884
C       -1.21780678       2.07549312       7.38943917       1.91291232       0.62273584      -0.07749151
C        1.21880333       2.08852947       7.48827765       1.02148566       0.71877529      -1.10048486
C        3.69639030       2.15910038       7.52231374       0.42702912       0.62004981      -1.08226577
C        6.19537994       2.16578649       7.41704262      -3.08986770      -0.04239903       0.00373556
C        8.61323588       2.13361553       7.53370680      -0.05859030      -0.11663681      -0.83485545
C       11.08108385       2.12143311       7.45383358       0.61674234      -0.24322636      -0.29506108
C       -2.49890166       4.24045073       7.60149490       2.28227675      -0.99843495      -0.69946347
C       -0.00105609       4.31107943       7.50855283      -0.96444214      -2.14810270      -0.09865323
C        2.41986329       4.34823546       7.40319787       0.80010673      -4.31980941       0.21607011
C        4.92749674       4.29077053       7.38117655      -1.31416102      -0.13260387      -0.80597219
C        7.39242459       4.27091026       7.27971858      -1.36624283      -0.23742235       0.85613390
C        9.78496050       4.22780203       7.48697088       1.39536134       1.13094241       0.18927227
C       -3.69487878       6.36020725       7.56924803      -2.75157018      -0.73387640       0.81596479
C       -1.25741214       6.42507820       7.66492868      -0.15657041      -0.41825138       0.07669395
C        1.20716681       6.41021914       7.71717398       0.18884778       0.51660045       0.06202606
C        3.69157511       6.41428188       7.49765653       0.26375379      -0.67291632       0.27534946
C        6.18284004       6.35135860       7.40213308      -0.09438623       3.13305144       0.16632338
C        8.61708402       6.41274034       7.50300694      -0.44987183      -1.00240036       0.17125938
C       -4.91793917       8.54928557       7.64395507       0.02640626      -0.08786694      -0.54168953
C       -2.50939763       8.50598451       7.66779791       1.45379249       2.26058101      -0.64652034
C        0.01622813       8.52645669       7.67925087      -1.88395733       1.38018797       0.72604431
C        2.44018336       8.45515545       7.62299286       0.38162473       2.43560500       0.33591180
C        4.89204237       8.50576208       7.42669582       3.35867860      -0.37224046       1.13250024
C        7.40844586       8.52097939       7.63702328       0.19713162       0.38550144      -1.42176940
C       -6.17128836      10.67070675       7.50747966       1.85507047      -0.84115671      -0.42666197
C       -3.67323071      10.67191611       7.54631077      -0.19234988       2.78184775      -0.36643645
C       -1.23896130      10.71765893       7.67938763       0.12774243      -1.43251661      -1.26332054
C        1.22124758      10.65883345       7.56791870      -0.25111682      -0.98903268       0.20920629
C        3.65827011      10.55287103       7.34680931       0.72710232       1.00719727      -0.13065164
C        6.16642825      10.63097225       7.34117369       0.01343941      -1.50956640       1.00338741
C        1.24594279       0.68024961       7.42320678      -0.73674807       0.22766913       0.24416430
C        3.74462993       0.75031753       7.56130148      -1.64597782      -0.03930625      -1.09050332
C        6.16156938       0.75525099       7.48719489       1.55714081      -0.04878900      -0.03969038
C        8.64073377       0.70598295       7.53062348      -0.22328540       0.03866451       0.24643021
C       11.06883645       0.70612590       7.38849864       0.74841728      -2.06756006      -0.01854871
C       13.53976538       0.65830314       7.33184788      -0.92774195      -1.03739127      -0.25022850
C        0.04778253       2.82337287       7.40553500      -2.82739535       1.35966312       0.72915766
C        2.43329891       2.79648225       7.40896411       0.83489736       3.33906288       0.88177628
C        4.92966671       2.89778667       7.36506988       0.16782670      -1.53413252       0.95571941
C        7.36550460       2.87135288       7.43288530       2.69537280      -0.61534880      -0.31336168
C        9.83550248       2.84134850       7.45504389       0.01655662      -1.28861145       0.60155432
C       12.36425885       2.78477254       7.45567574      -3.17018691       1.87637129       0.41393630
C       -1.26808673       5.00859093       7.59579090       0.65903339      -1.07041324       0.09865323
C        1.21152374       5.02643220       7.53000718      -0.62398900      -0.39765170       0.17113494
C        3.65789742       4.98974632       7.41030803       1.25973591       0.93838272       0.24033104
C        6.15031489       4.97149121       7.29248716       0.68721499      -0.00711347       0.34599001
C        8.58204471       4.95989677       7.41548418       1.18749253       1.36422040      -0.13299185
C       11.04022520       4.90183316       7.60250724      -0.69926190       1.96324347      -0.54357183
C       -2.53304314       7.07800183       7.58447542       2.73568050       1.49803269       0.81674897
C       -0.01182900       7.13565661       7.80091572      -0.71390664      -1.17532479      -1.23063256
C        2.45025037       7.09835901       7.68267194       0.14552212      -1.84801845      -0.60684642
C        4.95838734       7.10750977       7.47169207      -1.22960695      -1.42734895      -0.36273226
C        7.41639718       7.13528649       7.49930778      -1.35258847      -2.38165631       0.20872935
C        9.80814513       7.11309621       7.65418435       2.36950605      -0.31000871      -0.86283985
C       -3.70066391       9.30397145       7.64430993       0.58123078      -3.20360868       0.05270453
C       -1.24193277       9.28272579       7.62146248      -0.43796608      -2.02256344       0.98726916
C        1.24048156       9.19718281       7.69042520      -0.26765210       1.95347662      -0.86225364
C        3.66702678       9.14579919       7.48037221      -0.54195538       1.55504073      -0.43697132
C        6.19797961       9.20387807       7.53434942      -2.64218182       1.25251059      -1.16143595
C        8.63641368       9.24028337       7.49476844      -1.02083003       0.46530745       1.71830398
C       -4.93408006      11.37027799       7.45243350       1.34155844       1.16787476       0.54677748
C       -2.41196806      11.45009340       7.51546350      -2.55999522      -2.53033498       0.61790757
C       -0.02511478      11.39692125       7.59923580       2.33424080      -0.28821989       0.30272966
C        2.46502713      11.32756739       7.41649184      -0.40222364      -0.53142877       0.54834740
C        4.90561216      11.26253364       7.21495399      -0.28168929       0.50592985       0.87599259
C        7.38234619      11.35830731       7.47571004      -1.05595798      -0.82871771      -1.09953638
72
Lattice="14.76 0.0 0.0 -7.38 12.782534959858314 0.0 0.0 0.0 15.0" Properties=species:S:1:pos:R:3:REF_forces:R:3 REF_energy=-11165.907702530681 config_type=fd_force_conv_snapshot_099 snapshot_index=99 split=validation degauss_Ry=0.00285013035 kgrid=8 lattice_temperature_K=450.0 trajectory_seed=2 p4_key=seed2:snapshot099 pbc="T T T"
C       -0.01544037      -0.07513773       7.75790388       0.13873724       2.60114316      -0.98079409
C        2.47183803      -0.02289625       7.65412971      -1.54893205      -2.35399458      -0.46981100
C        4.91277641      -0.04013866       7.60572836       1.23312370      -0.02930441      -1.57603739
C        7.40210841      -0.01682586       7.30333276      -0.44550019      -0.26830516       0.27689341
C        9.80843819       0.03528255       7.47794152       1.63917314       0.26379544      -0.20532418
C       12.29632036       0.00239025       7.53195373      -1.04634334       3.14178856       0.47548028
C       -1.19771373       2.09323360       7.62113379       0.16254951       2.36495520      -0.47368385
C        1.27397860       2.06282613       7.74778352      -1.63518382       2.04804410      -0.41986757
C        3.67892969       2.04924561       7.74106959       1.48001877       2.40361353      -0.10827661
C        6.16186053       2.07295921       7.49114948       0.30457057       1.28047545      -0.82622452
C        8.58094794       2.16373685       7.38158249       0.75902385      -0.73179715      -0.66248792
C       11.04870124       2.21842679       7.57134459       1.19502304      -2.35621679      -1.11048182
C       -2.43293732       4.28125652       7.40909878       0.18942860      -1.28609794       0.62478167
C        0.03672705       4.22036641       7.43537274      -0.08805591       1.83844675       0.85938609
C        2.47065321       4.27609089       7.60364287       0.42043990      -1.35376912       0.46477240
C        4.89587777       4.22127667       7.59789958       1.64640360       1.39314736       0.98070205
C        7.37573051       4.25689891       7.49244539      -0.56167831       0.28243671      -1.15876328
C        9.83723623       4.25186472       7.42104021       0.69337639       2.94482792      -1.16152799
C       -3.68467420       6.43666159       7.39878705      -0.56992821      -1.98996366      -0.20951071
C       -1.16370540       6.34514047       7.37953383      -1.50697190       2.43465703      -0.05485551
C        1.28908141       6.43020037       7.51651597      -1.63984265      -0.84461793      -0.22487125
C        3.65880070       6.46159169       7.61294589       1.82360840      -0.66666520       0.23627410
C        6.12227540       6.41315780       7.58112714       1.24098459      -0.28634839       0.76011194
C        8.60345386       6.37478052       7.42769752      -0.12145531       0.68274282       0.39879995
C       -4.97429307       8.52668582       7.51484835       0.13786461      -0.66568818      -1.05945083
C       -2.54441576       8.51105964       7.33851466       3.73190662      -0.34000422      -0.02610930
C       -0.00342706       8.54572679       7.38064861       0.41586128      -0.28936661      -0.49910692
C        2.49580394       8.60673320       7.48576379      -1.84376944      -1.34280465      -0.17700863
C        4.93059419       8.53784573       7.46027375      -0.54343891       0.45745427       0.48911638
C        7.35506916       8.49068558       7.53799734      -0.40887199       1.61082261       0.14559746
C       -6.17571303      10.64913225       7.61488021      -0.80564489      -2.34926941      -1.10285208
C       -3.72859425      10.63431587       7.55381888       1.82283912      -1.70449047      -1.44543897
C       -1.23805956      10.67182492       7.28135701       1.12647846      -2.13821192       1.14456411
C        1.27411898      10.66095336       7.22037087      -0.99438675       0.35543779       1.09266742
C        3.70651371      10.70733848       7.44257653      -1.14012921      -1.77893754      -0.17203688
C        6.11609602      10.67618091       7.58233816      -0.56801171      -2.15202234      -0.63597908
C        1.23646375       0.65369049       7.73540956      -0.34222386      -0.48885644       0.32288968
C        3.67172946       0.65616801       7.63582167       1.29103446       0.23489084       0.78707998
C        6.16951651       0.67846310       7.35464251      -1.50621882      -1.03440828       1.65385954
C        8.59396368       0.72980678       7.41652574       0.02946793       0.44860582      -0.52073606
C       11.05196063       0.78678188       7.51631063       0.09800325      -1.63093044       0.39668574
C       13.53183375       0.70488384       7.64136509       0.57684242      -1.63246385       0.40901135
C        0.06357521       2.85694868       7.59693870      -1.11829952      -3.61264831       0.34486721
C        2.46356972       2.80236577       7.76914115       1.37605158       0.64626812      -0.84618605
C        4.96758086       2.77769006       7.68964777      -2.98749255       0.48104080      -0.68553529
C        7.35430879       2.84118046       7.29672756       0.13125764       0.09476726       1.90203964
C        9.81902297       2.88823885       7.39631685      -0.07289952      -1.51679043       1.00583484
C       12.33660485       2.83087139       7.51992863      -0.71402234       1.27387749       0.15561859
C       -1.20383695       4.95364136       7.44305054       1.01861091      -0.25267722      -0.76809753
C        1.25416632       4.95359600       7.49731640       0.30943201       1.71285607       0.16304754
C        3.69628468       5.02159359       7.58748647      -0.54219423      -1.43983217       0.43463908
C        6.15281474       4.98141290       7.64314050      -1.17892125      -0.63312284      -1.09018605
C        8.59734190       4.96252191       7.32474479       0.44428560       0.00961567       1.56401825
C       11.11692625       4.99482336       7.40047142      -2.25865551      -0.20988455       0.10493135
C       -2.45318919       7.08516457       7.34593050       0.84220546       0.52678073       0.24201126
C        0.05016152       7.11673448       7.39654243      -0.61913732      -0.54624578       0.39324611
C        2.46066694       7.19806659       7.63291889       0.46643617      -1.48450303      -0.89353008
C        4.91394588       7.16087565       7.60814397      -0.31226485      -2.16640921      -0.65168518
C        7.39903880       7.11488326       7.58146327      -1.85892404      -2.22327507      -0.98645644
C        9.80338979       7.12236283       7.44271073       1.15706687      -0.98052053      -0.07302781
C       -3.74273834       9.20613445       7.36605069      -0.42444285       1.27191548       1.53465934
C       -1.25068899       9.22270214       7.34517773      -0.86650393       0.68305598      -0.60821451
C        1.24346154       9.27484384       7.32603037       0.19929289      -1.02166049       0.35610010
C        3.71788994       9.24084623       7.42283863       0.01340753       2.82070457       0.25558668
C        6.13000550       9.22828908       7.48620187       0.69746495       1.22996176       0.49820446
C        8.55131487       9.19671630       7.53188161       1.17425958       2.22300716       0.56168911
C       -4.93890646      11.29382603       7.49525161      -0.45590236       3.03758175       1.90833036
C       -2.45457590      11.31721676       7.52754381      -1.21962747       1.52905613      -0.41289217
C        0.04241823      11.33547739       7.27857763      -1.54741047       1.38181471      -0.66435917
C        2.46347529      11.38888831       7.41063337       0.67349944       0.53967995      -0.55030041
C        4.89528208      11.41063676       7.52617437       1.05801178      -1.29930210       0.01229810
C        7.33026359      11.32190402       7.63639403       1.77524209       0.85213712       0.55591184
72
Lattice="14.76 0.0 0.0 -7.38 12.782534959858314 0.0 0.0 0.0 15.0" Properties=species:S:1:pos:R:3:REF_forces:R:3 REF_energy=-11166.039358961067 config_type=fd_force_conv_snapshot_105 snapshot_index=105 split=validation degauss_Ry=0.00285013035 kgrid=8 lattice_temperature_K=450.0 trajectory_seed=2 p4_key=seed2:snapshot105 pbc="T T T"
C       -0.01834348       0.00756617       7.13683160      -0.05839155       0.28275244      -0.73179972
C        2.50355134      -0.01706065       7.26561795      -2.18064978       0.66130599      -1.22255235
C        4.87581071       0.01587148       7.52595182       1.24249537       0.15987788       0.18568636
C        7.33690639      -0.01159644       7.70705473       0.54150672       0.59975558      -1.01539189
C        9.78425794      -0.02545441       7.53360285       2.17582150      -0.51513080       0.31733687
C       12.30366096      -0.02860921       7.31359039      -1.72221334       1.90146140       0.00261867
C       -1.29558470       2.16832304       7.26579961       1.70317227      -1.44309721       0.00029388
C        1.20133713       2.10379218       7.28742313      -0.56236402      -0.27751125       0.21760326
C        3.64899998       2.10853029       7.38957736       0.45360353       2.95947344       0.58113256
C        6.09745236       2.14863757       7.47577303       2.89519303      -1.11784084       0.18170989
C        8.62439382       2.07610901       7.37659981      -0.80309050       1.01860191       1.01015198
C       11.02453666       2.12506500       7.47685625       1.71020655      -1.02408813      -0.75758789
C       -2.46833305       4.26482149       7.58543193      -0.17737321      -1.53147143      -0.24228405
C       -0.02828017       4.22915851       7.48440845       0.77124867       1.02322732       0.35806571
C        2.40990376       4.25925542       7.38719046       2.11698926      -1.19726298       1.25029404
C        4.93603333       4.29479176       7.35836177       0.70826436      -1.94238616       0.09529331
C        7.41194277       4.24805007       7.40701732       1.69207384      -1.58092891       0.59177616
C        9.84046033       4.23599204       7.62701672       0.43490930       1.31107235      -0.64169258
C       -3.67661755       6.37623102       7.69838381       0.56921319       1.56499141      -0.10322336
C       -1.22810596       6.37545058       7.76748939       0.43193813       1.73682235      -0.47611483
C        1.22697704       6.43926507       7.56967694       1.90133413      -3.27689515       0.43747912
C        3.70439210       6.35334613       7.34981905       0.30596513       2.42958270       1.60007900
C        6.17304075       6.43138544       7.38531512       1.24131395      -1.87025746      -0.35879693
C        8.67119873       6.40332972       7.65347278      -2.34808824       0.53233585      -0.87123965
C       -4.89130055       8.54797227       7.57994545      -1.78258773      -1.12960389       0.19462685
C       -2.45172068       8.57443228       7.73299744       0.75815404      -0.51824132       0.15321178
C        0.05123029       8.53483799       7.86476727      -1.40038656       0.07465378       0.15658610
C        2.51201224       8.49807864       7.72699075      -0.32526872      -0.24365650      -0.02360118
C        4.92106554       8.56493842       7.35635049       0.12404519      -1.89831900       0.62629168
C        7.36650740       8.54258284       7.48644376       0.27864408       0.61245194      -0.18419409
C       -6.11857430      10.62929961       7.30084225      -0.59016382       1.80503012      -0.62838404
C       -3.70328927      10.64904454       7.56517417       1.01756087       0.51837399      -0.80045178
C       -1.22378045      10.68293053       7.75085275      -0.96751923       0.23595708       0.46141223
C        1.23691509      10.60363446       7.81572562      -0.00442924       1.39358445      -0.31295313
C        3.67931567      10.68227785       7.54113299       0.67115511      -2.29875315      -0.58655605
C        6.18597128      10.66065520       7.25965543      -2.03322684       0.13057167      -0.24691024
C        1.24366121       0.67610346       7.14563508      -0.56648679       0.50443116       0.79750966
C        3.67648050       0.74671110       7.30862078       0.43282388      -2.34734288       0.98553135
C        6.10436050       0.74477775       7.62507648       0.13980579      -1.91110252      -0.44851583
C        8.58614941       0.66879396       7.52730687      -0.70502168       0.48874126       0.22142238
C       11.05053120       0.69186985       7.48055427      -0.72117181      -0.42127294      -0.73018147
C       13.46241940       0.76417552       7.17143439       2.29347981      -2.43647326       0.32549909
C       -0.02924222       2.83175145       7.32806772      -0.38740971      -0.09120886      -0.13176904
C        2.38521954       2.81230138       7.48127932       2.08631986       0.85664632      -1.77893882
C        4.92001839       2.84045707       7.44332463      -2.52837297       1.61563777      -0.55793941
C        7.39803790       2.77213065       7.42259299      -0.74940072       2.33900325      -0.30210899
C        9.83826822       2.84934002       7.43464491      -1.16508357      -1.23512325       0.62672696
C       12.26822894       2.81448988       7.39486763      -1.17951337       2.58045144       0.94469941
C       -1.25548870       4.95738408       7.67900043       1.09352334       0.22950721      -0.80834506
C        1.22977086       4.94406501       7.47239541      -2.16676814       2.26313977       0.00521985
C        3.68866509       4.97015088       7.41880866      -0.01917040      -0.94886254      -1.13491142
C        6.24131147       4.93536272       7.30188716      -3.99777000       2.91275958       0.85941411
C        8.63605383       4.97911888       7.63357000      -0.23192662      -0.41597158      -0.80990290
C       11.08664993       4.96265093       7.64127307      -1.02529115       0.02039270       0.46148216
C       -2.45752982       7.15495060       7.73369954       0.86616815      -2.12618533       0.31908316
C        0.05221671       7.11674147       7.72247166      -3.08967179       0.12188649       0.60202406
C        2.49255980       7.07578851       7.63048021       0.00813368       0.47620250      -1.29650782
C        4.95958182       7.12528650       7.37947384      -1.53613824      -0.74668744      -0.54431205
C        7.39500357       7.14512481       7.47507996       0.99390569      -1.39848394       0.78486369
C        9.87634069       7.12151888       7.64321635      -0.15597829      -0.37564948       0.37090374
C       -3.69756314       9.23404854       7.59471554       1.26346992       1.17244361       0.47923100
C       -1.20238038       9.30139792       7.84927661      -0.29881130      -2.80589656      -0.54400429
C        1.28634356       9.20381641       7.91889456      -0.35415815       0.00628018      -0.98128620
C        3.70271094       9.21247412       7.50752054      -0.66943067       2.19397606       0.53727211
C        6.12422832       9.26279005       7.37726247       2.05274871      -0.33330624      -0.30198172
C        8.60817597       9.25138429       7.53526027       0.58177174      -0.64489155      -0.81231973
C       -4.87721835      11.35939038       7.25463299      -0.91463935      -0.80800722       1.47470430
C       -2.48068885      11.37959331       7.66042455       0.08543956       0.03123376      -0.46930912
C       -0.00196650      11.34251028       7.72944428       0.53926061       0.90988564       0.80286193
C        2.43927542      11.33078307       7.65182740       0.04534706       0.96127248       0.03428052
C        4.90871367      11.35123527       7.30349608       0.90998077       0.03196087       0.54795813
C        7.39715764      11.35771384       7.11334269       0.28097915       0.24417458       1.25373058
72
Lattice="14.76 0.0 0.0 -7.38 12.782534959858314 0.0 0.0 0.0 15.0" Properties=species:S:1:pos:R:3:REF_forces:R:3 REF_energy=-11165.632316523115 config_type=fd_force_conv_snapshot_111 snapshot_index=111 split=validation degauss_Ry=0.00285013035 kgrid=8 lattice_temperature_K=450.0 trajectory_seed=2 p4_key=seed2:snapshot111 pbc="T T T"
C        0.03218973      -0.02151482       7.94798451       0.01311803       0.08246068      -0.98694983
C        2.49158954      -0.01857229       7.64837009      -1.43240142      -0.53659334       0.54159697
C        4.90839976      -0.00293928       7.41253218       0.62250187       0.13448695       0.42069058
C        7.37388525       0.01702747       7.27766127      -0.57145287      -0.35801377       0.64421587
C        9.84418158      -0.01303716       7.43364294       1.90391012       0.20379592      -0.28909073
C       12.30324556       0.00882065       7.74114924      -0.34137951      -0.47185528      -0.45622914
C       -1.26012419       2.11395105       7.77209626       2.02587914      -1.71419330      -0.34100875
C        1.21608941       2.19282794       7.71027389       0.88964052      -3.14709172      -0.10252685
C        3.70219851       2.09274463       7.57391969      -0.12900022       2.57261960      -0.28829625
C        6.16259372       2.15434733       7.42318755       0.66556631      -1.77090078       0.77532233
C        8.65660760       2.09069798       7.52441986      -1.88453069       0.86872151       0.21950536
C       11.07068978       2.11088521       7.64821891       1.17316069       1.07354613       0.15376945
C       -2.46004196       4.18622860       7.51678196       1.68383629       1.39824252       0.21803520
C       -0.00958886       4.28101040       7.58672117      -0.48100686      -1.11891119      -0.30057661
C        2.42777490       4.28683565       7.48352847       1.45945149      -0.22296787       0.89733737
C        4.93886011       4.25351267       7.49605851      -0.19799294      -0.27756756       0.23026517
C        7.43564942       4.29892631       7.52416443      -2.02317974      -3.73708199       0.71305330
C        9.85390809       4.17730438       7.50096573       0.85750199       2.90188278       0.17482293
C       -3.73046741       6.29256255       7.40629108       2.24349500       3.41209301      -0.40851538
C       -1.20523463       6.41457472       7.41254215      -0.96493682      -1.07905240       0.01181319
C        1.19126323       6.45731290       7.36887523       2.15437696      -2.13973196       0.96871351
C        3.69741663       6.39225601       7.28499746      -1.33712277       2.26026707       1.67516601
C        6.11476342       6.43892067       7.48421899       2.15271629      -1.46751446       0.98369764
C        8.60076602       6.36316871       7.54165994       0.29798931       1.44495175      -0.56293198
C       -4.90157841       8.54128832       7.49242594      -0.86977977      -1.03545523      -0.20818042
C       -2.45572387       8.46184952       7.28894849      -0.27356306       2.50995744      -0.10093483
C       -0.02626392       8.56061077       7.28875371       0.20833906      -0.29262779      -0.48688903
C        2.41774658       8.57100450       7.19249050       0.33160289      -0.96915728       1.44037827
C        4.88054034       8.54320879       7.50959416       1.81196387       1.43655530      -0.40505262
C        7.35745182       8.57673087       7.62480468       0.41870106      -1.59021214      -0.41544656
C       -6.14024164      10.62545955       7.80929954       1.45760081       0.61781192      -0.76172145
C       -3.65785256      10.65452419       7.45660771      -0.13872053      -2.16079546      -0.31926365
C       -1.21607374      10.67440151       7.35871847      -1.34860197      -1.55160779      -1.65037724
C        1.21446767      10.72376628       7.09855951      -0.29921393      -2.82421336       0.82974795
C        3.62455722      10.62462593       7.29377785       4.24096293       0.50893316       2.06084254
C        6.13205971      10.69263539       7.76107121      -0.34412750      -0.91206465      -0.82239486
C        1.24928059       0.70212439       7.77201166       0.18511968       0.80391402       0.40588617
C        3.68373970       0.71128527       7.57996385       0.81459284      -1.19371075      -0.65772470
C        6.14322721       0.71936392       7.41265667       0.30770963      -0.22927015      -0.78951070
C        8.62605903       0.67227969       7.40000483      -0.12939822       1.12130514       0.00827047
C       11.10831516       0.76547118       7.60900207      -2.20497010      -4.39151439      -0.04748313
C       13.54801869       0.66869649       7.85268249      -0.05443334       1.02002219       0.32357513
C       -0.03466039       2.81943698       7.64240214       0.49065210       2.02193250       0.86518521
C        2.47314507       2.86351685       7.63372470      -0.43498438      -0.17327281      -0.50785175
C        4.95801075       2.80904881       7.44907614      -2.58123254       1.79444900       0.66801297
C        7.37785219       2.82743648       7.56337906       2.67856345       0.80272335      -1.11132797
C        9.88631235       2.81575390       7.58910684      -2.43557209      -1.30617697      -0.35992565
C       12.30116160       2.77784986       7.68029129      -0.35738462       1.87597457      -0.34884265
C       -1.24058840       4.96842322       7.48011480       0.33059039      -0.01100304       0.40673926
C        1.21314485       4.98983580       7.54424791      -0.38754084       1.19771987      -1.03415014
C        3.67397712       5.00008465       7.46181461       1.07460054      -0.86830396      -0.79571452
C        6.19510436       4.93372339       7.58999534      -2.17721221       3.33005579      -1.46703495
C        8.64094347       4.92981640       7.48994283       1.07007360       1.53674502       0.34567274
C       11.11388410       4.90472878       7.47197338      -2.78396479      -0.58104900      -0.08905196
C       -2.44944466       7.08182872       7.33552211      -1.24372719      -2.10587387       0.30993235
C        0.01707843       7.15462656       7.41327579      -2.15929522      -0.38916217      -0.65277867
C        2.41919637       7.16474420       7.32676101       1.25193749      -1.75620975      -1.06810156
C        4.91397590       7.17231587       7.43710736      -0.81988957      -3.18437709      -0.54555904
C        7.37268146       7.13836885       7.56862997      -0.60022763      -1.09592012      -0.23641859
C        9.82785439       7.09388742       7.42832825       0.16047515      -0.92992816       0.65439589
C       -3.66172191       9.21443189       7.36232881      -0.77089360       0.19487805       0.66084987
C       -1.25112367       9.23489690       7.23877180       0.04268186       0.29896042       0.99674496
C        1.17425910       9.26346557       7.17065741       1.50290956       1.67120266      -0.29301834
C        3.66988097       9.21851216       7.41885519      -1.51480451       1.26995295      -1.82519759
C        6.14127723       9.28014219       7.55292037      -1.19521021      -0.23333533       1.30406867
C        8.59295202       9.24624693       7.65923241       1.51810452      -0.91961058      -0.10744974
C       -4.86352668      11.30613963       7.63407361      -2.22222786       2.18857160       0.56961299
C       -2.45796892      11.34998227       7.36426333       0.85177202       1.62846707       0.52196017
C       -0.02063116      11.37731876       7.20673290       0.71615739       1.23380504       0.25823235
C        2.47327789      11.34191285       7.24897236      -2.12448943       2.39718783      -0.37597062
C        4.86658642      11.37955534       7.61041714       0.58739089      -0.74187716      -0.02518601
C        7.41276499      11.32590863       7.90544628      -1.36117647       1.67401262      -0.01342836
72
Lattice="14.76 0.0 0.0 -7.38 12.782534959858314 0.0 0.0 0.0 15.0" Properties=species:S:1:pos:R:3:REF_forces:R:3 REF_energy=-11165.187734892666 config_type=fd_force_conv_snapshot_117 snapshot_index=117 split=validation degauss_Ry=0.00285013035 kgrid=8 lattice_temperature_K=450.0 trajectory_seed=2 p4_key=seed2:snapshot117 pbc="T T T"
C       -0.02606838      -0.02623153       7.20169742      -1.08365236      -0.04209770      -0.12501938
C        2.44838376      -0.04142739       7.33314126      -0.07288872       1.33218496       0.30309013
C        4.92891229      -0.01973774       7.43625060       0.90646196      -1.11758552       0.44763986
C        7.41888373      -0.05471335       7.44087934       0.92858759       3.17037794       0.46987476
C        9.81060399       0.04784515       7.47910995       3.32548514      -0.31224145       0.04741551
C       12.27705575       0.04423436       7.29222534       0.81843587      -0.76189449      -0.58081632
C       -1.28383009       2.16435023       7.17925330       0.84961256      -2.20931295       1.04511718
C        1.18582097       2.07564446       7.37878055      -0.39923139       1.42519873       0.15080986
C        3.65135359       2.10851273       7.49139685       0.47552373       0.35447671       0.06744826
C        6.09111299       1.99264024       7.42071825       2.16938552       5.79895554       0.79582251
C        8.65240137       2.15409472       7.45747880      -3.90948603       0.07444629      -0.08354928
C       11.02782272       2.18910840       7.28793699      -0.55964894      -1.52546096       0.94738749
C       -2.46333552       4.26577556       7.41955177      -1.89157628      -0.56375268      -0.72247330
C       -0.06964963       4.21232854       7.56298438       1.64330182       3.90418904      -0.14300939
C        2.43176039       4.27987829       7.58362088      -1.67064678      -2.04034674      -0.00928143
C        4.85543330       4.23790631       7.59441058       2.55712433      -0.83943921       0.40698789
C        7.35142196       4.22068411       7.50548094      -0.48898423      -0.82736660      -0.28625274
C        9.77056020       4.32515377       7.33823768       2.18940181      -2.10355576       0.66557813
C       -3.68466659       6.38894103       7.49615458       2.50821166      -0.73331513       0.04230776
C       -1.19340715       6.39424994       7.64518205      -1.35071388       0.38196103      -0.32334219
C        1.20772399       6.44496373       7.67414009       1.26830231      -2.06776318       0.20492618
C        3.64557881       6.38493011       7.73933663       0.99749238      -0.05687872       0.22350343
C        6.14926312       6.37915880       7.56501717       0.82209892      -1.83833953       1.45312297
C        8.60801110       6.39955196       7.44344423      -0.03879332      -0.56570723       0.91689858
C       -4.89873178       8.46557940       7.46501333       0.40806261       2.12289792      -0.53654218
C       -2.39423568       8.56575553       7.68155707      -0.72274018      -1.88523080      -0.85051578
C        0.01764163       8.54630232       7.65693547       0.83586564      -1.25041668       1.48312389
C        2.49050055       8.56357806       7.79603383       0.11607040       0.30153229       0.70767635
C        4.94912666       8.50986512       7.69368760      -1.26654650       0.83676887       1.23602416
C        7.36399205       8.54921346       7.38803383       1.45124298      -1.27304522       1.08117768
C       -6.11711921      10.66495157       7.35574310       0.56620165      -1.56843052      -1.67571109
C       -3.68121140      10.66749742       7.50966456       3.09599619      -2.79112326      -0.91737346
C       -1.17728256      10.65458453       7.64676810       0.52432584       0.74799844      -0.39018059
C        1.28842604      10.66991091       7.69096187       0.33677055      -0.26125699       0.58513886
C        3.73397167      10.72719411       7.58010697       0.91304964      -1.90458118       0.75764831
C        6.18557475      10.65623306       7.34787377      -1.23688523       0.60438459      -0.08860587
C        1.15063672       0.66054937       7.30344890       3.57347138       0.83160275      -0.20279319
C        3.67846145       0.68683863       7.46254287      -0.10576413      -0.32811699      -0.73147551
C        6.21252477       0.64013464       7.44873392      -3.40654997      -1.15419006      -0.48444983
C        8.62504413       0.75974796       7.44872170      -0.56192591      -2.08876524       0.04210361
C       11.08346275       0.76199081       7.38013970      -2.59001542       0.05424359      -0.38793396
C       13.50775658       0.69969745       7.17604166       0.15411989       1.69358977      -0.02885729
C       -0.04845774       2.84803031       7.40382897       0.09255149      -1.88409668      -0.79076360
C        2.41323563       2.79888284       7.45791649      -0.11865615       1.15505884       0.51913324
C        4.89728171       2.83244971       7.53970777      -1.04400364      -2.76903105      -0.63726797
C        7.32528016       2.78250372       7.45049084       1.43389832       0.24407842       0.07085060
C        9.80687409       2.90168784       7.45359904       0.89887412       0.10931791      -1.30688634
C       12.23782357       2.82253167       7.26570699       2.41688917       2.76571279       0.00850290
C       -1.28364589       5.00541800       7.53867161       1.80770458      -2.41046038       0.19282374
C        1.19165723       5.00409838       7.62088750      -0.03307956      -1.39092696      -0.02951986
C        3.65727520       4.92860956       7.69512756      -0.80447350       2.49312957      -0.49524461
C        6.12582478       4.88550420       7.60077395      -0.42275929       3.32795726      -0.55445171
C        8.56810714       4.98541096       7.42020378      -0.86155379       0.20533833       0.04808580
C       11.05520894       4.94298647       7.35939022      -0.12924113       2.44177024       0.70382663
C       -2.38906413       7.12584365       7.59298015      -2.27605648      -0.14686424       0.32760714
C        0.01490439       7.09086554       7.70216927      -1.08789108       2.65862120      -0.44763189
C        2.42539937       7.16373740       7.72442520       2.14007263      -1.87601545       0.29189194
C        4.93793298       7.05475898       7.76689440      -1.41970789       1.57317344      -1.16250912
C        7.40727296       7.10512456       7.57808454      -1.75933236       0.77727611      -1.69746905
C        9.86702642       7.06156196       7.53994491      -1.10891705       0.95939789      -1.03404704
C       -3.63159486       9.19906882       7.50924858      -2.07034765       1.44510447       0.78358791
C       -1.17700513       9.26993979       7.70076452      -0.18439283      -0.78954593      -0.17128535
C        1.25611300       9.22608767       7.81465733      -0.17800673       1.98207860      -1.33844997
C        3.72275237       9.30099315       7.85607305       0.73570060      -1.35119750      -2.00446082
C        6.15465560       9.24822045       7.55726019       0.11547030      -0.18036289      -1.22475630
C        8.62444197       9.23128851       7.26174224       0.40329450      -0.47821388       1.86517696
C       -4.85764812      11.33681502       7.32012425      -2.37373628       0.98563728       0.76739613
C       -2.38662286      11.32754804       7.48680786      -2.81938071       1.50812093       0.55924013
C        0.05505539      11.37550692       7.61491956       0.43027360      -2.01173704      -0.13615045
C        2.54176746      11.41297143       7.62372347      -3.54009229       0.14659787      -0.34104115
C        4.93541142      11.40611864       7.32237756       0.92801552      -0.73952872       0.98000194
C        7.42305119      11.34908772       7.22306037      -1.24966875      -0.27498514       0.74116754
