72
Lattice="14.76 0.0 0.0 -7.38 12.782534959858314 0.0 0.0 0.0 15.0" Properties=species:S:1:pos:R:3:REF_forces:R:3 REF_energy=-11165.047700349303 config_type=fd_force_conv_snapshot_003 snapshot_index=3 split=validation degauss_Ry=0.00285013035 kgrid=8 lattice_temperature_K=450.0 trajectory_seed=0 p4_key=seed0:snapshot003 pbc="T T T"
C       -0.02030902      -0.01939019       7.73003020       0.59096112       2.57076043      -0.83916873
C        2.41023112       0.01619341       7.77390649       0.19538456      -1.66889432       0.18307103
C        4.87394512      -0.04254704       7.61737085       0.42248033       1.65505047       0.70411794
C        7.37294363       0.00436466       7.49248159      -2.18678032       0.91475377       1.48823858
C        9.83420387      -0.02112779       7.44368783      -1.32753281       1.02629362       0.17461210
C       12.29065780      -0.00190723       7.52256476       1.63826657      -0.39222719      -1.11656608
C       -1.25316303       2.09083998       7.33165713       0.99416692       3.05302328       1.77645591
C        1.20614100       2.12256824       7.60126804       0.31421426      -0.49711688       1.24381615
C        3.63964486       2.10617960       7.67694538       0.40987292       0.09159504       0.53944573
C        6.08255997       2.10889677       7.72169411       3.30654074      -2.36489143       0.38115627
C        8.54424248       2.16757104       7.66677632       0.97361815      -1.50567504       0.47294080
C       11.03156658       2.08442245       7.46754416       0.15014523       3.77774681       0.22802574
C       -2.45311913       4.26432704       7.52553388      -1.23746501      -0.25304103      -0.55536214
C        0.03204577       4.27054150       7.47883691      -0.75787868      -1.05670360      -0.78021257
C        2.45681558       4.25018606       7.52926759       0.70328130       0.06419787      -0.09730006
C        4.94369932       4.19885421       7.57506594      -0.13749694       0.68708978      -1.07787946
C        7.38596745       4.28985414       7.50297536       0.75779872      -0.85545204       0.70416396
C        9.83492193       4.31202035       7.64157541       1.06584387      -1.12740945      -0.45601291
C       -3.66233380       6.44065515       7.39854408      -1.03113681      -2.38958996       0.94001049
C       -1.20138258       6.36677816       7.49496579       1.22452516      -0.20618782      -0.31801127
C        1.31532494       6.39493360       7.39684132      -2.48789609       0.01762903       0.36535273
C        3.67829913       6.34491475       7.39922159       1.93766999       0.64510341      -0.41487655
C        6.12972845       6.34499096       7.29193968       2.28926423       1.53080243      -1.32003907
C        8.68234846       6.41038067       7.39088122      -2.08955071       1.82420695      -0.62738465
C       -4.86488628       8.57567154       7.53510509      -1.93858479       0.73579830      -1.43356819
C       -2.41419264       8.45118930       7.41941086      -1.03499064       3.68753298      -0.43511370
C        0.00712576       8.47573810       7.37312224       0.37980053       2.39247628       0.49136250
C        2.47280059       8.56825298       7.32835444      -1.17317586      -1.39541842       1.37938913
C        4.89942204       8.54743323       7.35324693       2.38488922      -1.94320737      -0.07117353
C        7.38645980       8.50203647       7.38311806       0.68994422       1.09839610      -0.32888575
C       -6.21308833      10.67685620       7.54510627       5.16401365      -0.59091433       0.86820394
C       -3.63995233      10.69819496       7.56465906      -2.88830684      -1.41805441       0.24638419
C       -1.20780228      10.66385003       7.46336937      -1.38071248      -0.90441999       0.15656424
C        1.21735949      10.66837405       7.43882658      -2.82910591      -0.33621442      -0.09918030
C        3.69543325      10.65737480       7.37197787      -0.42057257       0.26913639       0.52004264
C        6.18969622      10.69439159       7.51785565      -0.33893747      -2.53762020      -1.07827516
C        1.19066598       0.70034999       7.83198504      -0.08649088       0.95951616      -1.38654297
C        3.61915300       0.68359608       7.68716449       1.78580624       1.11255079       0.15569752
C        6.10319851       0.64905390       7.67041985       0.41402783       2.37156396      -0.76706446
C        8.57088544       0.67962563       7.59380954       2.29880817       2.55977051      -0.76632732
C       11.08586490       0.70213172       7.41551156      -1.71287895      -1.31229337       0.59664326
C       13.54332821       0.73466866       7.52915812      -1.71325536      -2.70460332       0.16593488
C        0.01234253       2.81782343       7.48550528      -1.62046425       1.19646208      -0.70847956
C        2.41364251       2.86592775       7.66039942       1.15858511      -2.03081694      -0.49890431
C        4.92225789       2.76171156       7.70914948      -3.57156260       2.83685624      -0.55544956
C        7.31533492       2.85639684       7.77256109       0.78216326       0.55986697      -1.66018291
C        9.78618998       2.88253619       7.61867788       0.93530151      -1.73191334      -0.18597895
C       12.27755104       2.84716705       7.41349838      -0.39675901      -1.50930312       0.06779665
C       -1.23676540       4.95022534       7.47084750       1.91149539       0.48682836       0.36851365
C        1.27234943       4.97562824       7.38750865      -0.92010500       0.06672964       1.07782110
C        3.71281443       4.91786793       7.50736917      -0.22871428       0.52424768      -0.00837640
C        6.16764961       4.93954411       7.29596553      -1.23448690      -0.56589235       2.05868616
C        8.65582948       5.03286033       7.53723058      -2.03693591      -1.67317032      -0.32424362
C       11.06951224       5.00347468       7.54886120       0.54245289       0.14026062      -0.30484413
C       -2.42282327       7.04360268       7.44865202       0.50135175       2.11673575      -0.24523850
C        0.06893890       7.10030621       7.46494830      -1.48432871      -2.00250241      -0.61411442
C        2.49067840       7.11701277       7.41061773       0.66898639       0.51596924      -0.73881652
C        4.93137515       7.04761947       7.26263116      -1.56656570       2.10667323       1.12228807
C        7.40844067       7.10835102       7.22985010      -0.48868469      -1.57948781       1.47879878
C        9.87532012       7.16677340       7.39023313       0.72425996      -0.51567639       0.64213430
C       -3.65625536       9.29323229       7.43119677       1.07991398      -2.44816818       0.95721656
C       -1.21376784       9.21669641       7.35895946       0.04910781      -0.49249095       0.76033485
C        1.20056817       9.25005959       7.42070891       1.60911386      -0.68076924      -0.82671482
C        3.69516700       9.25158873       7.42774385      -0.30139937       0.31333340      -1.16384224
C        6.17488716       9.24160435       7.40070263      -1.29332043       0.26632335       0.11872275
C        8.60826502       9.27058116       7.50349331       0.21010361      -1.40020504      -0.16595828
C       -4.91647921      11.38244401       7.70917422      -0.93120831      -0.77413885      -0.95071630
C       -2.44422930      11.35333619       7.59864557       0.78416590       0.13749874      -0.73708900
C       -0.04787278      11.42680319       7.49185689       2.68044909      -3.69843085      -0.74321876
C        2.39186173      11.35227318       7.38010074       4.11743942       0.62179302       0.22819055
C        4.95980218      11.32999950       7.44099189      -2.07753183       2.26561625       0.65041377
C        7.41096337      11.40438141       7.52814255      -2.92139746      -0.63728777       1.08856703
72
Lattice="14.76 0.0 0.0 -7.38 12.782534959858314 0.0 0.0 0.0 15.0" Properties=species:S:1:pos:R:3:REF_forces:R:3 REF_energy=-11164.90825479634 config_type=fd_force_conv_snapshot_009 snapshot_index=9 split=validation degauss_Ry=0.00285013035 kgrid=8 lattice_temperature_K=450.0 trajectory_seed=0 p4_key=seed0:snapshot009 pbc="T T T"
C        0.05031630      -0.07045205       7.37873127      -0.67675498       1.95417878      -0.00062401
C        2.49505887       0.02515760       7.11085961      -2.36515523      -0.54262129       0.52416592
C        4.93904808       0.00594069       7.18386985      -0.70460799       0.71879663       0.62783999
C        7.33750455      -0.03399396       7.41086900       1.05124001       0.96403667       1.21458888
C        9.80423785      -0.00285314       7.58540113       1.54873947      -1.09438260       0.43418013
C       12.32885378      -0.04368262       7.49380669       0.63840491       1.29119592       1.15975316
C       -1.16300960       2.09693042       7.38302439      -1.95679848       1.82173972       2.06133157
C        1.26138898       2.17159446       7.38405750      -2.03840761      -1.75361911       0.35074886
C        3.67132893       2.15978939       7.23897215      -0.12977283      -0.17232408       0.47980487
C        6.09470817       2.21358664       7.27916813       2.41755457      -3.32558644      -0.22065027
C        8.58586429       2.13025459       7.41792193       1.03565578      -1.46557045      -0.19848994
C       11.05554258       2.06277532       7.53046012       0.93851925       3.00909367       0.24819424
C       -2.44899189       4.26125618       7.53881241      -0.93335956      -1.50078480       0.44016489
C        0.03258768       4.27956243       7.49234120      -1.31887153       1.57335110       0.20340897
C        2.46862584       4.26002490       7.56272497       0.38316508       3.01939454      -0.17726934
C        4.91346426       4.27112850       7.46304029      -0.80972163       2.39826949       1.40346211
C        7.40306872       4.20914945       7.53507472      -0.71525622       1.79957192      -0.34125224
C        9.82163203       4.33266862       7.48672466       3.40028599      -4.77796045      -0.28358342
C       -3.72486647       6.41102427       7.66619664       1.10015602      -3.08493839      -1.61335026
C       -1.29937967       6.40189236       7.60797069       3.25508988      -0.85081763       0.14704139
C        1.25881106       6.41389652       7.52570789      -2.07134473       1.32234612       1.52401600
C        3.65695699       6.46658128       7.66406837       0.66481786      -1.11905054       0.59108093
C        6.17459717       6.34773942       7.66935895      -0.79258883       1.09438775       0.62267208
C        8.59638481       6.32132219       7.66693087       0.38198443       3.02752899      -1.24635254
C       -4.91505207       8.46231429       7.49360678      -1.89648014       2.14448258       0.04050233
C       -2.51296064       8.48672698       7.48666168       1.95156320       0.92430284       1.35916998
C        0.00485805       8.53023446       7.72960863       1.13543464      -0.78447006      -0.91674252
C        2.49712913       8.58454692       7.70498520      -3.20197114      -0.40470424      -0.88527504
C        4.91887518       8.52399310       7.64840610      -0.62417823      -0.95059443      -0.65714286
C        7.35459130       8.54302772       7.47936502       1.14838194      -1.40302323       1.25750547
C       -6.11598820      10.62518039       7.41699176      -0.15328968       2.49738038      -1.96574798
C       -3.75558523      10.63979046       7.31585760       3.00403888       1.05208667       0.25560108
C       -1.23220500      10.59743287       7.55397908      -0.36941687       1.89734224       0.16473238
C        1.23033418      10.67849256       7.57591859      -0.04318733      -1.01396261       1.02846003
C        3.72013444      10.67728111       7.60838476      -1.37834192      -1.03246504      -0.06160775
C        6.19302427      10.65477409       7.51290674      -1.73421525      -2.17322289      -0.12372945
C        1.23714304       0.71297843       7.30121599       1.20713962       0.27112411      -0.53602230
C        3.68072444       0.72130000       7.13950335       1.68804287       1.30851102      -0.20227768
C        6.15096163       0.72605846       7.28396521      -0.96004401       1.14573268      -0.35510946
C        8.57865677       0.65909782       7.49295132       0.07321448       2.46880848      -0.50782116
C       11.09666462       0.65521493       7.60504017      -1.43625885       0.68135879      -0.91766014
C       13.59062941       0.68274640       7.47538949      -0.68813879      -0.86049501      -0.96417191
C        0.02817197       2.88553450       7.47125319       0.35819504      -1.76522096      -0.80326302
C        2.44141745       2.87487620       7.45200007       2.24414908      -1.12057083      -0.92059403
C        4.89020549       2.90412469       7.26943054      -0.76410281      -1.55302756       0.23519423
C        7.38037143       2.83627839       7.35690002      -1.36146289      -0.04620298       0.44865262
C        9.81628159       2.85770101       7.43867818       0.65563542      -0.99022876       0.56703135
C       12.32007309       2.83693955       7.57613058      -0.06493552      -2.14928823      -1.65570019
C       -1.25937471       4.96172614       7.56071780       2.27607216       1.32070576      -0.22807819
C        1.26529400       5.02446618       7.48083061      -0.51036886      -2.22170155       0.52889803
C        3.69104297       5.04720385       7.65619125      -0.46845037      -2.24892337      -1.40011865
C        6.14782372       4.92313462       7.65246131       1.39222922       0.41929190      -1.10880289
C        8.63422156       4.94836594       7.50769254      -3.36487444       0.63184989       1.15135337
C       11.08604439       4.95668992       7.56553968      -1.24165102       1.87273035       0.46794977
C       -2.50967189       7.07951222       7.56449623       0.04709644       1.42390136       0.46776080
C        0.00835065       7.10871337       7.69679432      -1.42177531      -0.67830021      -1.12468485
C        2.40647413       7.18163018       7.69849949       2.98975075      -1.12954064      -0.67029019
C        4.93973113       7.08985331       7.68105526      -0.56944973       0.76580642      -0.14289240
C        7.39520964       7.09450270       7.67990165      -0.43878807      -0.19964642      -0.90747317
C        9.82861653       7.05593523       7.51565538      -1.37024629       0.51525139       1.46952944
C       -3.72571334       9.21673167       7.54679939       0.25901525       0.08146412      -1.60140723
C       -1.22315697       9.16740070       7.59884756      -2.21144491       1.72472788      -0.17857288
C        1.24207145       9.27612864       7.61225023      -0.26643314      -0.89625879       1.08078198
C        3.68887124       9.25063227       7.57082864       1.76009263       0.68305983       1.30879435
C        6.11267340       9.20320353       7.53083879       2.06056563       1.88281087       0.02928332
C        8.60783626       9.27648710       7.45113090       0.51644335      -4.72120875       0.28736089
C       -4.92294322      11.38047337       7.11575019      -0.20541417      -1.01969669       1.91600664
C       -2.46246711      11.40563354       7.37576549      -0.37024143      -3.66522197      -0.43300900
C        0.00704688      11.35430010       7.65895816      -2.28757553      -0.39408429      -1.96198877
C        2.44229081      11.35556954       7.64617326       1.82291291       1.03286768      -0.82470988
C        4.95938136      11.33895436       7.58248211       0.04151329       0.78793976      -0.55237040
C        7.40815747      11.29593147       7.38511628       0.46827579       1.58228671       0.59181370
72
Lattice="14.76 0.0 0.0 -7.38 12.782534959858314 0.0 0.0 0.0 15.0" Properties=species:S:1:pos:R:3:REF_forces:R:3 REF_energy=-11164.514747708896 config_type=fd_force_conv_snapshot_015 snapshot_index=15 split=validation degauss_Ry=0.00285013035 kgrid=8 lattice_temperature_K=450.0 trajectory_seed=0 p4_key=seed0:snapshot015 pbc="T T T"
C       -0.07223834      -0.01731676       7.63590973       3.46350607       0.26556539       0.01451439
C        2.44340424       0.01282605       7.73679034      -1.50030426      -0.91844022       0.64207079
C        4.92051237       0.02220598       7.72749333      -1.30256200       1.45960241       0.29806002
C        7.41086983       0.04537188       7.71920853      -2.10458343      -2.06243380      -0.68551961
C        9.85194431      -0.02758511       7.53866251      -0.95284209       0.64659671       0.09890468
C       12.28359416      -0.01724090       7.53395477       1.32962389      -0.31088674      -0.36908443
C       -1.24264523       2.18359992       7.45026917      -0.27148381      -2.39281773      -0.23672404
C        1.25376420       2.14714682       7.46594849      -4.68401723      -2.84005675       1.18039578
C        3.67761266       2.16254503       7.66135188       0.20071857      -1.97508494       0.11795656
C        6.17441319       2.14914932       7.59835438      -1.55975382      -0.53129841       0.83926798
C        8.59824405       2.16594401       7.63546186       0.37504630      -0.57962050      -0.13698761
C       11.12114242       2.11592057       7.53153812      -1.80756471       2.68038867      -0.48548341
C       -2.45404103       4.39824284       7.52970448      -1.55463270      -3.81329489      -0.54653091
C       -0.00918587       4.23673284       7.28727698      -1.49274444       0.97349370       1.31952974
C        2.41496765       4.19505608       7.29249092       0.57226946       1.67468110       1.20032311
C        4.94314322       4.22324635       7.45337305      -1.77356779       0.62629862      -0.50827753
C        7.40719918       4.23958560       7.60839004      -1.91973012       2.44252641      -0.56186857
C        9.80053288       4.28603827       7.61175878       3.61234312      -1.41380643      -0.11831420
C       -3.75098624       6.42114205       7.44356931       1.97890123       1.26059337      -0.25118521
C       -1.22088945       6.41535432       7.45173848      -0.01889787      -0.11341933      -1.48545408
C        1.22247849       6.37444336       7.22877032       0.77702491       0.12252746       0.03361306
C        3.70148239       6.32619576       7.31386002       0.47163545       1.62655828      -0.76038165
C        6.14051886       6.39010119       7.42100438       2.02142882      -1.34254394      -0.86000033
C        8.64840403       6.34003148       7.42307418      -0.63826556       1.31827195       0.56243807
C       -4.92967366       8.50258754       7.42623650      -1.55486538       4.21243860       0.84290480
C       -2.50504332       8.54267836       7.42134390       2.04398228       0.46132456      -0.84961153
C       -0.03093599       8.50900762       7.30881624       3.78299109      -0.36450247      -0.04669946
C        2.50083452       8.47447744       7.37759054      -1.56285303       0.83997092      -1.05348330
C        4.94484503       8.57076699       7.32265651       0.18159522      -2.93757098       0.17362583
C        7.38189125       8.49526982       7.53152763       0.65991425      -1.15087668      -1.05210750
C       -6.20036518      10.60703624       7.82523627       3.23061272       2.77239406      -0.23757199
C       -3.72124895      10.64986537       7.66251677       2.17782671       2.20154153      -0.70715416
C       -1.15208069      10.63828771       7.49755135      -1.46676396       2.95056713      -0.08034132
C        1.28733707      10.61268275       7.28850248      -1.15942817       0.84384017       2.08059453
C        3.69929812      10.58767510       7.43204744       1.17828104       2.83593039       1.08125661
C        6.16490795      10.65590687       7.64503611      -0.02559739      -1.66253444      -0.22208752
C        1.18599848       0.71158802       7.61292610       0.46687737       0.00725231       0.13031225
C        3.62205249       0.73011715       7.78536563       3.05729594       0.79817918      -0.78641227
C        6.13719640       0.75326457       7.78203429       1.55221457      -1.10127625      -0.96380450
C        8.58214699       0.74044996       7.63161346       3.11433329      -0.22096446      -0.09909700
C       11.07466693       0.69901268       7.48582198      -0.19852516       0.02052974       0.57129861
C       13.53522426       0.70447197       7.45146414      -2.68110678       0.79504938       1.05413250
C       -0.06082217       2.85128064       7.45713316       4.26374496      -0.01393769      -1.14159603
C        2.42422478       2.79778253       7.58205562       2.14115918       2.82071640      -1.58012210
C        4.93793242       2.82971535       7.53038637      -0.76989550      -0.18574986       0.54268532
C        7.36485012       2.87507629       7.61031802       1.45456716      -1.66722979       0.25083220
C        9.82047794       2.86753525       7.58320403       1.99149346      -1.19355262       0.31253893
C       12.33968478       2.92331752       7.44998969      -2.75897855      -0.51036912       0.82608439
C       -1.21653050       4.98408532       7.42907690       0.21815630       1.98495952      -0.12110102
C        1.18200866       4.95355957       7.26567712       2.04241570      -0.45167032      -0.56890748
C        3.66182944       4.91300267       7.32735807       0.79575823      -0.20885071       0.17183557
C        6.13586316       4.94173878       7.46993277       1.45551950       1.00490847       0.42957760
C        8.63551237       4.95007316       7.61409240      -2.22057001       0.94014495      -0.71347264
C       11.02503930       5.05293660       7.54343964       0.67437928      -2.08716601       0.09558796
C       -2.48824556       7.11256346       7.36229996       0.32145063       0.67865553       1.15004802
C        0.02294208       7.10311019       7.27624428      -1.75376695      -0.43879526       0.73040490
C        2.48567524       7.06982826       7.24799864      -0.27989389      -0.73441608       0.66531382
C        4.95969340       7.11218527       7.28767999      -1.87046187      -0.21742328       0.73622845
C        7.44810772       7.01816451       7.36422314      -2.98147102       2.70979695       1.10059310
C        9.81758001       7.14965858       7.41360370       0.06115189      -2.75168408      -0.17946660
C       -3.73348329       9.27928052       7.43177535       1.12624629      -2.47825034       0.66822945
C       -1.15505867       9.24394501       7.40293618      -5.26004821      -0.08948622       0.12392717
C        1.22758354       9.19812548       7.32316155       1.37174036      -0.36051906      -0.37357229
C        3.71101459       9.22534637       7.38026883      -0.42889677      -1.73418877      -0.25585253
C        6.17964896       9.21184215       7.46362795      -0.60820705       1.22826612       0.71950522
C        8.56502455       9.26177762       7.62345154       1.54104004      -3.58257335      -0.46884426
C       -4.88914607      11.35487767       7.83461781      -3.27452048       0.13104450      -0.62482358
C       -2.46414306      11.44628995       7.55613589       1.19122218      -4.52268462       0.97156486
C        0.08256089      11.37112415       7.51423867      -1.34262930       0.07323273      -0.22940257
C        2.50037669      11.30674584       7.48594757      -0.51738412       1.45213567      -1.05738340
C        4.93287717      11.32921935       7.60223362      -0.71049016       0.59025818      -0.92026416
C        7.38562785      11.33304757       7.77865019      -1.89116310       1.50973481      -0.39716525
72
Lattice="14.76 0.0 0.0 -7.38 12.782534959858314 0.0 0.0 0.0 15.0" Properties=species:S:1:pos:R:3:REF_forces:R:3 REF_energy=-11164.605980131924 config_type=fd_force_conv_snapshot_021 snapshot_index=21 split=validation degauss_Ry=0.00285013035 kgrid=8 lattice_temperature_K=450.0 trajectory_seed=0 p4_key=seed0:snapshot021 pbc="T T T"
C       -0.01569685       0.00632570       7.44741688       0.62296904      -1.03408792       1.26298012
C        2.44051180       0.01191274       7.37604035       1.40461525      -1.31974828       0.54425317
C        4.93756418       0.02700128       7.31334668       0.30579107      -0.61709664      -0.25688303
C        7.38340271       0.01271390       7.32390027      -0.56106382      -0.28190244      -0.21909707
C        9.83344421       0.01106239       7.42093347      -0.01505047      -0.70495921       1.34314223
C       12.29666080      -0.04518715       7.55185463       0.48219883       1.75057544       0.75898991
C       -1.21663214       2.16314572       7.61283745      -0.59394231      -1.42629917      -0.15393735
C        1.28801844       2.11255140       7.55436414      -5.14053099      -0.71525339      -0.19533493
C        3.68661425       2.12929702       7.46600004       0.10587057      -1.07220581      -0.68015192
C        6.05368843       2.13687887       7.03814662       3.66159389       3.15858352       1.66548735
C        8.59109329       2.15959673       7.30102757      -0.66588281       0.49000753       0.24327804
C       10.96267260       2.11221192       7.57546115       4.67162657       1.95818662       0.09973001
C       -2.40119606       4.23090600       7.62429626      -3.09081798       1.91241044       0.23866239
C        0.00460413       4.25601915       7.63156333      -0.99103069       1.48401092       0.52014188
C        2.43362872       4.24822741       7.44392344       1.95961821      -1.43732894       0.79726849
C        4.94602499       4.28201775       7.30224759      -1.78619010       1.66080897       0.34470292
C        7.44838894       4.25461841       7.27919777      -3.91430067       1.60559016      -0.22104082
C        9.79340713       4.27132864       7.56901203       2.92152138       2.42486781      -1.22392404
C       -3.65842221       6.36853710       7.56020163      -2.46391824      -0.77508502      -0.55496902
C       -1.26693222       6.41545543       7.63522689       1.29105914      -1.47652644       1.53689491
C        1.20466638       6.33826240       7.62714382       0.60851301       1.65847801       0.85169078
C        3.64179818       6.42121903       7.58457392       1.94129910      -1.38106112      -0.58509078
C        6.17659014       6.45570042       7.56862898      -0.62525038      -2.93869095      -1.83997938
C        8.60147123       6.38991977       7.45793623       0.53623622      -0.42696896      -0.83322563
C       -4.92868006       8.45470176       7.57886371       1.01732021       0.48340365      -1.38042194
C       -2.46611831       8.52471705       7.67713487       1.18375518      -0.92136922      -0.11491031
C        0.02136961       8.50540618       7.72952911       1.47752685      -0.45707169       0.15307474
C        2.46969284       8.55099313       7.64328108      -2.02237961      -0.56210203       0.11296964
C        4.91306215       8.51872608       7.45829196       0.09503003       0.01676102       0.73951920
C        7.42512472       8.57024172       7.41662729      -1.07037184      -2.34625145       0.10736361
C       -6.14980819      10.62442561       7.49429595       0.92244137       1.74787861       0.51543856
C       -3.70831122      10.67744769       7.41320332       1.30142531      -1.53132487       0.24908899
C       -1.19415495      10.58431556       7.40905041      -0.78222985       2.59711321       0.14810017
C        1.26378838      10.64519498       7.55524487      -0.46214628       1.65571690      -0.55367935
C        3.71608554      10.65376772       7.60024856      -1.37514784      -1.03067761      -0.08824309
C        6.12926244      10.60199115       7.69057802       1.61595993       1.93469599      -1.18179188
C        1.24327776       0.69300889       7.41975737      -1.62038043       1.16286291       0.41278907
C        3.68671502       0.66457214       7.40706425       0.56511870       2.93288849      -0.28819290
C        6.18008044       0.79920132       7.23696907      -1.85824707      -4.30496386      -0.20669587
C        8.57635511       0.74719722       7.39159791       1.82679939      -1.25973950      -0.78701853
C       11.06654074       0.69910662       7.55809961      -1.12998364       0.02829833      -0.81201917
C       13.52610591       0.72121493       7.54299630      -0.11989080      -0.56744478      -0.05774286
C       -0.01368428       2.89317785       7.61935285       1.90600428      -3.38757702      -0.28711380
C        2.44326522       2.76913916       7.55120954       2.77173688       3.83369299      -0.73506117
C        4.87714444       2.88830426       7.26229987       0.05821029      -1.84089469      -0.44479828
C        7.36681470       2.86867791       7.14582165      -0.53524506      -1.23428455      -0.07485124
C        9.80732340       2.91778294       7.48377396      -0.81702819      -4.41294325       0.00366922
C       12.31989743       2.84786064       7.63392079      -2.30492919      -1.60097734      -0.13009988
C       -1.23438493       4.99774330       7.71328309       1.05826426      -0.87703851      -1.21642027
C        1.23738906       4.91399870       7.57079899      -0.57972720       2.18944167      -0.09910883
C        3.66458144       4.98991490       7.41363061       0.26143208      -0.30626569       0.50189322
C        6.16084481       5.00376026       7.33993185       1.51798548       0.00271586       0.58472954
C        8.61653566       4.99287159       7.39804264      -0.22028646      -0.64627686       0.72510071
C       11.07250654       4.96349498       7.54160254       0.76180501      -1.11001723       0.89019228
C       -2.48240019       7.07640549       7.67159861       0.69586881       2.54590866      -0.31045582
C       -0.02258015       7.06773051       7.77169960       1.09267154       0.58416672      -1.24595299
C        2.44414311       7.12563275       7.67190129      -1.21996197      -0.70298897      -0.60735447
C        4.92132240       7.09697612       7.54529506      -0.74711424       1.41360486      -0.01746628
C        7.41077954       7.11039242       7.42789063      -0.85148612       2.12486558       0.60913908
C        9.83386461       7.04009533       7.42841988       1.01138174       1.46143278       1.68424869
C       -3.70647005       9.16944498       7.55353413       0.79704789       2.76674200       0.16330619
C       -1.13592804       9.21612108       7.69492756      -5.15663227      -0.16703172      -1.02847983
C        1.21844235       9.28120320       7.63453883       1.52212752      -3.21773149       0.56269004
C        3.66178664       9.23557727       7.56423221       2.40744319      -0.06929637      -0.02870354
C        6.16914985       9.24122136       7.44639652      -0.66347291      -1.35109594       0.84903766
C        8.65604643       9.22059157       7.47603629      -0.98160065       0.20485419       0.32139484
C       -4.90622810      11.38614257       7.44563057      -1.66025336      -1.24575065      -0.52632796
C       -2.46053735      11.39551036       7.29567402       0.98724988      -2.47789090       0.99981872
C        0.01452842      11.31121201       7.38527176       0.15635007       2.46971994       0.40748051
C        2.51543429      11.35705941       7.55074039      -2.25370562       1.22254618      -0.54858960
C        4.91437973      11.31663173       7.64614551       1.22700499       1.55345102      -0.23519860
C        7.38027400      11.34049221       7.62828393      -0.47067437       0.19993978      -1.17793446
72
Lattice="14.76 0.0 0.0 -7.38 12.782534959858314 0.0 0.0 0.0 15.0" Properties=species:S:1:pos:R:3:REF_forces:R:3 REF_energy=-11165.089146552296 config_type=fd_force_conv_snapshot_027 snapshot_index=27 split=validation degauss_Ry=0.00285013035 kgrid=8 lattice_temperature_K=450.0 trajectory_seed=0 p4_key=seed0:snapshot027 pbc="T T T"
C        0.07398286      -0.05536097       7.38403688      -3.89648062       3.59046329       1.27424953
C        2.44344303       0.06692209       7.46474295      -1.26187532      -2.80819255      -0.34539454
C        4.81490413       0.01891656       7.62178147       3.29644916      -1.92067217      -0.37644653
C        7.30905493       0.00032304       7.64238226       1.61639059      -0.91351372       0.04879928
C        9.83757405      -0.00482807       7.56237337      -1.51174335      -0.93422165      -0.25528380
C       12.31495626      -0.04494564       7.40401795      -0.44285324       0.05034169       1.29939723
C       -1.22964352       2.13520992       7.43805203       1.03580130       0.60507365       1.36642023
C        1.19893692       2.13654689       7.56301022       0.06311287       0.22047390       0.23296457
C        3.65390564       2.15559962       7.64668553       1.27690959      -1.23298666       0.24123504
C        6.17530137       2.09656267       7.71368458      -0.46430395       1.97367340      -0.28435347
C        8.63372397       2.14143457       7.72288140      -0.43688236      -0.52205401       0.16071966
C       11.06927332       2.09052149       7.50496948       1.95152309       1.62021845       0.65207496
C       -2.49223400       4.30825503       7.31429718       3.23089348      -0.35128957       0.62839381
C       -0.01402649       4.29992256       7.51252288       0.08038246       0.30690024      -0.57337632
C        2.43590023       4.30204981       7.61320484       0.89318350      -1.17285422      -0.38158025
C        4.92041848       4.21681970       7.69678328       1.44555390       2.38038181       0.73035862
C        7.44566210       4.29614786       7.78451329      -1.98510607      -1.08255322       0.09144925
C        9.92125728       4.22876236       7.57032315      -2.35694518       0.68178277       0.42593975
C       -3.69899480       6.37926080       7.24554967       0.32064279       0.40400207       0.04985832
C       -1.22246512       6.46624199       7.15989652      -1.04013798      -3.86435828       0.61439030
C        1.16608874       6.45022017       7.34057834       2.16799918      -1.73277929       0.32452901
C        3.72867341       6.40599799       7.51748988      -1.43293878       0.06476609       0.55604400
C        6.19116899       6.42708271       7.75434908      -0.57297574      -1.14634768       0.46188814
C        8.69289722       6.41362160       7.63487378      -2.04930703      -3.35444322       0.26629867
C       -4.96977260       8.48565742       7.44461723       1.55889353       0.52004392      -1.51038761
C       -2.45231099       8.45294604       7.25968821      -1.28542688       1.50069455      -0.23734008
C       -0.02568981       8.51053137       7.37563216       0.05905978       3.53022466      -0.69467505
C        2.45959055       8.55084038       7.32665265      -1.14317649      -0.68544222       0.11821392
C        4.86369392       8.53804305       7.63112846       2.94959937       0.16452001      -0.97512327
C        7.38964965       8.49396191       7.54880069      -1.29306177      -0.11882867       0.24872466
C       -6.18031467      10.64484003       7.32220796       2.40716011       0.44032687      -0.06923595
C       -3.66101876      10.59723860       7.39241111      -1.96560554       0.89809482      -0.53133312
C       -1.21313784      10.64727401       7.33063382      -0.44697009       0.31253224       2.37649739
C        1.25047750      10.67527074       7.45512210       0.10076925      -1.03825439       0.13769157
C        3.68838190      10.62264266       7.45138215       1.23132033       0.47167479      -0.43714050
C        6.18164253      10.59991423       7.49094509      -1.11240578       1.77404447       0.11708187
C        1.20348664       0.73122450       7.48903910       1.19964048      -0.30270292      -0.46745844
C        3.63677958       0.70532511       7.62702554       0.47431351       2.75180081      -0.19062982
C        6.08232812       0.70950686       7.61109572       0.41046196      -0.85476427       0.82754889
C        8.55225467       0.72242715       7.68581666       1.55299979      -1.09044007      -0.42309791
C       11.04625251       0.68007666       7.47772609       1.95126855       0.14697557      -0.00704919
C       13.54529578       0.68674783       7.51099553       0.16225718      -0.16095260      -1.71172556
C        0.02203657       2.88557940       7.56700875      -2.20822923      -1.04792663      -0.76924064
C        2.41664720       2.81142530       7.61666020       1.19440777       3.15720438       0.15787370
C        4.94163491       2.82362389       7.69718919      -1.22327123      -0.52581991      -0.00367128
C        7.42081227       2.85173508       7.74156343      -0.85554923       0.05856690       0.22235594
C        9.88878814       2.81186396       7.68958807      -0.35793381       0.46529125      -1.00926829
C       12.33644178       2.90832281       7.48809236      -2.03691071      -2.99825467      -1.05011695
C       -1.23068826       5.02999370       7.32423852      -0.14979221      -0.42099372      -0.41891395
C        1.21932336       5.01054668       7.47749102      -0.45951398       0.61910827       0.16286524
C        3.72401909       4.98029550       7.64162532      -1.60472010      -0.32724641      -0.54489261
C        6.15766015       4.99279883       7.81417024       0.74062709      -0.47724585      -0.80035433
C        8.67552714       4.95306683       7.70263745       0.85416341       1.04801327      -0.32098680
C       11.07355188       4.99164476       7.32477962      -0.71048939      -0.91375387       0.25300118
C       -2.47223956       7.06070028       7.13989207       0.10127293       1.17799771       0.41049127
C       -0.04014488       7.15514959       7.27074845       1.24896555      -0.99516065       0.03010685
C        2.42243306       7.11050733       7.35743277       1.70147560       0.69623082       0.37853169
C        4.93859274       7.15158353       7.68099371      -0.47283847      -1.77083110      -0.46346114
C        7.45993655       7.07433911       7.71312779      -1.50850813       1.34543180      -0.42838512
C        9.85645377       7.08068973       7.41978094       0.52403196       1.05775313       0.17252077
C       -3.70101285       9.11366247       7.30996493      -0.34274245       3.57104580       0.64944318
C       -1.26286434       9.23215794       7.32571133       0.78547947      -0.72070310      -0.40000195
C        1.19017679       9.27021827       7.37562766       1.66154482      -1.67979837      -0.10819793
C        3.70801772       9.23851895       7.37916872      -2.34653915      -0.89479866       0.91376801
C        6.13330569       9.21470629       7.56286518       0.88245377      -0.90384458       0.28553103
C        8.56271970       9.21196790       7.38062668       1.63451687       0.65259252       0.66470344
C       -4.92993388      11.42257727       7.28349398       0.63788581      -2.96450020       1.35921960
C       -2.46366081      11.34974406       7.52201431      -0.35929161       0.09018941      -1.17913388
C        0.03370083      11.32591880       7.58406710      -2.25062209       2.24215931      -1.41561520
C        2.50553242      11.32987455       7.43477243      -2.08591645       2.26689538       0.75786660
C        4.91931113      11.29046149       7.50643027       1.36771555       1.98243521      -0.74563252
C        7.40657403      11.37169108       7.42431725      -1.10006269      -2.91139638      -0.53954343
72
Lattice="14.76 0.0 0.0 -7.38 12.782534959858314 0.0 0.0 0.0 15.0" Properties=species:S:1:pos:R:3:REF_forces:R:3 REF_energy=-11165.790053704368 config_type=fd_force_conv_snapshot_033 snapshot_index=33 split=validation degauss_Ry=0.00285013035 kgrid=8 lattice_temperature_K=450.0 trajectory_seed=0 p4_key=seed0:snapshot033 pbc="T T T"
C        0.02021281       0.02025784       7.55962945      -0.21368284       0.89585950      -0.99906795
C        2.49189723       0.01992459       7.42047033      -0.23402618       0.14461195       0.09084119
C        4.94933201      -0.02728551       7.34428411      -0.02295455      -1.91178052       0.29084473
C        7.41723417       0.01851308       7.31143044      -0.80254723      -1.80802494       0.18265760
C        9.83683843      -0.06207677       7.48683809      -0.75560300       2.61282188      -0.14045474
C       12.27253482      -0.02783751       7.64337446      -0.80588426       0.12722564      -1.18709941
C       -1.30015513       2.09711132       7.57559667       1.41312663       1.46216554      -0.17611337
C        1.19232124       2.09706729       7.38209307       2.38537207       0.96370809       0.45382645
C        3.69477591       2.09377976       7.30640048      -0.28083286      -0.19995752       0.48569707
C        6.08366936       2.04202034       7.29268955       2.43093484       2.57640940       0.40912396
C        8.58874316       2.17215835       7.47771297      -1.47359204      -1.49358571       0.00054893
C       10.96170795       2.16045089       7.75408103       3.38610147      -0.46558127      -1.30605433
C       -2.47363288       4.35432717       7.65117460       0.57211699      -3.21636058       0.60331116
C       -0.01192055       4.23989092       7.61800651       0.57845733      -0.53759042      -0.17533767
C        2.48117488       4.20293654       7.34411008      -0.62771453       1.88352127       1.01013475
C        4.94502754       4.22008365       7.27855102       0.52394017       1.25700308      -0.53472261
C        7.39728152       4.24021325       7.26563484      -1.31352698      -0.14062777       1.54688082
C        9.81963376       4.31916156       7.64828693      -0.35874037      -0.44835103      -0.21386745
C       -3.67137735       6.38588046       7.69957323      -1.47889751       2.63837993       0.90703686
C       -1.21111204       6.43265227       7.86903388      -2.04472584      -2.62062209      -0.63544506
C        1.22304701       6.42029996       7.62869729       0.43494195      -2.62022512      -0.59444214
C        3.66655792       6.41491613       7.32030322       1.52997839      -1.45257224      -0.35110573
C        6.13004421       6.42510708       7.24610836       1.19088768      -0.54628486       0.08937952
C        8.54975786       6.42155770       7.50477397       1.26577877       0.58109348       0.01128046
C       -4.87828048       8.47090881       7.60405750      -0.68302281       3.95348120       0.23286661
C       -2.43106326       8.52367000       7.74165752      -2.59284390      -0.67075453       0.08286537
C        0.00101895       8.48100327       7.61431269       0.31407851       0.57843882       0.29994721
C        2.45330733       8.52459584       7.48141651       1.53598474       0.37017535       0.75412950
C        4.94651120       8.55982181       7.40550444      -0.30764689      -0.70493581       0.23875033
C        7.41126136       8.57715178       7.46428098      -1.52729158       0.09753943      -0.45032795
C       -6.11387346      10.65706679       7.44770792      -0.24800244       1.27219830       0.18741105
C       -3.67812509      10.69600644       7.59344890      -0.27816842      -1.59649745      -0.19776566
C       -1.19805142      10.63473671       7.63143535      -0.12325509      -1.66444888      -1.55207779
C        1.25725990      10.63378415       7.46987920      -1.25846809      -0.91687236       0.69826611
C        3.67491712      10.64981235       7.45193817       2.05558386      -1.36430704       0.57384246
C        6.18323408      10.69633515       7.45910064      -0.59005121      -0.67064938      -0.49317101
C        1.28347101       0.72026406       7.44190083      -2.57629679      -0.81066574       0.19246173
C        3.73227137       0.65780180       7.35938617      -0.14167524       2.06347869      -0.31513317
C        6.15894120       0.66836404       7.26917238       0.03701874      -0.71415193       0.29463377
C        8.61902652       0.73946886       7.34690339       0.78734918      -1.08428897       0.97367060
C       11.01486476       0.71045938       7.63178672       0.85403485      -0.30531490       0.39372151
C       13.47343251       0.68764347       7.59536582       1.65569890       0.10937010       0.33609743
C        0.00040945       2.78048237       7.46522796      -2.85860083       1.88865679       0.76606147
C        2.45280154       2.79824317       7.38625982       0.14910959       0.04312563      -0.93236120
C        4.92188219       2.80107203       7.31666805      -1.36268442       0.04343930      -0.52718799
C        7.29794986       2.79284902       7.43314000       2.00848305       1.23782188      -1.48071502
C        9.77612180       2.88992448       7.66039486       0.37964729       0.60392488      -0.10877643
C       12.27546192       2.88214219       7.63435905      -1.77395345      -0.32192217       0.62624771
C       -1.22215758       4.99265718       7.75395819      -0.12058217       0.31370081      -0.18740848
C        1.22881151       4.94651772       7.58528063       0.86062613       0.56846088      -0.72234989
C        3.73052850       4.94532551       7.26677708      -1.68348045       0.58130457       0.55019576
C        6.18284544       4.96745783       7.20662325      -0.93363235       0.43417422       0.27962418
C        8.58602135       4.99891160       7.49166638       0.05216588      -0.28709992      -0.42955421
C       11.05506464       5.02586931       7.68650889      -0.00570733      -1.70790387       0.00397698
C       -2.46041270       7.11215261       7.84756837       0.13818291      -0.31606520      -0.68967965
C       -0.02803888       7.07388011       7.70938006       2.87577529       1.77690045       0.18335617
C        2.45697378       7.12158117       7.44343303      -0.85330749      -0.76393466       0.42028306
C        4.91930455       7.12230432       7.28257802      -0.88097230       0.32860627       0.35161558
C        7.35642143       7.19385074       7.37949528       0.08540048      -3.00930450       0.09487268
C        9.81996408       7.11052263       7.66121919       0.59169903      -2.11469276      -0.54345896
C       -3.65348760       9.26600346       7.68666287      -1.19788211      -1.11134983      -0.29031509
C       -1.23939881       9.14124961       7.61096773       2.83442783       4.24595961       0.87174795
C        1.24317578       9.21647856       7.59644474      -0.97518009      -0.14397766      -1.01653089
C        3.72030667       9.24306369       7.52280159      -1.48753050      -0.56087510      -1.26617575
C        6.16210599       9.27892297       7.45005278       1.00488662       0.07620261      -0.28023225
C        8.63665301       9.22919755       7.48447257       1.47118986       0.83119549       0.33574725
C       -4.90902738      11.43430373       7.49769945       0.27024094      -3.45686337      -0.01976741
C       -2.42835315      11.30966958       7.50941346       0.30978502       2.29993174       0.25762197
C        0.02975715      11.33313261       7.45137768      -0.18993330       1.35303353       0.10223580
C        2.46892619      11.31118315       7.48618393      -0.52383553       1.73321227      -0.51687890
C        4.92063645      11.32388979       7.43184404      -0.29761753       2.33863944       1.25726456
C        7.41503539      11.42827498       7.42343133      -0.09865374      -2.52733167       0.89250010
72
Lattice="14.76 0.0 0.0 -7.38 12.782534959858314 0.0 0.0 0.0 15.0" Properties=species:S:1:pos:R:3:REF_forces:R:3 REF_energy=-11165.337524445033 config_type=fd_force_conv_snapshot_039 snapshot_index=39 split=validation degauss_Ry=0.00285013035 kgrid=8 lattice_temperature_K=450.0 trajectory_seed=0 p4_key=seed0:snapshot039 pbc="T T T"
C        0.00101552      -0.03168405       7.52349020       0.81332580       0.73097620      -1.25018477
C        2.45712180       0.01474553       7.57968238      -1.66051612      -2.43550087      -0.43059165
C        4.84999859       0.05229050       7.56534611       1.81081459      -0.91302984       0.13698015
C        7.36989598      -0.03898842       7.57601200      -0.05101583       1.65928431       0.40156081
C        9.82456710      -0.01744156       7.41313399       0.41295465       2.10742965       0.77525265
C       12.32375462       0.00601072       7.33910051      -2.18746552      -1.76091153       0.25616929
C       -1.21166690       2.08389291       7.35772234      -0.50841225       0.75439381      -1.59120355
C        1.26175715       2.11250369       7.60156744       0.03245015       0.62714323      -1.44829547
C        3.70895072       2.11587343       7.73163937      -0.74430454       0.96108402      -0.29763579
C        6.15785000       2.09639640       7.69732221       0.87323637       0.88715760       0.57455825
C        8.58670839       2.10713738       7.57833910       0.92543902       0.30902757      -0.15576797
C       11.08173455       2.14405833       7.37060885      -1.91042041      -0.79469276       0.16513913
C       -2.43043947       4.26711338       7.24636956      -0.92571412      -0.97968981      -0.52667660
C        0.02019364       4.22890413       7.37804751      -0.05590298       0.09814929      -0.03175390
C        2.49244435       4.23300800       7.67292220      -0.66978420       2.93111545       0.49417348
C        4.94325190       4.24796325       7.79444821      -0.67117980       0.33217907      -0.64006019
C        7.40376997       4.23874583       7.69303288      -0.22358982      -0.40425146      -1.33086753
C        9.90336936       4.27787857       7.41967740      -2.99201100      -2.13802295      -0.31858282
C       -3.65106928       6.37640974       7.30803164      -0.93229023       1.68254405       0.06134601
C       -1.23620008       6.37176859       7.41780057       0.06696721       1.09821689      -0.39933037
C        1.17888887       6.42136694       7.57986621       1.40050895      -1.29384673       0.09526349
C        3.69653874       6.45702247       7.51270375      -0.28443574      -1.04122273       1.54801159
C        6.16562123       6.38819064       7.63417133       0.55140058       0.70082050       0.13699300
C        8.61577132       6.27110393       7.43068647       1.14601858       5.08889553       0.59206335
C       -4.94534978       8.52827032       7.32053350       1.05278884      -1.12878525      -0.37217001
C       -2.46864514       8.52210101       7.30233264      -1.28457533       0.51042131       0.29222773
C       -0.06403704       8.56566912       7.46917642       1.27424875       0.36694656       0.55574986
C        2.41504568       8.54838813       7.78573052       0.70808618      -0.49963399      -2.14289236
C        4.93155675       8.60294107       7.62410123      -1.46091213      -2.40495308      -0.54322988
C        7.44391046       8.50095703       7.52176718      -3.27315008      -0.15941277      -0.04332206
C       -6.18545652      10.69908900       7.27429190       2.98244521      -2.58950198       1.05059132
C       -3.67387323      10.66527846       7.30215238      -0.51392418       0.07715443       0.69399139
C       -1.29012945      10.70086169       7.62043595       2.03914655      -1.08265735      -1.80458506
C        1.26681753      10.65067971       7.68712868      -2.61565961       1.63054452      -1.33756808
C        3.66322220      10.65018295       7.57250658       0.96855642       0.68515194      -1.04198404
C        6.13697189      10.67510059       7.34975295       0.81654765      -1.79497556       0.04707484
C        1.23919932       0.69203150       7.56156041      -0.95923231       0.35116821       0.65592750
C        3.59836572       0.73715509       7.59839817       4.22772689      -0.19944587       0.43756576
C        6.14741486       0.69860494       7.67741921      -1.26530054      -0.51257204      -0.87000320
C        8.59312282       0.69884376       7.51995089       0.15458732      -0.85953547      -0.14898232
C       11.06914451       0.72088942       7.42977908       0.65918123      -0.67962638      -1.04443713
C       13.54661564       0.65461891       7.38440656       0.06964013       1.88797494       0.52377922
C        0.03450831       2.78973325       7.29656201      -0.21471462       0.68532755       2.05781558
C        2.52312856       2.86030802       7.64946485      -1.99989248      -1.99664184       0.57258082
C        4.93863642       2.78676029       7.78958374       0.04407925       1.93429027      -0.19131424
C        7.40038887       2.82808212       7.66623050      -1.69418318      -0.33305633       0.40467004
C        9.79678192       2.82453327       7.49856183       3.17985606       1.13751620      -0.71473197
C       12.29153379       2.82708980       7.19022343       1.77086504       0.22157433       1.55001705
C       -1.22304513       4.96090662       7.27260992       1.27715102      -0.15499407       0.82540073
C        1.23038179       4.93381753       7.63972620      -0.37534609       1.41458779      -1.44671270
C        3.69139867       5.01457880       7.74539313       1.28658928      -0.64344402      -1.18125015
C        6.18021743       4.95545841       7.65688864      -1.00721449       0.19212054       0.96712842
C        8.60761210       4.91855159       7.42179099       1.60592338      -1.16799046       1.17404952
C       11.09890060       4.99123620       7.29776132       0.75195203      -1.57272889       0.14534240
C       -2.44462439       7.11098005       7.37275241      -0.05877053      -0.73727900      -0.69269684
C       -0.04107212       7.14018686       7.49028430       0.29059662      -0.62601066       0.01245005
C        2.41669155       7.14400663       7.57363179       0.63796371      -0.68452973       0.79619609
C        4.95274654       7.16200259       7.54943535      -0.72079617      -0.94600244       0.72941708
C        7.44917831       7.06373650       7.68801944      -1.35349452       0.20822567      -1.91963344
C        9.86785465       7.06382832       7.33184263      -1.38240761       0.26625650       0.14479502
C       -3.70929604       9.24570348       7.25777403       0.38373406      -0.67741241       0.20530876
C       -1.30205980       9.27513509       7.41312392       1.73978323       0.11750250       0.72883061
C        1.22138217       9.27083864       7.61225277      -1.45517086      -1.54490004       0.98363902
C        3.65376231       9.25344084       7.67652370       0.58994810       0.02912006       0.44160754
C        6.12573083       9.25138475       7.47667662       3.16433199       0.28685978       0.27809977
C        8.59154607       9.23213518       7.32386079       0.91979339       1.12145452       0.05299558
C       -4.89910122      11.35079014       7.45789889      -1.39567399       1.10833444      -1.30697890
C       -2.45559135      11.41856065       7.42465778      -1.98429206       0.05339744       0.77820916
C       -0.01081896      11.36147728       7.61261971       0.32138944      -1.23876856       0.61026419
C        2.45052517      11.38526261       7.51083722       0.52574277      -1.32630511       0.89772355
C        4.91810372      11.32386391       7.34198497      -1.20350794       2.18552870       0.87230614
C        7.38687495      11.36079624       7.33788065      -1.44050811       0.88245660       0.50017727
72
Lattice="14.76 0.0 0.0 -7.38 12.782534959858314 0.0 0.0 0.0 15.0" Properties=species:S:1:pos:R:3:REF_forces:R:3 REF_energy=-11165.528078147056 config_type=fd_force_conv_snapshot_045 snapshot_index=45 split=validation degauss_Ry=0.00285013035 kgrid=8 lattice_temperature_K=450.0 trajectory_seed=0 p4_key=seed0:snapshot045 pbc="T T T"
C       -0.00190559      -0.03874888       7.47161482      -0.11045639       1.68608189       0.87607435
C        2.50120468       0.04827649       7.57373200      -4.13360035      -1.92829420      -0.34680968
C        4.90809255      -0.00612513       7.59212762      -0.49281980       1.02841787      -1.97674870
C        7.32429062       0.06615076       7.34914755       0.87216576      -1.27793443      -0.53334835
C        9.78668730      -0.05786650       7.53704728       0.31018997       1.52250162      -1.79374915
C       12.27662927      -0.03369305       7.63258621      -0.27342139       0.44434473      -2.20996550
C       -1.22239854       2.10419383       7.50067722      -0.78094559       0.19930755       1.55876652
C        1.22042043       2.10110375       7.50611326       0.35329323       1.85879960       0.18816567
C        3.69472217       2.09426988       7.44659630      -2.26025062       1.87575140      -0.25931967
C        6.06652504       2.11961003       7.36824760       3.16560186       1.40847602       0.14903605
C        8.58113210       2.15032612       7.47224079       1.93302915      -1.09143509      -0.70935785
C       11.05225673       2.07890834       7.68122619      -0.02729663       1.73607570      -1.07291286
C       -2.46255508       4.25561150       7.65636664      -0.69144266      -0.42830722       0.02458926
C       -0.01536795       4.24776817       7.46063711      -0.60829704       0.89984214       0.10627115
C        2.48499282       4.25376756       7.44100389      -1.40294661      -1.30335081      -0.32796298
C        4.96913671       4.25197506       7.42346034      -1.53571478      -0.18884804       1.04740212
C        7.44418135       4.19717765       7.40269709      -1.72368093       3.86145422       1.31674086
C        9.86229964       4.29800190       7.56299682      -0.79130636      -0.65987028       0.12415292
C       -3.70687627       6.42387306       7.71208615       3.52308007      -1.67346111       0.38027156
C       -1.27573073       6.39311440       7.61362521       0.93482714       0.21302155      -0.49235006
C        1.21231909       6.42707001       7.42311024       0.85876131      -3.10743734      -0.57382163
C        3.71358677       6.37827147       7.30195829       0.78055761      -0.81033510       0.90920841
C        6.21451954       6.36536988       7.45985472      -0.64792802       0.89949016       0.83021281
C        8.64236420       6.43735815       7.55488632      -0.45403239      -1.10679255       0.59323166
C       -4.89695501       8.53757161       7.70115507       0.08171120      -1.04053342       0.32600020
C       -2.39529772       8.56339907       7.70050951      -2.45396550      -0.70500729       0.11889192
C       -0.02973361       8.49238239       7.40801593       1.54679906       2.27153082       0.53898036
C        2.46850385       8.49324383       7.32818606      -0.88014235       0.41504084       0.63952617
C        4.93601521       8.52472557       7.42990152      -0.57996271      -0.99972436      -0.14514443
C        7.37345031       8.56115618       7.62293115       0.10092120      -0.24719511      -0.78853214
C       -6.16730804      10.69872578       7.59836494       1.72365727      -2.05438830      -0.30516783
C       -3.67435966      10.65719625       7.63295217      -0.54055233       0.67805801       0.44462473
C       -1.20905157      10.66356278       7.44120931      -0.19100134       1.37634186       0.75714412
C        1.23840975      10.62948906       7.34686647      -2.06406208       1.29189424       0.12173556
C        3.73398259      10.63185452       7.32124411      -2.13061791      -0.20181437       0.41666501
C        6.09766915      10.69355690       7.32277106       4.78226705      -2.22508384       0.67614717
C        1.22957593       0.71716546       7.59453644      -0.37252122      -1.33995947      -1.04052134
C        3.65161142       0.72042203       7.45346710       3.89565323      -0.74550576       1.35271214
C        6.08273975       0.74490241       7.32372202       0.42324883      -1.53552426       1.44621390
C        8.57575762       0.73039848       7.37536698       0.55388710      -0.77873393       1.18265500
C       11.03485189       0.66865596       7.55824811      -0.23004251      -0.37977302       1.45804972
C       13.48909933       0.65121802       7.55930668       1.89672003       1.97089353      -0.32576134
C        0.01199090       2.85261192       7.51459982      -1.27692373      -1.77446664      -0.59594546
C        2.45009384       2.81426196       7.44187866       0.75116270       0.23655306       0.36793258
C        4.87929438       2.80838264       7.45130458       1.26508123       2.06185144      -0.48844507
C        7.39064810       2.83642945       7.41557951      -2.35386114      -1.52731472      -0.46193725
C        9.83219371       2.84621931       7.51668351       0.36341052       0.21188101       1.04862288
C       12.30325657       2.82913671       7.67324579      -0.20450477      -1.22301670      -0.73785930
C       -1.29722610       4.98623258       7.51940330       2.95117186      -0.74110557       0.58087057
C        1.22423703       4.91834214       7.41909413       0.17403772       3.14768873       0.31576798
C        3.70239451       4.94732450       7.42154829       1.52066045       0.89033754      -0.61026393
C        6.21308260       4.94860988       7.54830975      -0.57975522      -0.71634379      -2.06277755
C        8.59973622       5.01798288       7.49843536       2.23635324      -1.70997129      -0.17408888
C       11.09535836       4.98724220       7.70188122      -1.26994858       0.25148217      -0.47618785
C       -2.45410842       7.14243273       7.73457911      -0.27856514      -0.31295262      -0.32921999
C       -0.03048784       7.10472147       7.48186059       0.23852818      -0.72557817       0.03145822
C        2.49083051       7.06591125       7.30162886      -1.76367444       1.18456456       0.44663379
C        4.96476271       7.08071732       7.40606550      -0.12373640       0.22128431      -0.18749898
C        7.42326771       7.13441870       7.57981473      -1.21116700       0.16193271      -0.37717543
C        9.88726225       7.08219969       7.68750999      -2.82444913       2.93507624      -0.29929723
C       -3.66732852       9.23244630       7.73508765       0.35064988       1.17131567      -0.58991854
C       -1.21189845       9.26730559       7.52065086       0.59461826      -0.99824494      -0.24061386
C        1.23567880       9.23949998       7.39659756      -0.84178817      -2.44912823      -0.90999388
C        3.66886663       9.19834767       7.42407539       2.05367971       1.23564055      -1.34150984
C        6.12259726       9.28002169       7.43961361       0.95593281      -1.03734602       0.21273205
C        8.62972389       9.22641569       7.66348120      -0.49236266       1.91275343      -0.18579563
C       -4.92638412      11.41323403       7.56885597       1.01666330      -1.43194917       0.78290785
C       -2.42281469      11.37725375       7.62806374      -1.46298907      -0.80707365      -0.63646116
C       -0.02650410      11.42756277       7.34567021       1.35149498      -1.74012442       0.22139127
C        2.43746158      11.30863286       7.36009142       2.24925144       1.16456626       0.49537650
C        4.96220537      11.37605769       7.29657308      -4.48701905       0.47670001       1.48594825
C        7.38232132      11.35577262       7.44502232      -1.26131636       0.12297329       0.03335184
72
Lattice="14.76 0.0 0.0 -7.38 12.782534959858314 0.0 0.0 0.0 15.0" Properties=species:S:1:pos:R:3:REF_forces:R:3 REF_energy=-11164.94169990008 config_type=fd_force_conv_snapshot_051 snapshot_index=51 split=validation degauss_Ry=0.00285013035 kgrid=8 lattice_temperature_K=450.0 trajectory_seed=0 p4_key=seed0:snapshot051 pbc="T T T"
C        0.05936977       0.10415540       7.52483351       1.13138669      -4.49004472      -0.48243614
C        2.54109217      -0.00388008       7.52024331      -2.25211770      -1.05963517       0.40776128
C        4.96353353      -0.01716286       7.59068249      -1.13447844      -0.29162686      -0.81573776
C        7.39923850      -0.02795397       7.58473559       0.05153108      -1.01583155      -0.61068431
C        9.89155988       0.04490481       7.53905676      -0.46014776      -0.11506072       0.05121303
C       12.38395130      -0.02334921       7.54647434      -0.40299342       2.49679468      -1.19643740
C       -1.22647143       2.19354259       7.46630499       0.97725189      -1.91210551      -2.07633730
C        1.26055207       2.16432144       7.54443638       1.09576766      -1.14643125       0.36695170
C        3.77099428       2.10663440       7.60260182      -4.96682521       0.09665728       0.64521988
C        6.16103390       2.06504696       7.82735353       0.18203102       1.47019818      -0.54640082
C        8.58699164       2.18749610       7.60878399       1.36161561      -2.68694961      -0.67392573
C       11.08900182       2.13645715       7.37161103       0.46161895       1.65311417      -1.00397645
C       -2.46957967       4.29563526       7.19311347       0.20807552      -2.87053255      -0.45518039
C        0.00325661       4.30542933       7.34728468      -0.81737426      -1.53214634       0.61401774
C        2.40629816       4.26770858       7.66468444       2.29152449      -0.30023749      -0.78281427
C        4.92991110       4.18871764       7.81624786      -1.69011518       2.12362220       0.05484703
C        7.36609558       4.23538202       7.73360917      -0.11826612       1.51922783      -0.76258894
C        9.81748843       4.26635849       7.16705526      -1.19269568      -1.98356161       1.15574610
C       -3.78545459       6.33406605       7.18851203       1.31871213       1.10857946      -0.45030866
C       -1.30825604       6.39934684       7.29101970       1.72305872      -1.07287224       1.15002950
C        1.16400362       6.43115214       7.48571072       3.05674881      -1.80447733       0.35059177
C        3.64448294       6.37061321       7.66639758       0.96289793       2.02465298       0.04010072
C        6.06641676       6.34943432       7.59860310       2.04373005       1.96371681       1.16381705
C        8.54698242       6.36799439       7.40270036       0.14338400      -0.62529820      -0.39682021
C       -4.97006286       8.49898840       7.24847404      -0.05648225      -0.09365192       1.05234635
C       -2.46222380       8.43587692       7.30524840      -2.03866446       3.66227831      -1.02760514
C       -0.02063131       8.52905200       7.49446037       0.67907694      -0.19885246      -0.20136906
C        2.42585426       8.53885373       7.67635219       1.30049200       1.36257438      -0.32901533
C        4.89693055       8.57164366       7.50512292       0.88641610       0.49245213       1.56332097
C        7.36844184       8.52026016       7.51678857      -0.24851255       0.02626048       1.54594160
C       -6.14267702      10.64291248       7.56132801      -0.52039796       0.98416713      -0.27501188
C       -3.65827799      10.55998308       7.43703199      -0.75174711       3.24057112      -1.19879870
C       -1.20792428      10.61751966       7.32329047      -0.34310857       0.07115168       0.15280555
C        1.26504555      10.66834746       7.59767436      -0.41832723       0.55420026      -0.67093657
C        3.73889396      10.72024881       7.66720991      -1.15271476      -1.72763400      -0.82441652
C        6.16383995      10.70798013       7.49594988       2.17809719      -1.33687826       0.55362742
C        1.31092970       0.72048059       7.59301112      -0.37532321       1.41046606      -0.84191107
C        3.72033799       0.71957191       7.56283269       1.92060429      -1.62391441       0.03951374
C        6.17708995       0.66216907       7.67315971       0.37812237       0.92974510       0.23539246
C        8.59623162       0.71611654       7.53926334       1.74446444       0.84074096       0.74263461
C       11.17050591       0.76674627       7.51605733      -1.90743664      -2.78089695       0.12774577
C       13.60681282       0.70535906       7.39508154      -2.32254511       3.10539203       1.75181600
C        0.03336997       2.87144537       7.45896387      -0.95027767       0.50254268      -0.06316429
C        2.50316521       2.84076404       7.62454617      -0.70272157       0.37870216      -0.40008988
C        4.90409944       2.77767423       7.79470315       4.18020673       1.31047483       0.19824568
C        7.37705020       2.85126811       7.74976445      -1.22397623      -1.53287808       0.36942742
C        9.82953994       2.84389149       7.37756868       0.05411349       0.29617411      -0.21765365
C       12.32080358       2.86631027       7.15662727      -0.48942517      -0.17623678       2.38785730
C       -1.27340823       4.96152638       7.34375390       1.55382820       2.20736020      -1.15259161
C        1.21802373       4.98591056       7.41726536      -0.44432699       1.16830491       0.92780006
C        3.66199309       4.96221755       7.73522543       0.65593135      -0.89964982       0.03941887
C        6.13142947       4.95018541       7.80273133      -0.74565848      -0.69083691      -0.59700167
C        8.54731387       4.93461533       7.39012921       1.56950704       0.69999672       0.21880474
C       11.06235179       4.90961360       7.09469889      -1.91205383       3.12301797       0.47338123
C       -2.54460833       7.08318976       7.29458121       0.49118252      -2.39259044      -0.60927123
C       -0.02715992       7.08533415       7.45012180      -2.51707837       1.83808808      -0.48969231
C        2.43015780       7.12845988       7.63176068      -0.86420228      -0.82682255      -0.22663040
C        4.89040584       7.15771322       7.62096151      -0.95587316      -2.39483424      -0.45571801
C        7.34944340       7.06177140       7.58917393      -1.61841225       1.17988695      -1.12828723
C        9.75951668       7.07592532       7.19023410       0.36551960      -0.57361132       0.67049614
C       -3.74566848       9.18200711       7.22166422       2.86145913      -0.57145056       1.04165005
C       -1.23997835       9.18971073       7.30566923      -0.40647238      -0.01496665       0.75266088
C        1.21526227       9.28674866       7.63202530      -0.02947718      -2.77028575      -0.26320949
C        3.68226250       9.30089516       7.62143923      -0.40153432      -1.38486044       0.14940166
C        6.16216994       9.29821322       7.60877120      -0.41376840      -2.11676506      -1.62186036
C        8.61747563       9.23008947       7.57689930      -1.01907396      -0.98711284      -1.86838030
C       -4.91000969      11.32003521       7.49752229       2.04808061       0.71694363       0.24920160
C       -2.39797594      11.37589952       7.35927296      -2.14124222      -2.35597793       1.02683638
C        0.00789040      11.30095361       7.44530074       1.13720870       2.36187424       0.66393211
C        2.50278010      11.38984723       7.58779107      -0.27836203       1.42893455       0.59347977
C        4.97390947      11.36785773       7.54357112      -1.54571508       1.49950644       0.46258748
C        7.39678500      11.40688414       7.48686945       0.81627975       0.50914810       0.72564193
72
Lattice="14.76 0.0 0.0 -7.38 12.782534959858314 0.0 0.0 0.0 15.0" Properties=species:S:1:pos:R:3:REF_forces:R:3 REF_energy=-11164.261698710005 config_type=fd_force_conv_snapshot_057 snapshot_index=57 split=validation degauss_Ry=0.00285013035 kgrid=8 lattice_temperature_K=450.0 trajectory_seed=0 p4_key=seed0:snapshot057 pbc="T T T"
C       -0.06500252      -0.04056957       7.49007497       1.16610096      -0.58469354      -0.93965979
C        2.37648510       0.06794747       7.62183463       2.58814109      -1.45971374      -0.99593455
C        4.85140167       0.08564842       7.50659673       2.85211420      -2.27133542       0.20877358
C        7.33570443       0.05652048       7.47359757      -0.34000474      -1.65318488      -0.98162096
C        9.85498631      -0.05980778       7.47706816      -3.27306086       1.84350179      -0.59010597
C       12.25342863      -0.01341404       7.37977129      -0.29822817       1.17750766       0.93678504
C       -1.22446306       2.06347228       7.64690231      -1.11584952       2.09832306      -0.19915277
C        1.19759557       2.12224859       7.58170709       0.15057229       0.53696358      -1.02448948
C        3.68498961       2.20587569       7.47233549      -1.68754767      -2.41989041       0.14830020
C        6.10896153       2.24236990       7.35967257       0.31098701      -3.49528285      -0.05152979
C        8.60538409       2.17478726       7.47787661       0.35243679      -2.04871053      -0.45662638
C       11.10574490       2.11593193       7.63925883      -1.92598484       1.85525559      -1.09303020
C       -2.41843403       4.27352168       7.77178690      -0.68573892      -1.51326262      -0.30021023
C        0.00239182       4.20436876       7.73027876      -0.38677362       3.72662968      -0.58963572
C        2.41775485       4.23133850       7.36566651       1.63930529       1.94712214       2.24852305
C        4.94512145       4.28737661       7.29859424      -2.15953691       0.05354117       0.09180432
C        7.39210733       4.28074974       7.33735628       1.42205608      -2.03550766      -0.02432906
C        9.89404454       4.25576065       7.55829393      -0.68514089      -0.84212730      -0.26712168
C       -3.55977193       6.36344668       7.74019532      -2.01029208       0.91288303      -0.82508140
C       -1.18848724       6.41278937       7.66874478      -0.90695767      -0.97526262      -0.08847192
C        1.20091664       6.33764966       7.51194996       1.46477624       2.51711334       0.59265085
C        3.66368095       6.35914328       7.38255805       0.62111630       2.46063674       1.13003789
C        6.15767285       6.35747021       7.36705758       3.24039165      -0.74324730      -0.07782344
C        8.73355237       6.35128123       7.45522724      -1.46125511      -1.72787440       0.06215796
C       -4.91103580       8.45180953       7.47210578       0.94929474       1.79189564       1.84924281
C       -2.46480803       8.57261276       7.58200367      -0.10063632      -0.24009733       0.16698647
C        0.00509570       8.54433228       7.58127266      -1.11434876      -0.72348735      -0.85050190
C        2.48998236       8.58850326       7.48722661      -1.73672773      -3.98809159      -0.18045442
C        4.96436472       8.44028374       7.29952681      -1.25354160       2.79760604       0.39929952
C        7.40732501       8.52238559       7.48284097       1.23415137      -2.62445947      -0.48755186
C       -6.18206309      10.64817304       7.50062156       1.55221792      -0.63218439       1.07296557
C       -3.75038742      10.69426821       7.57795597       1.35919363      -0.28424857       0.68003905
C       -1.25888131      10.76420648       7.56395072       0.82560154      -3.92718370      -1.34346182
C        1.20859817      10.60545827       7.46810864      -1.21694555       2.23448045      -0.67316314
C        3.73480034      10.68207511       7.45788948      -2.40263831      -2.94664157      -0.91541480
C        6.19090835      10.59298012       7.30723897      -3.74130040       1.35711644       0.90406286
C        1.17188461       0.70870963       7.35514627      -0.99446182       0.55695545       3.02138072
C        3.68309340       0.76551065       7.58631720      -3.41416917       1.23547935      -0.32462980
C        6.10379559       0.78386890       7.44344320      -0.10235279       0.72695011       0.04355397
C        8.55942396       0.69838795       7.45147048       2.68625079       1.50347417       0.53728240
C       11.01670857       0.75737645       7.42749072       1.88215164      -3.98725496       0.74394356
C       13.47764954       0.64130998       7.51862716       0.98255427       1.86367184      -0.27404489
C       -0.02151649       2.85723416       7.64558764       0.31634570      -4.26099748       0.25031129
C        2.43784060       2.85450652       7.56200393      -0.53568317      -0.86986333      -1.11818588
C        4.85090833       2.88992405       7.26506139       2.67562648       0.84426389       0.89372754
C        7.36857411       2.87048502       7.39285970       0.26857538       0.25985934      -0.19265816
C        9.88008028       2.84939180       7.51140725      -0.52497633      -0.65460955       0.94389388
C       12.31296933       2.84043225       7.70003995       1.43249141      -1.15122044       0.11120304
C       -1.20527105       4.96536085       7.73430650       0.36171256       0.55303683       0.37234562
C        1.22090328       4.94472112       7.57868184      -0.34810449      -0.93140655      -0.71017160
C        3.68890875       4.99657598       7.42564462      -0.52923176      -2.70168281      -1.54532299
C        6.18857469       4.92417401       7.30474851      -1.64944341       3.01517999       0.13223723
C        8.64371901       4.88575209       7.39499897       1.32660079       3.69467087       0.69838361
C       11.11140431       4.95573388       7.71598076       0.89795984       0.45485257       0.12067061
C       -2.39360404       7.14854586       7.67152378      -0.30282993      -0.88774664       0.22421125
C       -0.00138581       7.08906526       7.54742904       1.07458922       1.35224368       0.55405576
C        2.44604683       7.09724871       7.53164894       0.15243865       0.30158552      -1.23092772
C        4.95288932       7.05428267       7.38415226      -1.21380495       0.05957195      -0.54829418
C        7.49186994       7.02246494       7.41995375      -2.74315239       2.57439006       0.11837153
C        9.96588552       7.03843239       7.59286682      -1.60330574       0.82988808      -0.56181149
C       -3.73468701       9.24883874       7.58364782       0.83234323       0.12581256      -0.69265982
C       -1.25579686       9.28367299       7.53471759       1.29789133       0.45447205       0.80809541
C        1.23232705       9.23123628       7.49650467      -0.37094051      -0.57165805       0.46946595
C        3.68965249       9.22370298       7.33965789       3.36677526       0.75406496       0.73842288
C        6.19425604       9.20623883       7.32812546      -1.35152969      -1.77273912       0.21256518
C        8.63614081       9.21482108       7.56297927      -0.60546317      -0.30660997      -1.29772010
C       -4.98049813      11.40995348       7.66413671       0.26478506       0.02753857      -1.18296096
C       -2.46449603      11.40673729       7.54307568      -3.37742708       1.68301071       0.31113562
C       -0.02822108      11.37353303       7.37003867       0.92201945       1.60152576       1.87779311
C        2.42469643      11.28193685       7.46302417       2.59049802       2.85107598       0.15640740
C        4.91891029      11.38699722       7.40444940       1.12177899      -1.97665228      -0.89789453
C        7.33669858      11.29095942       7.45310433       1.98754116       2.57477701      -0.29843437
72
Lattice="14.76 0.0 0.0 -7.38 12.782534959858314 0.0 0.0 0.0 15.0" Properties=species:S:1:pos:R:3:REF_forces:R:3 REF_energy=-11165.247954773617 config_type=fd_force_conv_snapshot_063 snapshot_index=63 split=validation degauss_Ry=0.00285013035 kgrid=8 lattice_temperature_K=450.0 trajectory_seed=0 p4_key=seed0:snapshot063 pbc="T T T"
C        0.01732493       0.03093968       7.45763579       0.20627395       0.43000029       0.89240831
C        2.46506844      -0.00521080       7.42881065       0.58370829       1.76291776       1.49839033
C        4.97237293       0.03785377       7.43843436      -2.11049209      -1.86196051      -0.11578655
C        7.41507777      -0.05005184       7.49380605      -0.85683016       2.25874961      -0.84722966
C        9.85273149      -0.01145343       7.57029040       1.75119328      -0.22458432      -1.85674760
C       12.29531044       0.01829460       7.55153475       2.52652769      -1.67357758      -0.92591698
C       -1.26457527       2.12973373       7.35137830      -0.43420250       2.59490309       0.41356863
C        1.25313709       2.15282664       7.37596606      -1.32736286       0.74934879       0.20501488
C        3.75142879       2.17395034       7.48746448      -3.56223875      -2.51298646      -0.34530892
C        6.14146865       2.13158907       7.58266060       1.44740690      -0.34012764      -0.72950681
C        8.55755473       2.13465055       7.60366277       3.23568628      -0.88258361      -1.88498937
C       11.02674585       2.12178850       7.48483436       1.70658155       0.43669519      -0.82704213
C       -2.48955094       4.36887205       7.45071377       0.42536819      -4.60395462      -0.73191542
C       -0.02776766       4.25725378       7.28324985       0.51857274       0.98812688       0.06079528
C        2.48424738       4.24038897       7.39831966      -1.30463739       1.74293052      -0.61825107
C        4.95001927       4.26188260       7.60609403      -1.61157620      -0.91220760       0.39496130
C        7.35559797       4.26585007       7.62521148       2.48556307       0.23145842      -0.11819001
C        9.85333671       4.28023189       7.49237663      -1.13312039      -0.60444527      -0.35211001
C       -3.72890387       6.39389959       7.44079567      -0.39276275       1.08617153      -0.36215351
C       -1.27868632       6.39916513       7.20054801       3.09038655      -2.49393227       1.25536837
C        1.22007487       6.40696454       7.40551087       0.55957978      -3.24006307      -0.85559448
C        3.75184198       6.34884728       7.61548547      -2.29456173       1.73488065      -0.36994344
C        6.12493855       6.36749643       7.71715108      -0.20521131       0.43199727       0.73670385
C        8.59626054       6.39778280       7.52430086      -1.63755643       0.77462967       1.05331669
C       -4.91794256       8.51454286       7.60726808      -0.98026908       1.58780790      -1.05190772
C       -2.44932809       8.44627678       7.35605309      -1.32361985       1.02223514       0.97793940
C        0.00517446       8.51024851       7.48113024       0.27365794      -0.90008125      -0.31067874
C        2.48643720       8.48816194       7.49049683      -1.67167908      -2.12636556       0.67866196
C        4.90970948       8.54881118       7.60126109       0.68195580      -0.49026335       1.30893756
C        7.34289873       8.51759246       7.53293679       0.30892833       0.78614307       1.81265550
C       -6.14667119      10.67949927       7.61848710      -1.14426381      -0.56221079      -0.13952323
C       -3.70207500      10.69958973       7.52559700       1.08030761      -2.34609821      -0.34117665
C       -1.23008629      10.63855467       7.51829658      -0.29851793      -1.26550957      -0.50395267
C        1.23588210      10.64171235       7.46260856       1.36086742      -0.46364858       0.38139127
C        3.67595751      10.61414259       7.61917046       2.10270602      -0.06635477      -0.74599273
C        6.17490924      10.62576463       7.66685690       0.12650496       5.60597111      -0.53242841
C        1.24896819       0.74332565       7.49840686       0.29902521      -0.27830880      -1.35043980
C        3.73159341       0.73334755       7.48180539      -0.83158424      -0.24734552      -0.60897170
C        6.15441950       0.71254927       7.41902754       2.77429359       0.61226605       1.27273026
C        8.64889461       0.68334853       7.44905846      -2.12278556       0.70390300       1.68908005
C       11.10845760       0.69522825       7.45534025      -2.48488919       0.72894811       1.38934727
C       13.56079517       0.75161645       7.42767792      -1.91859857      -1.89202237       0.36063553
C       -0.04807731       2.88391493       7.34824632       1.75362657      -2.61616252      -0.28374900
C        2.48272556       2.86689246       7.37427363       0.52544710      -1.87667494       0.53548880
C        4.92959414       2.82534827       7.57991025       1.79334651       2.18323605      -0.10338843
C        7.39111850       2.86424003       7.57252349      -2.22191496      -0.95800178       0.67717484
C        9.82589919       2.82699982       7.46210582      -1.54795168       1.26244045       1.24651735
C       12.22739241       2.88022149       7.41068980       1.53473699      -0.01390453       0.29640731
C       -1.25845674       4.97489191       7.31878162       0.89883067       1.26313259      -0.55275684
C        1.23687511       4.92970527       7.27308164      -0.44383051       1.90956757       1.04849870
C        3.68902676       4.95988821       7.52252322       2.41432963      -0.68112611       0.50814846
C        6.16145588       4.94129348       7.74036342      -1.43109685       1.34482708      -0.81909330
C        8.60143587       4.99961759       7.51637423       0.24394730      -1.45791448       0.39804379
C       11.06346028       5.03434376       7.44996970      -1.86069373      -1.98640679       0.25517787
C       -2.48065821       6.99725110       7.31366903      -1.27958354       4.78729767       0.01410250
C       -0.01800922       7.07514057       7.35422169      -0.05395280       1.73761965      -0.18545470
C        2.48606432       7.02388808       7.49351790      -0.03341251       2.40729869       0.23956819
C        4.93914078       7.14210379       7.72815738      -0.53583230      -1.99184133      -1.03004075
C        7.29746634       7.07962856       7.70821641       3.70688953       1.39964608      -1.91915985
C        9.80392868       7.12260996       7.51661018       0.54671192      -0.70351039       0.03161480
C       -3.68031672       9.20529632       7.49328598       0.24552055       1.22639075       0.24502047
C       -1.24996881       9.17289847       7.49232499       0.91819699       1.53397594      -0.57489404
C        1.26936339       9.21032277       7.50525187      -1.55135043       0.25896305      -0.36777291
C        3.65855715       9.16495306       7.62752339       1.72904451       2.90177634      -0.65116324
C        6.13533438       9.30593033       7.65537358       0.45853414      -5.50688542      -0.79160333
C        8.58980413       9.26358216       7.56982002       0.22261383      -1.88476851       0.41351952
C       -4.96098175      11.37600768       7.58318580       3.04543004       0.45877556      -0.82590493
C       -2.42242793      11.37125160       7.42756376      -1.70594623       0.38131517       0.78418389
C       -0.00004833      11.34434422       7.50255787       0.66376011      -0.96395260      -0.13672767
C        2.51692363      11.34755278       7.45946762      -3.11331976       0.19404733       1.17500546
C        4.94044801      11.33333470       7.58744929      -0.98178500       0.86461057       0.79207409
C        7.41988216      11.41980674       7.61524504      -1.83863238      -1.75522322      -0.27498617
72
Lattice="14.76 0.0 0.0 -7.38 12.782534959858314 0.0 0.0 0.0 15.0" Properties=species:S:1:pos:R:3:REF_forces:R:3 REF_energy=-11164.88082776226 config_type=fd_force_conv_snapshot_069 snapshot_index=69 split=validation degauss_Ry=0.00285013035 kgrid=8 lattice_temperature_K=450.0 trajectory_seed=0 p4_key=seed0:snapshot069 pbc="T T T"
C        0.03531212      -0.00118765       7.47621843      -1.66889818      -2.51916945       1.26467705
C        2.46277373      -0.02617878       7.52434423       0.57423815       0.16559884      -0.82722416
C        4.88111868      -0.02520399       7.35567639       1.48370650       1.03825234       0.30305516
C        7.39143909      -0.00230881       7.31761859      -1.22144884       0.61982947       0.34412082
C        9.84210386      -0.01497918       7.37276240       0.40925020      -0.21539982       0.01683635
C       12.31493799       0.03958818       7.51917964      -0.36961999      -3.12410066      -0.59963679
C       -1.18091000       2.10040565       7.60268492      -1.64426649      -0.38014532       0.36815215
C        1.23757940       2.15950184       7.56063405       1.06678798      -1.59389576      -0.13003123
C        3.68283112       2.15588240       7.29843199       1.53893920      -1.46986780       0.78741860
C        6.10702562       2.12432228       7.33221369       3.26915278      -1.65739480       0.11428476
C        8.59315565       2.11291701       7.38531514       0.84280170       0.03538301      -0.31381445
C       11.10706981       2.10858101       7.63115012      -2.98390483      -0.07104395      -1.09563473
C       -2.52446442       4.22083359       7.76701944       2.09685341       0.46307882      -0.24188501
C       -0.02178111       4.32809468       7.72785150       2.24698450      -2.38241221      -0.02602676
C        2.50370567       4.28023900       7.39399997      -0.53306759       0.38359034       0.82654693
C        4.96195948       4.26403570       7.27605754      -1.46501921       0.11512474       1.15317885
C        7.31934296       4.21687629       7.47940283       2.21598239       2.38009745      -0.65863487
C        9.76406335       4.27494477       7.76362729       1.84299760      -2.25550668      -2.11688539
C       -3.67505475       6.38454806       7.60308869      -0.55997238      -0.32909632       1.26230341
C       -1.27506832       6.38246226       7.73142017       2.91818280      -0.01389913       0.44390765
C        1.21317698       6.45235132       7.54357717       2.15566406      -1.16580271       1.19222414
C        3.72027706       6.40033882       7.36813294      -1.32763128       1.00097777      -0.21460767
C        6.16520583       6.43683707       7.40603579      -0.49783165      -0.67478654      -0.10351004
C        8.60773602       6.37648100       7.60163537      -1.87390072       0.69684558       0.12306945
C       -4.98382607       8.46607914       7.59464663       2.66448460       2.24922933       0.82215163
C       -2.44431713       8.50663572       7.75036025      -0.38626943       0.80101536      -0.84787937
C       -0.01866425       8.49864255       7.70042167       0.83082448       2.32918164      -0.17313706
C        2.46544619       8.59625643       7.43863309      -1.06636195      -2.84384656      -0.51938444
C        4.86550459       8.52262239       7.33342279       2.60778920       0.28098018      -0.15739137
C        7.38508622       8.59989619       7.27752395       0.27843762      -2.57039019       2.04312301
C       -6.14314324      10.71158393       7.43079516      -0.51629140      -2.65323345       1.24889228
C       -3.65422806      10.59648546       7.51026380      -0.46224475       1.48893587       1.00605518
C       -1.21819672      10.64189312       7.55911710       1.56104143       1.98644973       0.06266318
C        1.22754756      10.63241813       7.51585707       1.20606927       2.14399176      -1.86723899
C        3.69385155      10.64328266       7.23247507       1.09383933       0.75323270       0.85313548
C        6.09058152      10.58970346       7.46959503       2.84372211       4.30837597       0.06167202
C        1.24047498       0.66421785       7.59221122       0.65766891       2.98013919      -0.89478967
C        3.66575416       0.71201222       7.32035499       0.06708625       0.05221911       0.95192986
C        6.11660501       0.69298808       7.34365965       0.47446315       0.03083010      -0.52666014
C        8.60720105       0.69057477       7.34714351       0.61073007       0.61585248      -0.09746692
C       11.07574935       0.70868657       7.53396428      -0.31219594      -0.36672699      -0.49035360
C       13.55346077       0.63728696       7.49110368       0.64722380       4.43543269       0.65347852
C        0.01134128       2.84352311       7.67358661       0.04419264       1.48702065      -0.33990421
C        2.49091759       2.85870563       7.39553689      -1.68018018       0.13319420       0.29797980
C        4.96695727       2.83146057       7.40891360      -3.67731567       1.52333774      -1.79121250
C        7.36981701       2.83343540       7.33365506      -0.87633249      -0.78521773       0.74754722
C        9.82848875       2.80501806       7.46923957       0.28989342       1.77995981       2.36855474
C       12.30355863       2.79324558       7.68010726       1.53841135       1.14993180       0.34161913
C       -1.25958329       4.97910634       7.78940176      -1.05951099      -0.81678754      -0.50256582
C        1.29788958       4.99693698       7.63235320      -2.63504264       0.89071935      -0.92987751
C        3.73288437       4.99313285       7.34725346      -0.46403244      -0.75683301      -0.50789006
C        6.13634235       4.99118390       7.36283198       1.13710868       0.16019875       0.34447717
C        8.58238701       4.98019933       7.60257557      -1.89306521      -1.50084522       0.40115071
C       11.02626824       4.95585711       7.73869440       0.27128044       0.42448399      -0.06141620
C       -2.41033595       7.10290558       7.58947970      -3.59722246       0.03591574       1.29315665
C       -0.02002684       7.11355477       7.80680127       0.10973185      -0.86550686      -1.67246584
C        2.48310752       7.16964979       7.39869874      -1.22082843      -1.51307956       0.72317727
C        4.92042178       7.13112838       7.36972716       0.36185500      -0.78349767      -0.17189342
C        7.37700417       7.14484876       7.46531126       0.92659318       0.18250513      -0.75409324
C        9.81368637       7.05275188       7.71433225       1.33469230       1.19377862      -1.53912534
C       -3.67490620       9.21165141       7.71135444      -1.58167530      -1.48492752      -1.14240361
C       -1.24493706       9.25529934       7.69604492       1.11431225      -1.53857153       0.21817533
C        1.23885962       9.25717603       7.53112613      -1.90769838      -1.81335921       0.75756938
C        3.66594857       9.21985361       7.28670614       1.46909364       2.41827730       0.19915277
C        6.14433837       9.24108887       7.35573186      -1.91870425      -1.85187022      -0.61035289
C        8.62260565       9.27132732       7.46111345      -0.67501588      -0.64091894      -0.77277205
C       -4.90557564      11.32626806       7.48714950       1.17051554       1.40952040      -0.08133299
C       -2.41372929      11.36264063       7.53829267      -2.33936758      -1.21156706      -0.91236290
C        0.05289880      11.40247287       7.43002169      -2.38588346      -2.74976398       0.83208817
C        2.47679693      11.32461184       7.27318883      -0.87388223       1.21485267       1.15377792
C        4.94747501      11.38327482       7.40356041      -2.56189681      -0.90422767      -0.28329469
C        7.36067609      11.34816173       7.56758299       0.26397696       0.14535089      -1.60614603
72
Lattice="14.76 0.0 0.0 -7.38 12.782534959858314 0.0 0.0 0.0 15.0" Properties=species:S:1:pos:R:3:REF_forces:R:3 REF_energy=-11165.412928414236 config_type=fd_force_conv_snapshot_075 snapshot_index=75 split=validation degauss_Ry=0.00285013035 kgrid=8 lattice_temperature_K=450.0 trajectory_seed=0 p4_key=seed0:snapshot075 pbc="T T T"
C       -0.02674263       0.00073296       7.32327264       0.08509452      -2.03682227       0.42137553
C        2.43745688      -0.00408466       7.38674640       0.32279532       0.02757791       1.55673663
C        4.88483642       0.01825300       7.62541538       1.28787252      -0.15218360      -0.04752170
C        7.40739472       0.01684172       7.61084420      -1.51450806      -0.23445813      -0.72138778
C        9.85437634      -0.03424613       7.50882773      -0.29892262       1.31192596      -0.26032599
C       12.30326622      -0.07425197       7.51447061       0.39183895       1.97723618      -1.10442662
C       -1.27204695       2.13447523       7.25063249       3.07812393      -1.60992735       0.16127990
C        1.19467000       2.06480100       7.27178898       2.37077026       1.82198783       1.20631892
C        3.67470554       2.13809923       7.53445030       1.50870431      -0.58815039       0.98068071
C        6.10182433       2.15276308       7.77223542       1.45046857      -0.76412980      -1.16581633
C        8.56922184       2.14532798       7.53565405       1.17943598       0.61126255       0.35122529
C       11.08186457       2.11320029       7.36599308      -0.79282409       1.66024976      -0.53925315
C       -2.42823620       4.27460944       7.23025654       0.19536013       1.60181244      -0.75509597
C       -0.01122180       4.27816490       7.30309063       1.18644969      -0.52946136       0.24980581
C        2.43950638       4.21277230       7.48062437      -0.27286424       3.82780157       0.78807963
C        4.88655540       4.24043973       7.76219399       0.48437398       2.79877820      -1.14432166
C        7.38542896       4.22220092       7.61779228       0.73025012       2.88392028       0.21360159
C        9.86387949       4.29600143       7.39015385       1.07535644      -1.40255092       0.00186199
C       -3.64683326       6.44134728       7.44093856       2.39708601      -2.37336527      -1.29253727
C       -1.17454093       6.46360667       7.32731983      -0.85804732      -0.75467457       0.32338590
C        1.19819959       6.45534914       7.53965606       1.03834850      -1.93716708       0.10162799
C        3.70655409       6.41056174       7.60565500      -1.04914893      -1.60601079       1.10246718
C        6.15861507       6.38167919       7.62337822      -0.08101495      -1.60636303      -0.08607102
C        8.62476923       6.41646964       7.52281122       1.66416632      -1.98170964      -0.78535066
C       -4.91733152       8.50639845       7.37126360       2.16905719       0.40301502       0.99436001
C       -2.46787179       8.55459604       7.36263851       1.87159212      -0.21838642       2.38267370
C       -0.00054275       8.62541701       7.58371847       1.23174790      -2.40713286       0.52021285
C        2.51166743       8.50681713       7.65632244      -3.35278151      -1.63607162       0.36354730
C        4.91610353       8.52371518       7.69661326       0.24502047      -1.86781234      -0.88020174
C        7.30813121       8.49426154       7.44839780       4.43925515      -1.56212823       0.02536342
C       -6.15104826      10.64436379       7.39620624      -0.72575969      -1.78982719       0.75996127
C       -3.73011895      10.66930645       7.46976730       1.55690324       0.65657156       1.18351401
C       -1.27702840      10.66931925       7.66798029       1.48474651       0.03563806      -0.82236940
C        1.22995569      10.63864624       7.58915836      -0.22909789       0.16799305       0.14455230
C        3.70644962      10.61441239       7.65127738      -1.31957062      -0.80390657      -0.65738223
C        6.13843814      10.58341714       7.43255698       1.59648948       1.73824391       0.77439905
C        1.19168888       0.65331203       7.31494855       1.24501120       1.89191824      -0.40349505
C        3.67229969       0.71863655       7.62380585      -1.25184853      -0.05464880      -1.74660154
C        6.12929189       0.71316225       7.62381020       0.60159546       0.89458963       1.03582753
C        8.63163040       0.75756056       7.52388640      -0.35676885      -3.02418399       0.37245258
C       11.08771549       0.70379202       7.42760739      -0.13178986      -1.67937619       0.77911059
C       13.51855940       0.68076917       7.33987344      -1.47224735       0.52588444       0.23433728
C        0.01321731       2.79909277       7.31224366      -1.55766326       1.52786340      -0.96151031
C        2.50871154       2.83808508       7.44530356      -4.44284929      -1.78708125      -0.95433539
C        4.89311082       2.87332968       7.69235954      -0.17472651      -2.13805508       0.42597780
C        7.36025878       2.86091445       7.68934767      -0.91271154      -2.19826621      -0.16931511
C        9.79148943       2.84282959       7.44220455       2.86322933       0.39843846      -0.61409179
C       12.34187266       2.86867881       7.19632133      -3.29683842      -0.86677981       1.03042950
C       -1.20194813       5.02088406       7.21120831      -0.21580117      -0.31675400       0.79404305
C        1.20288618       5.01064478       7.47242462       0.08757820      -1.37788529      -0.71604272
C        3.63857281       4.97968304       7.64200123       1.82882876      -0.80535924      -0.22060785
C        6.16415439       4.95001984       7.65736363      -1.21750682       0.07404211       0.62155982
C        8.66112822       4.95601344       7.53195073      -2.22417984       1.75404309      -0.07964043
C       11.12798207       5.01292956       7.25525350      -1.44999343      -0.66670479       1.47698178
C       -2.40529893       7.14406355       7.42020767      -1.16032472      -0.03591111      -0.98848452
C        0.01345442       7.20733697       7.48354438      -0.26507739      -0.87811606      -0.26074431
C        2.44809760       7.06430480       7.66991466       1.32609736       2.39209936      -0.79730835
C        4.95104075       7.10223580       7.68084676      -1.16328971       0.03909182      -0.18478827
C        7.37313185       7.05529749       7.50017389       0.43758016       1.96815247       0.40007162
C        9.93288549       7.09856654       7.40904966      -4.66431126       0.96433261       0.55727967
C       -3.65382398       9.26740161       7.49053431      -2.96767577      -0.61360045      -1.61669244
C       -1.24576478       9.24084126       7.63437840      -0.43102385       1.88667447      -1.39181810
C        1.28839839       9.23946195       7.66584253      -1.66783194       0.26122331      -0.46296363
C        3.67982304       9.17706653       7.65276991       2.31395891       2.50644686       0.50121034
C        6.13593298       9.18049666       7.50419946      -0.91580869       1.61222284       0.33392691
C        8.62668222       9.15766142       7.42979208      -2.61729997       2.50342478      -0.59330442
C       -4.97495033      11.37073254       7.50848127       2.07038982      -0.32354582      -1.35617721
C       -2.46568415      11.39423901       7.56882234      -2.10906744      -0.68878928       0.18764502
C       -0.02260249      11.35848038       7.56205921       0.79652519       0.56290370       1.02957486
C        2.45938937      11.30219681       7.55680766       0.89792076       2.33829080       0.40969809
C        4.93106849      11.29276300       7.57179574      -0.16117989       0.74541243      -0.27209162
C        7.39529100      11.35185000       7.41876348      -2.18766760      -1.05377332      -0.74508178
72
Lattice="14.76 0.0 0.0 -7.38 12.782534959858314 0.0 0.0 0.0 15.0" Properties=species:S:1:pos:R:3:REF_forces:R:3 REF_energy=-11165.161599991146 config_type=fd_force_conv_snapshot_081 snapshot_index=81 split=validation degauss_Ry=0.00285013035 kgrid=8 lattice_temperature_K=450.0 trajectory_seed=0 p4_key=seed0:snapshot081 pbc="T T T"
C        0.05054598       0.01036086       7.65828525      -0.43200267      -0.82104451      -0.52670822
C        2.57072040       0.05486791       7.47177532      -5.07615931      -2.14998397       1.45766354
C        4.90718307       0.01436575       7.54459463       1.20875093      -1.67576354       0.41844961
C        7.29920677      -0.08510692       7.36896116       3.77931107       1.23883232       0.80245210
C        9.82730389      -0.00363607       7.62929942       0.16723483      -1.38097576      -2.27639123
C       12.26686465      -0.01759407       7.66141562       2.08440645       1.56057529      -0.55278127
C       -1.22349539       2.11882767       7.79186485       0.25317859      -0.54157897      -0.50417148
C        1.22462071       2.13877423       7.60650299       1.26857382       0.05310562       0.59842735
C        3.70756652       2.16929363       7.52032850       0.56876247      -1.23773112       0.11797815
C        6.19363845       2.09307528       7.45401431      -1.32925931       0.86603650       0.05229984
C        8.55879529       2.12087605       7.57420842       2.57282323      -0.64007947      -1.79372369
C       11.01991920       2.15591992       7.72809964       3.57341508      -1.18754447      -0.61851178
C       -2.47677919       4.28327063       7.70771035       0.55995284      -1.97058191       0.63690519
C        0.01892034       4.26952671       7.61323179      -0.54014918      -0.54318000       0.15063245
C        2.51070540       4.21806359       7.32053496      -1.72258872       2.75556696       0.83838326
C        4.95192652       4.27276969       7.24939639      -0.42996687       0.33312550      -0.27637662
C        7.28639439       4.28813721       7.42468710       4.03833326      -1.15227973       0.14614587
C        9.79354887       4.27297284       7.71696395      -0.27854355      -2.07245776      -0.92378940
C       -3.72909281       6.34576141       7.86045679       1.55402514       1.57938445      -0.34093908
C       -1.23037679       6.40944816       7.62662534      -0.84258599      -1.08027985       0.55074084
C        1.23321558       6.36409095       7.40297322       1.61860200       1.17641725      -0.31617010
C        3.64371674       6.39469934       7.10486536       4.47412316      -0.28410073       0.23140211
C        6.13400330       6.48942454       7.22180784       1.10612920      -2.09915635       0.00111560
C        8.57331892       6.38255665       7.65203632       0.20053679      -0.05993061      -0.70454732
C       -4.90715045       8.48503138       7.65659525      -1.02261874       1.27016790      -0.11896366
C       -2.49339644       8.53126189       7.63797001       0.90025069      -1.38455448       0.03531693
C       -0.05479362       8.49120345       7.40364629       4.43307447      -1.59277373      -0.63345966
C        2.47350785       8.52783939       7.18919697       0.13136280       0.38740328       0.73606107
C        4.89629132       8.56428123       7.25499913       1.12146095       0.33744212      -0.66897662
C        7.39165713       8.54606743       7.35599405       0.23913342       2.04484822       0.07279333
C       -6.09246733      10.68198641       7.57715146      -1.95728391      -0.52548566      -0.77100108
C       -3.69364985      10.61505796       7.62945168       0.61910853       3.31652125      -0.29046652
C       -1.24069765      10.60520876       7.48418617       0.54187028       0.25042853       0.03894527
C        1.20465856      10.60037764       7.25602247       2.60347438       1.91507205       0.97007697
C        3.71828243      10.66617148       7.39118291      -1.68705325       0.52205710      -0.50803713
C        6.10321436      10.64006391       7.34828744       3.26644027       3.54973650       0.64334040
C        1.29823025       0.74443282       7.60437727      -0.67911191      -1.15475905      -0.30743195
C        3.72021602       0.71087834       7.54752873       1.62853674       3.53660716      -0.28083697
C        6.13737336       0.66434544       7.50291486       0.35474976       1.20476032      -0.60608023
C        8.59442919       0.64404759       7.39922191      -1.82754527       2.06360571       1.77818909
C       11.06142907       0.73548198       7.64623222      -0.96420688      -0.97792449       0.99628499
C       13.55806538       0.68364655       7.71991641      -0.94411911       0.57397950       0.19050280
C        0.01075223       2.82137794       7.69891985      -0.67167859       1.52929987      -0.17366285
C        2.46574842       2.85520017       7.56982001       0.90221090      -0.71576350      -1.23812347
C        4.96811060       2.84178787       7.43153126      -0.89731269       0.33930746      -0.31396975
C        7.37323367       2.86990133       7.45860041      -0.99888566      -1.61543312       0.16432794
C        9.85961901       2.84149177       7.55114111      -3.84309757       0.49545646       1.67735813
C       12.31817842       2.82802668       7.76705926      -1.54450229       1.39517802      -0.16364455
C       -1.22840028       4.98315709       7.64601354      -0.36235174      -0.16356587       0.25398771
C        1.25175461       4.98229029       7.47308894       0.60318363      -1.93512074      -0.54829726
C        3.70266425       4.97888464       7.13680117       0.10198461      -1.54185303       0.79261300
C        6.16864980       5.01931802       7.23245876      -2.88510813       1.39501347       0.21719960
C        8.54767222       4.92238719       7.57894647       0.31548310       3.01026789       0.67400621
C       11.01489944       4.93515634       7.80186330       1.33367055       1.39231201      -0.08266868
C       -2.47498312       7.12810421       7.77438175      -0.63411374      -1.71931262      -0.56374548
C        0.00634500       7.03470919       7.50592828      -0.24112268       2.92900946      -0.42547104
C        2.52475239       7.10331765       7.24127663      -5.07536278       0.68903379      -0.11808665
C        4.91210456       7.16043140       7.15380485      -1.06078703      -0.75705027      -0.11202065
C        7.38380945       7.16252660       7.38970575      -0.27558189      -1.87125377       0.24193052
C        9.83588165       7.08212669       7.78595947      -1.27724692      -0.77491635      -0.43473806
C       -3.70880936       9.23566214       7.62739932       0.21621332      -1.21137320       0.56196319
C       -1.22513863       9.15203697       7.45572663      -2.66723851       3.05960608       0.77526396
C        1.24594898       9.23020230       7.22512262      -2.22728059      -2.52827090       0.49930849
C        3.67752756       9.28217277       7.28544110       0.56614149      -1.78962253      -0.59835664
C        6.16079681       9.29460968       7.23517560      -0.96617069      -3.60753181       0.63868311
C        8.63458752       9.23608889       7.50511293       0.35001353       0.24987266       0.46877253
C       -4.87853361      11.41275216       7.58997111       0.36347763      -1.20401496      -0.27511884
C       -2.44401090      11.37631406       7.61101484      -0.67869950      -2.02823144      -0.70081922
C        0.00530138      11.29878404       7.41485436      -2.17374251      -0.09390543      -0.76761185
C        2.47730466      11.32677150       7.40558052      -1.27584721       1.44935373       0.34367242
C        4.91897365      11.39034073       7.41032059      -0.50755016      -0.62202930       0.77392005
C        7.38768923      11.35705884       7.52146487       0.37687693       0.24203131      -0.01141544
72
Lattice="14.76 0.0 0.0 -7.38 12.782534959858314 0.0 0.0 0.0 15.0" Properties=species:S:1:pos:R:3:REF_forces:R:3 REF_energy=-11165.559686346325 config_type=fd_force_conv_snapshot_087 snapshot_index=87 split=validation degauss_Ry=0.00285013035 kgrid=8 lattice_temperature_K=450.0 trajectory_seed=0 p4_key=seed0:snapshot087 pbc="T T T"
C        0.01858634      -0.05487843       7.29021660      -0.55573649       2.60291105       0.01047236
C        2.46476209       0.00039879       7.36297848      -0.03054908       1.22760483       0.04334211
C        4.85439952       0.00231083       7.62078113       1.89331743       0.79906827       0.11724873
C        7.32975180      -0.03163245       7.72724663       0.69052400       0.62416846      -1.14831149
C        9.87549374      -0.00933898       7.50628319      -1.31430140      -0.06555028       0.55098946
C       12.33135228      -0.04615243       7.38172497      -0.38822424       1.10039024      -0.38088271
C       -1.21530785       2.11939176       7.25721649       0.35300912       0.88098284      -0.29025364
C        1.28363468       2.13212049       7.29986336      -2.21405201      -0.48753772       0.70423621
C        3.70712923       2.20451886       7.58419540      -0.35694985      -3.07393252       0.03796285
C        6.11130675       2.10705670       7.55625602       0.53643008       1.02178725       1.29267251
C        8.57153098       2.13827790       7.56423178       0.09638911      -0.86213486      -1.29052384
C       11.07063086       2.14613241       7.46317571      -0.55088533      -1.79055069      -1.78776516
C       -2.49837202       4.23948374       7.21833168       1.09620372       1.27310667      -0.11917886
C       -0.03242131       4.27623563       7.35085067       2.16529824      -0.32111150      -0.36763741
C        2.44725670       4.26957046       7.51458304       1.41268723       0.20865402       0.98735169
C        4.95724594       4.27480590       7.73032249      -0.15294516      -0.08879742       0.80164014
C        7.36944320       4.27119869       7.78354718       2.27120866      -0.31711858      -2.42386971
C        9.87681301       4.25494544       7.46361583      -3.78587304       0.20722937      -0.89295338
C       -3.72766017       6.37599013       7.33738333       3.11515939       1.56670634      -0.19662331
C       -1.21032773       6.38106983       7.33850324      -0.48242611       1.06919325       0.18711923
C        1.20581788       6.34775480       7.51303657       2.61571437       2.96076439       0.38331986
C        3.70583691       6.39817933       7.84448324      -1.02411564      -1.79348458      -1.02058860
C        6.10117079       6.41784854       7.78486619       3.66142574      -1.45217424      -0.31448448
C        8.60648039       6.39364589       7.47756328      -0.51477265       0.33831064       0.71841919
C       -4.88081098       8.51258468       7.31845812      -0.39702795       0.59235723       0.58186713
C       -2.39440412       8.54583475       7.31988828      -1.80701990       0.02687728       0.70398116
C        0.03135367       8.55342186       7.41613463      -0.03424787      -0.67399258       1.66424474
C        2.43647557       8.50665145       7.71431614       0.28224748      -0.78639813      -0.61429594
C        4.85630357       8.53571326       7.71371374       1.97559222      -1.00664937       0.29015619
C        7.37699124       8.52636129       7.61843642       0.10567003      -0.15959660      -0.81183945
C       -6.16078485      10.61589490       7.35836260       1.82779775       0.50979679       0.07952628
C       -3.67243766      10.66825966       7.46282401      -0.34717657       0.19809424       0.17654171
C       -1.24204336      10.68583118       7.50009420       0.62939577      -0.34684310       2.03076269
C        1.26018314      10.68964588       7.63751401      -1.67150810      -1.80572817      -0.15981232
C        3.67259255      10.67055978       7.55311169       0.14040306      -2.59739732       0.15456932
C        6.12349032      10.64101745       7.47805050       1.48677151      -0.81991580      -1.01357489
C        1.21259964       0.69565197       7.32216483       1.57805699       0.34589899      -0.44072951
C        3.71033727       0.73954209       7.44798547      -2.64055509       0.86499161       0.77080979
C        6.07660617       0.67897529       7.61976687       2.33635142       1.24668807       0.29579411
C        8.58761476       0.65272830       7.58699762       0.30709796       2.44800903       0.31482721
C       11.12175118       0.67536342       7.46895712      -1.40048066       1.59354043      -0.11715463
C       13.54473105       0.71241117       7.28091856       0.28557269      -1.78020329       0.29465511
C        0.04670819       2.86663951       7.29901055      -1.52484107      -1.29080460      -0.36744149
C        2.47011710       2.83744562       7.49824672       0.17535772       1.53274592      -0.59705335
C        4.91839923       2.86260992       7.78151550       0.66214391      -0.17192273      -2.05290529
C        7.33315709       2.88211178       7.53182258       0.63317555      -2.73001071       1.53373657
C        9.80598187       2.84789655       7.36962115       1.09294484      -1.21696072       2.08896733
C       12.27542938       2.82778475       7.20598146       0.97186208       0.13626950       1.38310232
C       -1.23812032       4.96830759       7.24545689      -1.25391981      -0.32375794       0.46444433
C        1.23275815       4.99960215       7.45469378      -1.14065115      -3.17143338      -0.13473095
C        3.71931215       4.96337788       7.73768136      -1.17448635       0.26390908      -0.42196637
C        6.21124048       4.97049755       7.73732499      -3.99258845       2.01790846       0.93059356
C        8.60164407       4.97333751       7.54048273       1.10580087       0.06398884       0.86695645
C       11.03402663       4.97418264       7.32130202       2.11959945      -0.45513051      -0.03247406
C       -2.42968606       7.13589991       7.32411985      -0.84937267      -1.85361806      -0.28417580
C        0.02794769       7.08838614       7.48875375      -1.42809560       1.28590819      -1.21758807
C        2.48356716       7.05123734       7.63697721      -1.68689179       1.72530638       0.93501972
C        4.91411224       7.08736218       7.86064468      -1.20042081       2.49147455      -0.41619013
C        7.35485833       7.12073221       7.65228814       0.49450773      -0.80386003      -0.14277927
C        9.86885613       7.11061594       7.37838349      -2.00754589      -0.77951297      -0.21358668
C       -3.66522228       9.24277678       7.32450427       0.84778810       0.34059301       0.25756206
C       -1.19673872       9.27669202       7.48030626      -0.20416256      -1.03226758      -1.53249113
C        1.25386861       9.26122429       7.59806315      -0.83300966      -0.63608064      -0.21968945
C        3.63602252       9.23084313       7.71378418       1.18637025       0.67019326      -0.35907898
C        6.12153415       9.21744971       7.56120019      -0.09351591       0.63103896       0.86931955
C        8.64035631       9.19378739       7.43962060      -1.05071267       0.91550016      -0.11667486
C       -4.92399721      11.38315574       7.36734795       0.49953912      -1.73487268       0.20962127
C       -2.44949493      11.41133763       7.69361133      -1.77900850      -2.90219209      -2.19711949
C       -0.01269754      11.33835880       7.66917761       0.69003575       1.12578092      -0.40645104
C        2.47288034      11.34827348       7.56184872      -0.05180824       2.16956010       0.09579982
C        4.89678444      11.31033769       7.39439859       1.08453708       1.65562434       0.78138808
C        7.41129163      11.34347270       7.34287900      -2.48610815      -1.40139238       0.49385390
72
Lattice="14.76 0.0 0.0 -7.38 12.782534959858314 0.0 0.0 0.0 15.0" Properties=species:S:1:pos:R:3:REF_forces:R:3 REF_energy=-11165.958279377475 config_type=fd_force_conv_snapshot_093 snapshot_index=93 split=validation degauss_Ry=0.00285013035 kgrid=8 lattice_temperature_K=450.0 trajectory_seed=0 p4_key=seed0:snapshot093 pbc="T T T"
C        0.02017850       0.03937658       7.56391452      -3.66647744      -1.35293454      -0.41062112
C        2.40163391      -0.01175772       7.47707309       2.27744076       0.83997632       0.93798188
C        4.93301010      -0.02053530       7.39480376      -2.38921253      -0.72493745       0.47859466
C        7.31938026      -0.03932314       7.43993972       1.65182528      -0.22512811      -0.78465646
C        9.84603787       0.00907552       7.48080584      -0.32116935      -0.41655522      -0.39158724
C       12.24320970       0.05179216       7.58400337       0.90806967      -1.03668011      -0.85183502
C       -1.21723537       2.12860651       7.62960611      -1.10085973       2.57122220      -0.12781108
C        1.23505269       2.13475941       7.57670552       0.02341247       0.97919435      -0.34095039
C        3.73514688       2.09149364       7.44769408      -2.91169385      -0.16350236      -0.16078882
C        6.12669875       2.07343215       7.33028642       2.32051908       1.81841940       0.04054758
C        8.65463529       2.11973200       7.47160920      -1.79874814      -0.45109671       0.37776962
C       11.10498704       2.17964609       7.70544495      -0.84753639       0.22441540      -1.19396657
C       -2.41891464       4.34458529       7.71908510      -0.22420945      -2.41277900      -0.53272358
C       -0.00120182       4.28830399       7.61498082       2.13738146      -1.71017210      -0.21922948
C        2.50833568       4.26652787       7.42437334      -1.72547299      -1.09547969       0.15486371
C        4.91910606       4.20157330       7.42932586       1.56608182       1.97894288      -0.33774731
C        7.37490143       4.27872440       7.51051606       1.26572426      -1.77870974       0.05249704
C        9.86243937       4.25152300       7.63967563      -0.34596456       1.34399558      -0.23378013
C       -3.72217738       6.39648746       7.75211369       3.68928801       0.60210608      -0.43925086
C       -1.22395942       6.42429214       7.66721104       1.59584002       0.68417235       0.33914882
C        1.26397635       6.35307264       7.42559584      -0.94541263       0.96109893       0.56881672
C        3.68861234       6.36359053       7.26718200      -0.16624162       0.12926170       1.35490966
C        6.12008423       6.36938867       7.38327561       1.77133607       0.96051503       0.39420411
C        8.64518334       6.36881027       7.57423171      -1.94434252       0.91690835      -0.05451819
C       -4.92330164       8.53375430       7.64545077       1.07733619      -0.91111283       0.49790595
C       -2.44947563       8.56684858       7.57849442       0.40381695      -2.19807157       0.67220207
C        0.02760985       8.54839360       7.39790845      -0.93655878      -2.87009212       1.05725202
C        2.46241831       8.54649786       7.27179897       1.17304808      -2.75323754       1.27807224
C        4.88329358       8.49703102       7.27512541       2.27101069       0.26141203       0.50607486
C        7.37637213       8.52554928       7.52096038      -0.23130338       0.36735639       0.34789623
C       -6.16213869      10.65993413       7.53552548      -0.39675464      -0.26119246       0.56020430
C       -3.69948143      10.69806343       7.52555335       0.24774327      -1.68856480       0.30969683
C       -1.25509789      10.62047973       7.34798805       0.08815284       0.66408972       0.88617776
C        1.18535384      10.59634562       7.36527227       1.80701218       2.66874286       0.76060816
C        3.65818788      10.63610461       7.40403145       1.13627899       1.28731484      -0.50017238
C        6.08012166      10.66025960       7.50929903       2.76047237       0.55426685      -0.66765558
C        1.21428639       0.72361310       7.56876040       0.41644672       0.28154711      -0.34248457
C        3.68778022       0.64372031       7.53183160      -0.46453586       2.12680882      -1.36822849
C        6.09615532       0.68817592       7.31847783       2.63557434      -0.29284171       0.63798711
C        8.59469857       0.62856872       7.42668521      -0.51281475       3.13333889       0.57931788
C       11.06312053       0.80061291       7.55979656      -0.94231059      -2.92058679       0.47923615
C       13.44474943       0.77607912       7.57264743       3.72047318      -3.35181812       0.43352347
C        0.01790492       2.83865243       7.62342733      -0.75001316       0.81147050      -0.01911949
C        2.44288338       2.85889381       7.44632574       2.75152441      -1.74942641       0.62748724
C        4.94391400       2.79499134       7.32942414      -1.19962968       0.38569324       0.89180539
C        7.37906588       2.82561877       7.43686456       0.66764350      -0.39847317      -0.10001514
C        9.87786552       2.86773857       7.63572961      -1.30836241      -1.31229902      -0.27646969
C       12.30835096       2.86347913       7.62053919       1.63236126       2.29029782       1.26776135
C       -1.15958009       5.03331826       7.73769060      -2.88090412      -1.09270162      -0.49934706
C        1.25767888       4.93131863       7.45266685      -0.10337095       1.31931762       0.42356482
C        3.72377862       4.95940824       7.44144270      -0.09049460      -0.62325983      -1.04318217
C        6.17502795       4.97078219       7.46268476      -2.29879454      -0.99360796      -0.40917384
C        8.62311106       4.96596198       7.59794288       0.07910359      -0.57877512      -0.29033000
C       11.08378003       4.99770602       7.64264151       0.28196491      -0.39855827       1.18996156
C       -2.41846266       7.14225154       7.77632385      -2.54303700      -0.36879312      -1.09068459
C        0.02879153       7.08533885       7.51770727       0.01744519       1.59965965      -0.49809956
C        2.47347144       7.09156291       7.39592941      -0.07472500       0.45510171      -1.64993938
C        4.89308658       7.05682211       7.27447560       0.82635410       1.52666758      -0.09371388
C        7.38258602       7.10469213       7.49524469      -0.21199080      -0.71618618      -0.21635962
C        9.85873245       7.06991148       7.62887791      -1.41465618       2.64527126       0.49369397
C       -3.66459552       9.24017209       7.63665098      -1.94564709       1.61419770      -0.65014611
C       -1.23070078       9.23446276       7.41860665       0.82717377      -0.38418889      -0.07244752
C        1.26226272       9.20015028       7.43941366      -1.47242013       1.34884391      -1.54772646
C        3.70406843       9.22914430       7.28716205      -1.47772123       0.11877545      -0.05556437
C        6.12534025       9.25537955       7.43179744      -0.38906087      -1.90619789      -0.15458269
C        8.61838258       9.23750717       7.67946268      -0.77676266      -0.03132915      -1.43113953
C       -4.94846066      11.38660106       7.53099213       0.16734591      -1.15689795      -0.33926529
C       -2.45043575      11.36115990       7.43757053      -0.90030751      -0.57444127      -0.32410966
C       -0.04032017      11.30928696       7.44229836       0.53883843       0.87558301      -0.92944788
C        2.44046018      11.36870497       7.37417147      -0.31790199      -1.06353528       0.54090740
C        4.89906069      11.37636780       7.45903731      -2.03382410       0.89038614       0.62691388
C        7.36917801      11.37052418       7.48183785      -0.67279548       0.72779369       0.88128623
72
Lattice="14.76 0.0 0.0 -7.38 12.782534959858314 0.0 0.0 0.0 15.0" Properties=species:S:1:pos:R:3:REF_forces:R:3 REF_energy=-11164.784224764455 config_type=fd_force_conv_snapshot_099 snapshot_index=99 split=validation degauss_Ry=0.00285013035 kgrid=8 lattice_temperature_K=450.0 trajectory_seed=0 p4_key=seed0:snapshot099 pbc="T T T"
C       -0.00439881      -0.00027786       7.40269054      -0.19640991       0.28539554      -0.10048565
C        2.49125589       0.03025644       7.59830443      -0.92963017      -0.83412192      -0.41643669
C        4.93731321      -0.03705472       7.59655213      -0.18877245       1.56071567       0.86057857
C        7.38359964      -0.02572690       7.51274825       0.63352933       0.27691887       0.41882705
C        9.82656964      -0.00789343       7.50678153       1.57353596      -0.05795035      -0.36339432
C       12.31128064       0.02837171       7.35089034      -0.19334721      -1.45078944      -0.05790253
C       -1.22585465       2.13079191       7.38826940       2.32212113      -0.65218629      -0.84081681
C        1.22070166       2.13926198       7.41584465       1.92724622      -2.81796686      -0.14941683
C        3.72953113       2.14949124       7.49370457      -0.63585438      -0.61276613       1.45210996
C        6.16244437       2.16152424       7.58864425      -0.00703300      -2.29601492      -0.92880099
C        8.64233774       2.13674997       7.47676223      -0.14547147      -1.72269311      -0.40422035
C       11.11324804       2.12638696       7.27844105      -1.55149312      -1.30358170       0.90793777
C       -2.47022263       4.22894329       7.42893913      -0.07092671       0.35450293       0.06081713
C       -0.03686920       4.23710829       7.31653516       1.55570485       0.98007239       0.85436164
C        2.42642103       4.23859543       7.52398493      -0.02051895       0.71433653       0.54074979
C        4.89804753       4.27573961       7.67251791       0.04900600       1.82545368      -0.27122284
C        7.38167778       4.26381673       7.45068864       0.59368340       0.61624406       0.20480251
C        9.88843130       4.22773422       7.43569229      -2.94408693       1.39956509      -0.33229889
C       -3.75046668       6.32686193       7.45038531       1.81377830       3.34443623       0.60348136
C       -1.27641697       6.41429674       7.42035451      -1.32357305      -1.41199946       0.54179726
C        1.16646818       6.41954611       7.46969681       1.11620690      -0.59328565       1.13826157
C        3.67925938       6.40417900       7.70522378      -1.92382974      -0.03700846       0.02064107
C        6.13927733       6.40048413       7.70029881       0.03413448       1.74294209      -0.89484752
C        8.64603670       6.46863713       7.40511314      -3.86303725      -5.15932241      -0.27310875
C       -4.85295667       8.52002533       7.47837099      -2.69989332       1.31739161       0.09142894
C       -2.50686727       8.49114916       7.48450097       1.38630489       1.72266534       0.17149772
C       -0.05801850       8.49700618       7.50851470       1.11502573       0.83339249      -0.12462394
C        2.49774253       8.49302084       7.62174486      -1.65074619       1.45646412       0.48859985
C        4.93113660       8.56290435       7.58544364       0.73344754      -0.04133768       0.88771348
C        7.42141979       8.48303901       7.35565644      -1.02590564       3.41307620       1.37378593
C       -6.17095363      10.71319456       7.38924659       2.42643490      -1.84230649       1.22638741
C       -3.64933629      10.68713766       7.40914463      -1.39293422      -1.08614325       2.45542897
C       -1.22390870      10.66345517       7.54390415       0.90141386      -2.04894682      -0.62617649
C        1.20177034      10.60430129       7.60974686       2.94767002      -0.64886776       0.34201200
C        3.65578680      10.60731575       7.61666491       1.87984048       4.77072434      -0.23432571
C        6.14351386      10.71259790       7.55294639       1.14429106      -2.58816423      -0.57273791
C        1.20061989       0.65820443       7.37336469       3.08360655       3.16879877       1.48066591
C        3.74946029       0.73194424       7.69754571      -1.65582000      -0.25181564      -1.83167163
C        6.13935403       0.65012851       7.57183614       1.35682050       3.19941161      -0.06148999
C        8.61935300       0.68010068       7.49452285      -0.85029235       1.63782665      -0.00772102
C       11.07140567       0.70187389       7.27627397      -0.03440007       0.28159262       1.08547939
C       13.55489871       0.74776240       7.35461649      -1.35200483      -1.99005184       0.18013226
C        0.03687475       2.80505807       7.33193507      -2.56585940       2.49016098       0.39758485
C        2.47151986       2.81734389       7.54162209      -0.59411561       0.34536523      -1.10175267
C        4.92953939       2.89552666       7.51759099       0.78192955      -1.46373726       0.75915138
C        7.41613337       2.81568986       7.46941966      -1.24559535       1.56596098       0.62334674
C        9.86716823       2.82470882       7.43487068       0.79907238       0.04390621      -0.62307214
C       12.33930176       2.78486912       7.37111127      -1.81178029       2.95357430      -0.23165665
C       -1.28059624       4.95501531       7.38716126       1.38268349       0.56519147      -0.19389075
C        1.22374606       4.98383996       7.45630729      -2.28539549      -0.57243684      -0.75622829
C        3.60832736       4.97257360       7.68264929       3.33650669       0.33431823      -0.18875008
C        6.16184778       5.01579808       7.67404602      -1.07623113      -2.36924508      -0.53248266
C        8.61832810       4.97530783       7.32873498       0.82040379       0.22766733       1.39747042
C       11.06406530       4.98071104       7.49611509       0.71329575      -3.58578388      -0.75534691
C       -2.53692415       7.10319853       7.48193317       0.98571827      -1.87193331      -0.45528349
C       -0.07618396       7.12502660       7.52053696       0.80589377      -2.22093742      -1.01559552
C        2.41093580       7.12119561       7.63700597       1.50802785      -2.03100720      -0.51828992
C        4.88317257       7.15700860       7.72078428       1.47903738      -1.90537205      -0.47456702
C        7.37499084       7.09391119       7.45410495       0.29917922       0.40967212       0.33018904
C        9.82455336       7.07203668       7.47574311       2.43295110       3.13072176      -0.34742649
C       -3.66835621       9.26661404       7.56269581      -0.40840637      -0.55470445      -1.56338679
C       -1.26680745       9.20621238       7.42389686       0.05898239       1.35430262       1.16137424
C        1.21897598       9.11538216       7.57874769       0.11817896       4.17203860       0.11277244
C        3.72058183       9.27339036       7.66987670      -1.53864378      -3.53402295      -0.46302046
C        6.18012029       9.25100954       7.54414512       0.21483650      -0.01490777      -0.71849092
C        8.65213838       9.28284791       7.38738490      -0.29397865      -2.42617033      -0.22703741
C       -4.90703742      11.37297912       7.55660928       0.58361831       1.14727200      -1.40520481
C       -2.42153368      11.35829568       7.58649533      -1.09198325      -0.22570301      -1.04393448
C        0.04775699      11.34041738       7.54070452      -2.66599512      -0.13202820       0.17375258
C        2.47020669      11.38284575       7.69548143      -1.76084083      -2.45220121      -1.34321114
C        4.91699665      11.35519099       7.45837235      -0.91637279       1.25026422       0.79196559
C        7.39606507      11.39412847       7.50080908      -2.00293847      -0.08483201      -0.68477759
72
Lattice="14.76 0.0 0.0 -7.38 12.782534959858314 0.0 0.0 0.0 15.0" Properties=species:S:1:pos:R:3:REF_forces:R:3 REF_energy=-11165.247848785277 config_type=fd_force_conv_snapshot_105 snapshot_index=105 split=validation degauss_Ry=0.00285013035 kgrid=8 lattice_temperature_K=450.0 trajectory_seed=0 p4_key=seed0:snapshot105 pbc="T T T"
C       -0.05942639       0.01456584       7.62309192       1.47317655      -0.48669877      -0.21081143
C        2.34767430      -0.04565794       7.54916564       4.30276659       0.01860347       0.53926523
C        4.86867143      -0.02046340       7.48771535       1.44328233       0.24170092       0.03168628
C        7.33380384      -0.05415484       7.60837195       1.42091836       2.72958827      -0.20798065
C        9.85504784       0.01642063       7.53077943      -1.43613981       0.76457460      -0.27175301
C       12.33679820       0.07298551       7.47864967      -2.09628211      -1.79405125      -0.04920243
C       -1.21340144       2.15699314       7.54444589       1.10795314       1.53846611      -0.31957218
C        1.24961820       2.09343006       7.47093440      -0.35664672       2.23685281       0.48837462
C        3.65305214       2.03568620       7.44344610       1.31122790       1.54433774       0.64133983
C        6.15167811       2.13255864       7.52490672      -0.04186039      -1.64840546       0.01401791
C        8.62818133       2.08969887       7.73265764       0.11891429       2.19699351      -1.53371677
C       11.13540776       2.13025848       7.59189569      -0.83998557       2.63781403      -1.01077573
C       -2.43572831       4.29460784       7.58304361      -1.59450871       0.06834584      -0.61891415
C       -0.02247239       4.28694307       7.55514625       1.46452299       1.15508121      -0.91554567
C        2.46950826       4.27431594       7.50157634      -1.31335446      -0.86910049      -0.46786184
C        4.90124602       4.16095041       7.42341566       0.33595654       3.63327061       0.34327672
C        7.40309687       4.24030907       7.48468269      -0.49827439      -0.14631043       0.31859465
C        9.86640389       4.22920691       7.58271258      -0.53851601       1.64522680       0.08372309
C       -3.66975488       6.36408332       7.53116109      -1.82808700       0.81236781       0.28435398
C       -1.25620482       6.41880204       7.50815816       1.44228423       0.88376529      -0.08010375
C        1.25277477       6.45822101       7.38476261      -1.81668776      -0.28698036       0.40779933
C        3.68921118       6.42705992       7.43037944      -0.69578474      -1.34871741      -0.66498395
C        6.15138552       6.38052032       7.46981788      -0.33477820      -0.42242505      -0.37510313
C        8.59995297       6.38585477       7.41310236       1.33110484      -2.01094103       1.35052721
C       -4.86634230       8.51922861       7.51071616      -2.15967832      -1.30525523      -0.57818068
C       -2.45767755       8.52321016       7.49727322       0.36652027      -1.58365248       0.64309486
C        0.07687152       8.54243371       7.46424015      -4.16504828      -0.52691365       1.10496604
C        2.47711819       8.61530333       7.30521930      -2.05430346      -2.36750316      -0.08258332
C        4.94623906       8.59369469       7.37867868      -1.96925805      -4.69050361      -0.24307081
C        7.35361847       8.49366408       7.43529691       2.61541355       0.09135207       0.13365494
C       -6.16844493      10.62736267       7.57861171       1.29230793       0.42778477      -0.49683869
C       -3.67588445      10.60611836       7.55763241      -0.55188575       2.58622356      -0.38200422
C       -1.27815056      10.58895322       7.48498077       1.56404705       1.47404352       1.22151363
C        1.21395484      10.70175301       7.56591709       0.28703693      -0.87823896      -0.88566842
C        3.75161817      10.64428256       7.43682365      -3.35295326       2.53352263      -1.10519846
C        6.10805327      10.63049590       7.38774951       2.98974509       1.90847383       1.33036077
C        1.18813080       0.70257208       7.57916354      -1.24247275      -0.67610834      -0.25115821
C        3.62460588       0.64005027       7.54365754      -0.21885127       0.32394923      -0.84481231
C        6.17124514       0.69553270       7.49171102      -3.26247100       0.14012949       0.61267229
C        8.55888514       0.71135831       7.65049276       2.44736214      -1.87616920      -0.00594208
C       11.09086442       0.75503912       7.46191454      -0.00987509      -1.52395224       0.90294341
C       13.51600117       0.76732892       7.57248445       0.83373316      -0.86175305      -0.21799998
C        0.03011881       2.86275943       7.51422750      -0.16174116      -0.40543957       0.28814276
C        2.49943472       2.79922187       7.44474460      -2.64985039       1.17698829       0.23445864
C        4.87156049       2.78293143       7.48439826       1.60425961      -1.19690689      -0.47469044
C        7.39931076       2.80510542       7.59733166      -0.34167467       1.23574340       0.06540706
C        9.90012252       2.86188372       7.58429121      -1.16145909      -3.46232748       1.21949660
C       12.36302572       2.90037400       7.50342777      -1.46859844      -1.82891824       1.07203535
C       -1.25558634       5.01516300       7.49081958       1.47748443      -0.53659052       0.89352880
C        1.21622666       5.05848419       7.49146997       0.84234353      -2.96155037       0.04184213
C        3.69080917       4.93155741       7.47760615       0.32046384       1.93451524      -0.36264150
C        6.14226032       4.96072025       7.40706716       0.24772682      -1.68680797       0.55192432
C        8.64099409       4.93001130       7.53100537      -1.31441247       1.20504468      -0.69773286
C       11.05518336       4.97116625       7.60907697       2.06530572      -0.47540083      -0.51751550
C       -2.47211795       7.11289582       7.51322858      -0.25524678      -0.56908797      -0.05733611
C       -0.00569433       7.15093735       7.48037349       1.03205778      -1.37552888      -0.70069786
C        2.44430556       7.17939232       7.28864181       1.88739901      -0.50335438       0.86799029
C        4.91169223       7.09693800       7.42368274       0.96942056       1.92499471       0.06583490
C        7.40666530       7.08095681       7.48078144      -2.37842340       0.36842880      -0.65996901
C        9.82215791       7.05265301       7.51544982       2.00648274       2.34943062      -0.57673109
C       -3.64421167       9.23955703       7.50515066      -1.69940586      -1.60219939       0.31053347
C       -1.23686283       9.15402762       7.61606969       1.66413367       3.32242707      -1.84648633
C        1.21970199       9.28868951       7.43757774       2.42574662       0.50907483      -0.08341096
C        3.69110340       9.24145494       7.29208873       2.46039814       2.21363575       0.99571729
C        6.15921240       9.21661812       7.42088731      -0.34097610       1.50100694      -0.41675191
C        8.61690772       9.20451505       7.42814330      -0.11372298       0.27380217       1.08672355
C       -4.87472143      11.34370932       7.60335753      -4.13760536      -1.45977184      -0.14496831
C       -2.50089536      11.35507044       7.46954186       1.94863137      -1.23603445       0.42672368
C       -0.00839220      11.36313133       7.59627858      -2.35438179      -2.30682872      -0.52495833
C        2.42399423      11.39919135       7.42113401       3.13884053      -0.87407326       1.22016791
C        4.94157140      11.41523655       7.43973426      -0.54409814      -1.17755445      -0.25060440
C        7.36489270      11.36518841       7.57582975      -0.93966879      -0.64550502      -0.65841478
72
Lattice="14.76 0.0 0.0 -7.38 12.782534959858314 0.0 0.0 0.0 15.0" Properties=species:S:1:pos:R:3:REF_forces:R:3 REF_energy=-11165.320213106845 config_type=fd_force_conv_snapshot_111 snapshot_index=111 split=validation degauss_Ry=0.00285013035 kgrid=8 lattice_temperature_K=450.0 trajectory_seed=0 p4_key=seed0:snapshot111 pbc="T T T"
C       -0.03920572       0.00784365       7.45300729       0.79559702       0.14170944      -0.91222226
C        2.47718363       0.04218616       7.43502171      -2.23556160      -2.31113044       0.30660071
C        4.88851145      -0.05403249       7.34804058       1.71503020       3.71194920       0.71010913
C        7.39428185      -0.07346374       7.46656374      -1.23184406       2.39727190      -0.14778418
C        9.78476911      -0.05736604       7.45638098       2.08502300       1.12485352      -0.02266659
C       12.32618081      -0.02856285       7.55625644      -1.73606208      -0.00074536      -1.88306413
C       -1.30331758       2.14750791       7.37751275       2.20010172      -1.53252532      -0.28496899
C        1.19453445       2.14107745       7.33213145      -0.41887024      -0.80686102       0.32656507
C        3.68332005       2.10241757       7.53953174       0.34601572       0.34690429      -1.38551659
C        6.16884770       2.18842528       7.46024118      -1.65070531      -3.24389890       0.43581304
C        8.60428026       2.11375722       7.51427029       1.21268343       1.74657326      -0.13901518
C       11.09542357       2.11724812       7.51476495      -2.55069632      -1.21620533      -0.49956586
C       -2.48918432       4.25505673       7.49551858       0.53036356      -0.73472024      -0.71056652
C       -0.00786474       4.28379979       7.48299146       1.30080465      -1.57814646      -0.18267071
C        2.47842624       4.23555200       7.53209586       0.17939358      -1.06305680      -0.29412880
C        4.95134841       4.26354713       7.54045193      -2.90293976       1.08764991       0.77193336
C        7.38521723       4.26773241       7.47185867       0.29861383       2.48234405      -0.46691259
C        9.78933608       4.25076085       7.53292047       2.20125743       1.76802552      -0.85333500
C       -3.72514479       6.37619020       7.47537587       0.83859409       1.18151806      -0.04917492
C       -1.26979465       6.32810891       7.41865366       2.50072924       1.54872713      -0.16951772
C        1.27357325       6.37842816       7.42135441      -0.86880455       1.51378867       0.80478100
C        3.69173375       6.42511876       7.65527488      -0.74338357      -1.58967580       0.21771536
C        6.11078888       6.39567526       7.60725145       2.17372117       2.12794808       0.01311288
C        8.65586985       6.47264770       7.62575290      -1.96401840      -0.64612054      -0.71336851
C       -4.85667560       8.61671995       7.63199068      -1.90047950      -0.36219156       0.95325835
C       -2.37951125       8.47768162       7.50082727      -1.98908640       0.26534427      -0.63968635
C        0.02842446       8.49790728       7.48114106      -0.42635781      -0.90693067      -1.09328731
C        2.49206486       8.53739338       7.54595946      -0.86569712       0.05703530      -0.46777751
C        4.91634236       8.53886755       7.68783040       0.37561452       0.19381696      -0.81231305
C        7.40771930       8.56470865       7.68049749      -1.47922095       0.21986917      -0.55026827
C       -6.15808101      10.71224017       7.64214385      -0.13645127       0.74790074      -1.00634083
C       -3.65108396      10.65220697       7.46506150      -2.73214884       0.12263057       0.58225588
C       -1.26594752      10.58183023       7.37424184       1.86165738       3.14253958       0.44861508
C        1.24449300      10.59629150       7.47357710      -1.62247845      -1.07943370       0.20473772
C        3.69427576      10.63919388       7.52557339       0.58783620       1.39777535       0.51892627
C        6.16107964      10.63716045       7.50629009      -0.77480271       0.79134981      -0.37915236
C        1.20666614       0.72014833       7.43875177       0.09672439       0.11492265      -0.51720337
C        3.67809541       0.69871255       7.41004019       1.55641010       0.27341934       0.25448445
C        6.15881042       0.69929760       7.45557898      -0.46436848      -0.45333460      -0.57894044
C        8.59668674       0.72967372       7.43131550      -0.09849331      -2.90809791       0.66430209
C       11.05780686       0.64858207       7.42032384      -0.24778133       0.94114408       1.45894858
C       13.50087438       0.70829582       7.35171931       0.18976773       0.71846701       1.43507151
C       -0.08521637       2.84706702       7.38220721       2.72193950       0.80962830       0.00839182
C        2.47225420       2.77325214       7.33772527      -1.16345401       2.68982565       1.88611397
C        4.89318587       2.85392720       7.55614643       1.85509772      -0.19766770      -0.57398207
C        7.39152587       2.85466850       7.46614137       0.30087255       0.46902270       0.17365591
C        9.86939918       2.87158448       7.58784804      -1.94214191      -2.94420160      -0.73115309
C       12.27078788       2.82655572       7.43598429      -0.26932254       1.40180915       0.58709855
C       -1.23510278       4.93189728       7.49170539      -0.80777094       0.90064844      -0.29767641
C        1.30411864       4.97492220       7.52660004      -3.41313045      -0.57991952      -0.80608404
C        3.64790034       4.97567166       7.68335507       3.20763657       0.10299736      -1.29228607
C        6.14355641       5.02109749       7.47606251       0.59846977      -2.70133365       0.58765134
C        8.61818124       5.04202673       7.43902304      -0.73874093      -1.36294050       1.49611542
C       11.05422885       4.94996511       7.41626729      -1.26010409       0.81383591       1.29814613
C       -2.46016059       7.03873727       7.39840061      -0.81097556       1.50667082       0.93508322
C       -0.00817408       7.09918328       7.39342296       0.39142140      -2.45211816       0.56669531
C        2.49239060       7.14258631       7.52360114      -0.72060180      -1.29029167       0.21900940
C        4.90397054       7.11482840       7.69654652       0.55941754       0.39837264      -0.13918101
C        7.38272853       7.14276998       7.63823873       0.07374541      -0.33282828       0.24581109
C        9.85983250       7.21049755       7.64313376       0.54250405      -2.27015322      -0.77810478
C       -3.61575661       9.25386437       7.57996432       0.55781163      -0.84051573      -0.57545197
C       -1.17096622       9.21113881       7.42081043      -2.09521845      -1.26682521       0.44633322
C        1.22426852       9.17358946       7.44108323       2.24395137       1.48576595       0.73147191
C        3.70807564       9.27060837       7.60842957      -0.43486970      -2.09830352      -0.04943152
C        6.12869684       9.26028667       7.54270848       1.70726444      -2.21356916       1.38240067
C        8.60621949       9.33463544       7.71853322       1.57844394      -2.64907624      -0.52907390
C       -4.90181824      11.37389893       7.54910906      -0.05810205       0.86418557      -0.49532611
C       -2.50251505      11.36558572       7.33634946       3.19110181      -1.97638643       0.16723972
C        0.01354759      11.29003282       7.48768750      -1.45421363       0.52761891      -0.91700683
C        2.42965207      11.28944658       7.51874599       1.38003114       2.17749272      -0.52251758
C        4.95536629      11.33496288       7.54119303      -1.80484191       0.79873094      -0.02249021
C        7.33866805      11.37526247       7.42688906       2.05809120       0.49712228       1.65076573
72
Lattice="14.76 0.0 0.0 -7.38 12.782534959858314 0.0 0.0 0.0 15.0" Properties=species:S:1:pos:R:3:REF_forces:R:3 REF_energy=-11165.323901337815 config_type=fd_force_conv_snapshot_117 snapshot_index=117 split=validation degauss_Ry=0.00285013035 kgrid=8 lattice_temperature_K=450.0 trajectory_seed=0 p4_key=seed0:snapshot117 pbc="T T T"
C        0.01342284      -0.04101902       7.68727052      -0.96696516       0.64556775      -0.47387360
C        2.48083332      -0.01406132       7.55392383      -1.66433421      -0.64679854       0.15297858
C        4.93554257       0.02079314       7.38128615      -0.98541462      -1.27249578       0.90155141
C        7.30724508      -0.02065746       7.43095882       2.21919344       2.01518901      -1.01731019
C        9.90790423       0.00791755       7.36170249      -3.55581176      -1.03696036      -0.43482368
C       12.28427369      -0.03871546       7.57575240       1.94392265       3.74195500      -0.96252306
C       -1.15890606       2.17558403       7.65382375      -3.53392293      -2.00709286      -1.11124878
C        1.28613230       2.12075531       7.65874133      -0.75940129       0.64214458      -0.33883489
C        3.69076925       2.10460470       7.49957622       1.10494984       0.96025149       0.78604614
C        6.14069488       2.19826470       7.58068297       1.97057085      -2.23186435      -1.34482708
C        8.60352195       2.12222604       7.31779849       0.49614886      -0.79730937       0.96361424
C       11.06074565       2.07566540       7.45566970       0.11367027       3.74823878       0.57802898
C       -2.45873294       4.26639836       7.53778144      -1.51034596      -0.81256810      -0.67654260
C       -0.00709020       4.28023564       7.51660619      -0.50218298       0.85716517      -1.03155590
C        2.40512224       4.31158371       7.46361100       1.49418143      -1.52578955       0.81115194
C        4.90445271       4.22238186       7.57425461      -0.11434776       2.73042337       0.33224309
C        7.40007678       4.28351316       7.49766063       0.68366661      -1.24755145       0.46849073
C        9.80806640       4.22557593       7.43052874       3.61160470       1.21670438       0.80760973
C       -3.67726075       6.36257155       7.54603295      -0.80899632       2.35736607      -0.82294713
C       -1.25315206       6.39106304       7.36708146       1.29554340       1.23975741      -0.11441872
C        1.28268443       6.46035517       7.28140958      -4.01824061      -0.65145429       0.34655360
C        3.62921701       6.38145001       7.41739759       1.37592483       0.73116260       0.74620973
C        6.06777060       6.37821245       7.48971031       1.57436720      -1.70594135       0.78884736
C        8.58273250       6.33372502       7.56165078       1.32533349       2.92081921      -0.73033445
C       -4.90327988       8.52511427       7.61871411      -2.74828045      -0.82628442      -0.82770161
C       -2.49198705       8.52990177       7.56636582       1.34396962       0.16652264      -0.68377049
C        0.00681367       8.54733669       7.38730314       0.70275834      -0.24820941       0.65892309
C        2.50642467       8.59669102       7.43846463      -1.45840633      -2.10314722       0.01490546
C        4.97837888       8.51625166       7.55916754      -3.63389591      -1.57995883      -0.50518963
C        7.35795801       8.52056192       7.61086732       0.63115800      -3.13777764      -1.30081776
C       -6.18025941      10.63050089       7.54930940       1.27775702      -0.78333183       0.49209758
C       -3.71596143      10.67988385       7.47975541       2.16509101      -1.10512724       0.57590294
C       -1.20980276      10.56792932       7.43840122      -0.82820426       4.53034933       1.02578917
C        1.23172977      10.72387752       7.51753527       0.72912552      -2.39870967      -0.84853166
C        3.73432616      10.62717451       7.50991985      -0.53119763       1.66126997      -0.70137792
C        6.17235043      10.63202841       7.59815612      -2.05857174      -0.05565410      -0.93019581
C        1.23520752       0.68331448       7.68231920       0.89401011       0.64900712      -0.32886183
C        3.67613338       0.68029116       7.46042760       0.81781855       1.09142198       0.03165594
C        6.10727845       0.75655725       7.42619150       1.67827962       0.30322768       0.49038702
C        8.60489826       0.68168163       7.27823490      -0.17884619       0.16676972       1.18277405
C       11.07964116       0.71536856       7.43728536       0.96973167      -1.80340852       0.29312427
C       13.55235695       0.70848553       7.59842725       0.08160681       0.00427549       1.07953577
C        0.04179184       2.86888046       7.57180725       0.85921691      -0.54232485       1.02043074
C        2.52687562       2.86896201       7.61375785      -3.03785094      -0.74256725      -0.91281773
C        4.92967043       2.85344103       7.57439383      -1.53627810      -1.20750703      -0.22249890
C        7.41853926       2.85892892       7.47862794      -2.02295065       0.08325078      -0.03939650
C        9.82891361       2.83584962       7.47003366       0.20720340      -1.83154076      -1.47670410
C       12.25564527       2.83585492       7.55395910       3.05174621      -0.11585288       0.26980874
C       -1.25819511       4.97015967       7.42031457       1.26557154       0.12061225       0.74665041
C        1.17914155       5.02195771       7.38792529       1.76350140       0.28743828       0.16321594
C        3.64259833       4.98052951       7.52698163       0.76149159      -0.56548354      -0.85559654
C        6.16811163       4.93148527       7.59537225      -2.29156845       1.25319245      -0.96082074
C        8.66270274       4.96265650       7.48970936      -3.16799607      -0.52610967      -0.16295472
C       11.07535737       4.98337888       7.48206183      -0.86744367      -1.97763676       0.20358149
C       -2.45272254       7.12753261       7.44904449      -1.15158502      -1.15980972       0.86860581
C       -0.01976905       7.16208806       7.30459094       1.36153565      -2.49531218       0.07675926
C        2.47446237       7.15738565       7.34319791      -0.32234769       0.19679018       0.10792643
C        4.84127693       7.07625790       7.53227844       2.28289921       1.17724592      -0.50069380
C        7.32500807       7.01819345       7.48749117       0.63893970       2.81391737       1.17273415
C        9.84414526       7.10826861       7.54307551      -0.59531143      -1.32276161       0.82971273
C       -3.73198622       9.24010907       7.55690168       2.15466595       0.97514075       0.12362584
C       -1.20601162       9.21672085       7.53239122      -2.06261532      -1.23193122      -0.67721289
C        1.25081807       9.25189925       7.47701008      -0.03536964       1.89984520      -0.36024755
C        3.73286914       9.23176081       7.53898227       1.05776110       0.60149056      -0.17461570
C        6.15958548       9.20792096       7.51796060       0.40830635       1.12397446       1.04371850
C        8.56577635       9.20977236       7.57412704       2.01884974       0.28425577       0.36131918
C       -4.92751681      11.34022003       7.52015788      -0.97033999       0.94254071      -0.04135208
C       -2.41174547      11.37291680       7.49102585      -1.83933789      -1.13835078      -1.12143678
C       -0.02757135      11.36716087       7.45728771       0.46699152      -0.79625059      -0.01622700
C        2.50562218      11.35773224       7.40874919      -0.31990205       0.49487719       0.88215835
C        4.94688308      11.39510834       7.46521389      -0.02825694      -3.57766048       1.42231036
C        7.36145041      11.29661241       7.63781200       1.30745532       2.57437386      -0.11271793
