72
Lattice="14.76 0.0 0.0 -7.38 12.782534959858314 0.0 0.0 0.0 15.0" Properties=species:S:1:pos:R:3:REF_forces:R:3 REF_energy=-11165.60146071861 config_type=fd_force_conv_snapshot_003 snapshot_index=3 split=validation degauss_Ry=0.00285013035 kgrid=8 lattice_temperature_K=450.0 trajectory_seed=1 p4_key=seed1:snapshot003 pbc="T T T"
C        0.03804084      -0.00661988       7.50975502       1.53657738       0.08692103       0.45797261
C        2.47029267       0.02801093       7.55287577       0.63100219      -0.69661778       0.72686552
C        4.92822469      -0.01806277       7.61040178      -0.47660591      -1.12923108      -1.69255490
C        7.40888825       0.00453487       7.39050723      -1.14636928      -1.24660091       1.15035861
C        9.84128537       0.01934332       7.56072876       0.78301533      -1.33926321      -0.13283142
C       12.29913251       0.03250534       7.49031645       1.45651709      -0.10532447      -0.26104719
C       -1.23835167       2.07068717       7.64361992       1.39219323       2.90908907      -0.85587242
C        1.22348786       2.16968550       7.57729420      -0.24106638      -1.80113721       0.50814923
C        3.71681294       2.11578130       7.66447689      -1.41211773       0.49540761      -1.18499882
C        6.15483855       2.12158610       7.36641342      -0.16595211       0.10031982       2.04505494
C        8.63535455       2.13178821       7.54442275       0.79098395       0.29568946       1.09148960
C       11.09528641       2.15676771       7.66638498      -1.55574444       0.41579880       0.27252125
C       -2.44057077       4.26503817       7.55041212      -0.43313627      -1.31166628       0.60354153
C       -0.00526347       4.22019620       7.71936709       0.30289524       1.41907900      -0.76621394
C        2.48972706       4.26572284       7.63141426      -1.10538770      -0.86747067       0.41711264
C        4.91051840       4.28036399       7.41178780       0.16868776       0.44738892       2.04057068
C        7.39474146       4.25308477       7.54956429       0.57872190       0.91309155      -0.00677177
C        9.82158234       4.29118174       7.66099647       0.98774687       1.10542318      -0.28268894
C       -3.70079537       6.37641264       7.38354730      -1.28182271       0.61634639      -0.36759062
C       -1.29912099       6.34647776       7.51583597       1.21439399       1.91082767      -0.66210252
C        1.19976549       6.38121445       7.68563209       0.22901947       0.02945404      -0.10331695
C        3.66712030       6.37829964       7.72213913      -0.30513312       2.69848667      -1.11080758
C        6.14499618       6.44710720       7.43654293      -1.10238671      -1.94083707       0.10264358
C        8.55816936       6.46227422       7.41397589       0.98743423      -0.75604960      -0.07324224
C       -4.92773816       8.48431210       7.39942606       2.22177046       1.33275446      -0.12900022
C       -2.46428702       8.53518455       7.29758962      -0.54837748      -1.36986988       0.13744680
C       -0.02044388       8.47304209       7.36488527       0.49505691       0.07799390       0.71516494
C        2.49475038       8.53040505       7.36969656      -2.37730472      -1.34202329       0.04504521
C        4.93519093       8.51429119       7.34722367      -0.11364482       0.56944433      -0.09077922
C        7.40179884       8.56395988       7.51860542      -0.33353070      -0.23555136      -1.16726129
C       -6.19143798      10.63163047       7.57967442       2.61679938      -0.14471428       0.00750454
C       -3.75777890      10.62173356       7.45997477       1.71411360       1.64759016       0.19597128
C       -1.27160349      10.60431279       7.36038873       1.93837061       0.65675642       0.86492913
C        1.23590089      10.64094907       7.29245493      -0.29574088      -0.76628799       0.77793020
C        3.70824106      10.62857301       7.31191100       0.79045327       2.06050958      -0.57184934
C        6.17508514      10.66602858       7.37377305      -1.03382310       0.46801148      -0.05471025
C        1.29961303       0.74729722       7.61502509      -3.43941895      -0.64428374      -1.00923050
C        3.70653558       0.71226093       7.58075829       0.70880378      -0.54383228       0.76553697
C        6.12850388       0.67580628       7.45634692       1.88585249       1.46038634      -0.19488345
C        8.63972249       0.73593764       7.52454351      -1.00809921      -1.63089110      -0.66829090
C       11.06080107       0.73883542       7.65018209       0.97030142      -0.42774081      -0.79507560
C       13.60995504       0.71441662       7.48945699      -3.28575414      -1.72361125       0.68178020
C       -0.03358715       2.82806790       7.62578307       0.89985011      -0.29628107       0.45013537
C        2.44595534       2.80140325       7.60065136       2.08941650       2.89515241       0.38392252
C        4.90365233       2.86767352       7.52671994       1.60012400      -0.97396319      -0.95099218
C        7.43277516       2.79647127       7.55273453      -2.92989161       2.19720820      -1.36566356
C        9.82186596       2.88602517       7.71489136       1.41758313      -1.14549999      -0.80857415
C       12.33196219       2.82928366       7.60019620      -1.11217258       0.19631221       0.50093137
C       -1.22449900       4.95074076       7.61278791      -0.52515476       0.07377652      -0.03254785
C        1.23896372       4.94735467       7.69060520      -0.15095692       0.02897350       0.31115413
C        3.69698918       5.01562066       7.65378798      -0.05482003      -2.86586163      -0.80174941
C        6.15242431       4.96838973       7.49130231       0.63468864       0.95656762      -0.75024585
C        8.63488601       5.06922761       7.55945110      -2.37514139      -3.01575257      -0.00050548
C       11.08487077       4.96905857       7.56672967      -0.43783650       0.07692226      -0.44482682
C       -2.51384136       7.11395641       7.24747555       1.56285097      -1.54914288       1.75890684
C       -0.04810437       7.05319577       7.56988070       0.01601000       0.67825521      -0.64756601
C        2.42915269       7.12300129       7.66261571       0.66930957      -0.55829680      -0.50140445
C        4.87303204       7.09959430       7.49172623       1.71402104       0.44767508       0.19123171
C        7.34213743       7.18312287       7.35635384       0.28836567      -1.60963116       1.14114994
C        9.80057429       7.11243224       7.35305938       1.10328916      -1.52012566       0.34368193
C       -3.67856874       9.22039983       7.36542675      -1.98707425       0.15921479       0.05452667
C       -1.24631774       9.19024549       7.41169066       0.66666185       0.60986593      -1.31307087
C        1.22004730       9.19355237       7.26839103       0.56345212       0.58992085       0.58018074
C        3.70035675       9.22078097       7.21534216       1.11124107       0.34100670       1.29463760
C        6.18214962       9.26199603       7.39365410      -1.30582370      -0.81831349       0.17330495
C        8.66734402       9.18691283       7.53220116      -2.72463144       2.63616210       0.05591121
C       -4.98164191      11.39302211       7.58633962       1.32556797      -1.75459947      -0.66650939
C       -2.45932038      11.32548963       7.43504493      -2.31488553       0.63472438       0.74849364
C       -0.00846679      11.31645391       7.43665538       0.27854432       1.65986641      -1.36869514
C        2.48314734      11.34857238       7.40670059      -0.53764210       0.61963175      -0.29946513
C        4.97322128      11.42029230       7.30847855      -2.33662627      -1.97058011       0.74499437
C        7.38186784      11.33642335       7.51299411       0.11238652       1.58304596      -0.20781687
72
Lattice="14.76 0.0 0.0 -7.38 12.782534959858314 0.0 0.0 0.0 15.0" Properties=species:S:1:pos:R:3:REF_forces:R:3 REF_energy=-11165.520812299394 config_type=fd_force_conv_snapshot_009 snapshot_index=9 split=validation degauss_Ry=0.00285013035 kgrid=8 lattice_temperature_K=450.0 trajectory_seed=1 p4_key=seed1:snapshot009 pbc="T T T"
C       -0.03009734      -0.07972680       7.58578154       1.98405500       1.06579888      -1.38869113
C        2.39038321       0.00127236       7.38764585       3.05231469      -0.54192633       0.84756853
C        4.89386550       0.05998281       7.38529430      -1.00526097      -1.81423955       1.59436961
C        7.37718251      -0.00789917       7.47759034      -0.67534935       1.32015683      -0.02171374
C        9.80452214       0.01830330       7.63156822       1.04116720       1.28903645      -0.88072933
C       12.35941298      -0.03091415       7.57268996      -1.86051453       0.76290082       0.19638934
C       -1.24437310       2.14019327       7.42087664       1.20162769      -1.85649898       0.19556119
C        1.23949306       2.15189095       7.44642328      -0.59245724      -1.35391181      -0.07591054
C        3.69858510       2.17695730       7.56224000       0.22301106      -0.18709712      -0.82596329
C        6.17592244       2.11617254       7.40985694       0.24826521       0.52048075       0.57047380
C        8.62915174       2.18950930       7.33194177       0.00595802      -2.26851517       0.96166894
C       11.10242224       2.13195374       7.46387053      -2.18716393      -1.00780430      -0.43710554
C       -2.46416471       4.23529620       7.61284306       0.79123643      -0.22459743      -2.08015384
C        0.00779195       4.21508390       7.38790977      -0.26327042       2.09292117      -0.37195378
C        2.40754239       4.31419977       7.23474223       2.84754303      -0.60681326       0.87103422
C        4.86286731       4.28719245       7.52401281       1.81977360       0.98284943      -1.13988933
C        7.34540843       4.24408771       7.55416790       0.67638037       1.39184998       0.34619904
C        9.84243730       4.27116807       7.48318539      -0.27126604      -0.25311945       0.41782355
C       -3.63633596       6.39025658       7.53176102      -2.13002656      -0.23388837      -0.30735661
C       -1.20135620       6.36038552       7.62293268      -0.97315355      -0.04096359      -0.85077289
C        1.19876097       6.42670593       7.31020863       1.44142780      -0.40150501       0.81331038
C        3.70051320       6.42534593       7.32889373       0.17747220       1.37166168       0.41610091
C        6.19054375       6.42659638       7.50933028      -1.36039099      -2.14426533       0.39322632
C        8.67586993       6.39023448       7.49380892      -1.96863481      -0.58151232       0.44576758
C       -4.95908787       8.51425730       7.41216175       1.03001169      -0.21503858       0.04596464
C       -2.47614266       8.48533779       7.65071117       0.17400609       1.26792744      -0.71467772
C        0.01476972       8.51177292       7.59311564      -0.56202361       2.35325205      -0.17944526
C        2.46683221       8.53297554       7.45747297       0.96013142       1.39848214       0.12085136
C        4.93137896       8.56496191       7.55768074       0.37314806      -2.69909576      -0.00066849
C        7.37713147       8.44572469       7.54525868       0.29403187       1.75103695       0.42847717
C       -6.14195378      10.61678972       7.45829159      -1.05217949      -1.12332783      -0.18733546
C       -3.75096187      10.59388215       7.43540117       2.72359503       2.07632932       0.17847878
C       -1.28741972      10.65640708       7.60512955       1.08294762       0.72950476      -0.34796796
C        1.21598251      10.68755644       7.61946015       1.35810400      -0.23877449       0.12744367
C        3.70429182      10.66198012       7.61460252       0.99969016       0.62021050       0.70302265
C        6.20507554      10.60888263       7.82172284      -2.06232813      -2.20637984      -1.20834649
C        1.19550908       0.66716160       7.41404965      -0.68771302       1.68374733       0.89207792
C        3.63598087       0.75411935       7.55159794       0.46712316      -0.39330525      -1.66860944
C        6.13949297       0.69815334       7.45013755       0.15759705       0.85866490      -0.71057887
C        8.58308216       0.73878765       7.40054477       1.00514913      -0.21061449       0.93429107
C       11.04982886       0.71870076       7.54426941       1.95141176      -0.99090419       0.06163628
C       13.58538766       0.69162376       7.50163056      -2.70245568       0.29881207       0.45684467
C       -0.02406847       2.83519577       7.43843889       1.61013664      -0.74540317      -0.35771295
C        2.47134983       2.90300779       7.45856263      -0.90164397      -0.94109601      -0.51576689
C        4.98930416       2.85856105       7.45449961      -3.29340343       0.13641759       0.82840481
C        7.39848017       2.83971395       7.45770603      -0.68696765       0.56886840      -0.58531755
C        9.86244641       2.85915221       7.43055978       0.16399190      -0.06549860      -0.14093322
C       12.29785338       2.81364026       7.39808532       0.73867305       1.36713011       1.36832079
C       -1.21257734       4.92034860       7.49180092      -0.50962376       1.25688147       1.05887670
C        1.22130731       4.97687755       7.21825206      -2.29317925       1.35364828       0.67878178
C        3.64381017       5.06134160       7.31132931       0.67698303      -3.80432662       0.47097288
C        6.12405668       4.99840361       7.57907733      -0.21741351      -0.78682956      -0.46452661
C        8.59725910       4.96571831       7.59133529       0.83856658      -0.01632111      -1.20704629
C       11.08446036       4.95355379       7.52275205      -0.07915193       1.30043390       0.59704101
C       -2.43284710       7.08460799       7.60286718       0.39930955      -0.76033023       0.47480202
C       -0.02331071       7.12516926       7.54277914       1.47385146      -1.49617378      -0.50237093
C        2.47201940       7.14455084       7.41387193      -1.40463531      -1.41167550      -1.22956787
C        4.95550851       7.09606638       7.43163415      -0.70913236       2.22624984       0.29981608
C        7.41922369       7.07352401       7.54464906       0.61000888      -0.45649371      -0.50967621
C        9.85868641       7.14051938       7.42902041       1.23801728      -3.26331509       0.58908267
C       -3.72872803       9.18542033       7.51131484       0.90067004       0.83082370      -0.06422693
C       -1.25225304       9.22303374       7.63906002       0.30046297       0.11113773       0.22944345
C        1.27078038       9.26354949       7.50498455      -2.24662814      -0.45769904       0.71470472
C        3.70960629       9.26033535       7.49988955      -0.71779235      -0.22702944       0.56371900
C        6.18073480       9.16362462       7.75123618      -0.63718698       1.62659016      -0.81011681
C        8.57573113       9.16428431       7.41423001       0.54914084       2.43010335       0.56799294
C       -4.92622310      11.34203530       7.38182387      -1.55977927       0.00878803       0.06082767
C       -2.49346706      11.39663908       7.47216617      -0.90095954      -1.46146929      -0.13444633
C       -0.02529954      11.39068466       7.61010983       0.02400408      -1.72622298      -0.23534336
C        2.49171342      11.40640545       7.71717661      -1.88741161      -1.50056702      -1.13906889
C        4.99880579      11.32536874       7.68564581      -2.02140953       0.89120966       0.23788104
C        7.36011023      11.26646220       7.59232703       2.80951050       2.77064416       0.53474215
72
Lattice="14.76 0.0 0.0 -7.38 12.782534959858314 0.0 0.0 0.0 15.0" Properties=species:S:1:pos:R:3:REF_forces:R:3 REF_energy=-11165.618260890951 config_type=fd_force_conv_snapshot_015 snapshot_index=15 split=validation degauss_Ry=0.00285013035 kgrid=8 lattice_temperature_K=450.0 trajectory_seed=1 p4_key=seed1:snapshot015 pbc="T T T"
C        0.01430251       0.00209595       7.63074718       0.32984451       1.19223262      -0.30238976
C        2.48356117      -0.01172923       7.58653828       0.34679682       0.33731408       0.13662971
C        5.04562689      -0.01456808       7.43782847      -5.55915621      -1.53369363       0.48813062
C        7.42621664       0.00956193       7.45999566      -0.67192182      -0.09836089      -0.28070404
C        9.83365366      -0.01032366       7.56398025       2.33487303       0.77931525      -0.23378733
C       12.34342616      -0.03424946       7.61216207      -1.60492862       3.28186098      -1.59590456
C       -1.24493015       2.15000491       7.50834489      -0.36968350       1.21826144      -0.23776199
C        1.23746432       2.14383372       7.64227145      -1.08686856       1.69224174      -0.86269510
C        3.69082595       2.11224730       7.50406410      -0.20620376       1.16131922       0.71787591
C        6.12528010       2.12215496       7.34938826       0.42758988       0.46974466       0.24696449
C        8.56449673       2.06888223       7.42736690       1.80089270       3.24708398       0.12998752
C       11.03705690       2.14300512       7.66421499       1.75854740       0.89194371      -1.42835476
C       -2.51514260       4.30209670       7.43443973       3.09168342      -1.10072269       0.09838352
C       -0.01317556       4.33454143       7.56522821      -1.50074443      -2.59568779      -0.13609569
C        2.44801439       4.27723064       7.63382906       0.82669837      -0.77089309       0.21196534
C        4.97803905       4.26705484       7.54713585      -2.07816329       0.12103751       0.58129017
C        7.41597740       4.24296718       7.42454184      -1.25136491      -0.30273994      -0.60392719
C        9.80880633       4.26097860       7.46360954       1.78471660      -1.30937285      -1.08103986
C       -3.75584165       6.40637820       7.22609132       1.62376323      -1.61716527       0.27853789
C       -1.26565799       6.40591404       7.42932805       1.12633010       0.44656231       0.19081596
C        1.26460346       6.36813558       7.68311670      -0.59515485       1.52108391      -1.20948652
C        3.70420597       6.33261586       7.43127292       0.05685660       2.61462011       1.51412445
C        6.12253028       6.37051332       7.46926501       1.24354335       2.17706360       0.94629349
C        8.55465113       6.37597977       7.36375381       0.22462777       1.09148291      -0.19232289
C       -4.92845495       8.51804966       7.43816774      -0.96359753      -1.17434700      -0.17086909
C       -2.54241904       8.54730619       7.41894947       3.11115412      -2.02500239       0.29864572
C       -0.01259885       8.51853443       7.49229971      -0.60580718      -1.57451118       0.29184386
C        2.48069733       8.53282934       7.47947064      -0.53588989      -1.28103827       0.43401430
C        4.93853756       8.56201004       7.43984675      -0.09329196      -2.01319023       0.42885641
C        7.40062087       8.51987650       7.52416247      -0.83616491       1.03781062      -0.24901803
C       -6.15752815      10.60774508       7.60140579       0.37979667       3.31405890       0.90391503
C       -3.73141997      10.61536894       7.67900811       2.72164639       1.09459498      -0.65035257
C       -1.19887140      10.66530483       7.48323436      -0.68821747      -1.45552233       0.00851806
C        1.24112028      10.63017308       7.39815930       0.57512158       0.84040492       1.75464395
C        3.69727547      10.64794503       7.35008214       1.36535194       0.98367090       1.36754535
C        6.13531323      10.66064548       7.59409577       1.59262692       0.09580856      -0.01331446
C        1.26905016       0.75958969       7.61276068      -0.93136849      -2.83714883       0.17018209
C        3.72335347       0.68736316       7.47434399       1.04424301      -0.04373729       0.27725388
C        6.19340079       0.70003348       7.38854800       0.93831073       0.90304985       0.01168386
C        8.62702154       0.72487928       7.51398389      -0.05516225      -3.09180246      -0.16879884
C       11.09497278       0.75656377       7.54913276      -0.73757314      -3.37707098       1.19092727
C       13.53280618       0.74078498       7.48964070       0.89022647      -1.99916666       1.71490087
C       -0.03794085       2.87409819       7.51806691       1.84204089       0.36347351       0.83560981
C        2.45776980       2.86252091       7.63389563       0.40398818      -0.92759283      -0.37530599
C        4.91109194       2.86981991       7.52413338       0.85943468      -1.99963075      -1.01003499
C        7.36461297       2.79470866       7.26725154      -0.24380691       1.69249628       1.56911341
C        9.79746188       2.79344017       7.56805381      -0.52868154       2.12501188      -0.40626541
C       12.29651581       2.90145757       7.52046441      -1.47984290      -1.89176500       0.61674440
C       -1.27248720       5.01483535       7.49401036       0.49114550      -0.66783582      -0.42689646
C        1.21769130       4.98191204       7.63623635       1.02245651      -0.29140189       0.25847634
C        3.70444771       4.95697604       7.61604876       0.37047514      -0.61607360      -0.99420034
C        6.18764319       4.98758693       7.53688000       0.16001415      -2.02969954      -0.88144307
C        8.62204608       4.97773775       7.35987298      -1.32404845      -0.95253639       0.62757800
C       11.06759816       4.95749356       7.29081615      -3.48401988       1.60638180       0.86121106
C       -2.50102421       7.09687930       7.32183644      -0.75031604       1.51698712      -0.03089463
C        0.03485553       7.05813357       7.53522862      -1.89907079       2.12587603       0.15442688
C        2.49418133       7.07937642       7.53806053      -0.29744141       0.73721575       0.00813497
C        4.92693174       7.09350258       7.49073136      -0.86089301       0.61855728      -0.97321654
C        7.33732209       7.12674588       7.49611109       0.94892810      -1.60356619      -0.70201195
C        9.76927863       7.06796632       7.25306376       0.85106908       2.16992725       0.91006793
C       -3.72728536       9.20805015       7.60844456      -0.70627947       0.61832948      -0.99981409
C       -1.27897187       9.22090433       7.45086106       1.56473970       0.39579768       0.16933414
C        1.21551924       9.21635128       7.56368554       0.78799915       0.51745945      -1.58556178
C        3.70247684       9.25995682       7.40349739      -0.04575278      -1.32432330      -0.23508085
C        6.17228098       9.25154404       7.54908147      -0.37684633      -0.59757451      -0.40746817
C        8.63256674       9.25649775       7.47306489      -0.99900213      -2.82796254       0.59743130
C       -4.91022280      11.33226955       7.66269342      -1.45121444       0.89639198      -0.39314147
C       -2.43179740      11.31990394       7.53823284      -0.67357658       1.50840143       0.19329939
C        0.03164799      11.39574921       7.45616244       0.08525650      -1.71986181      -0.23710251
C        2.50971711      11.33671909       7.51023453      -2.65870450       1.04648809      -1.24672227
C        4.93945664      11.36816202       7.48319995      -0.81867678      -0.87130521       0.29151476
C        7.37974759      11.35949454       7.71427300      -0.01335328       0.07094059      -1.16488791
72
Lattice="14.76 0.0 0.0 -7.38 12.782534959858314 0.0 0.0 0.0 15.0" Properties=species:S:1:pos:R:3:REF_forces:R:3 REF_energy=-11165.299087276868 config_type=fd_force_conv_snapshot_021 snapshot_index=21 split=validation degauss_Ry=0.00285013035 kgrid=8 lattice_temperature_K=450.0 trajectory_seed=1 p4_key=seed1:snapshot021 pbc="T T T"
C       -0.05144090      -0.01069862       7.27919692       1.21379466       1.32481927       1.05215841
C        2.45720597      -0.01997755       7.43425307       0.15252967       0.45531486      -0.89674242
C        4.95506285      -0.02156794       7.40695916      -1.52349844       0.26642542       1.42342570
C        7.35324359      -0.00892274       7.60554808       1.72219715       0.37089192      -0.31447497
C        9.81721853      -0.00032893       7.60897718      -0.73255614      -0.06721301      -0.26555793
C       12.29658085       0.02231675       7.36455925      -2.34453318      -0.05874714       1.41195087
C       -1.23768178       2.18633482       7.38353325      -2.17218494      -0.23728788      -0.25593661
C        1.17898142       2.15261434       7.43978631       2.09504001      -0.35128288      -0.56012254
C        3.69734615       2.09424714       7.52889685       1.88942118       0.62821229       0.23862177
C        6.21856043       2.14014767       7.57044478      -1.41876841      -0.80433440       0.21160590
C        8.60140116       2.11987530       7.70248758      -0.02732748      -0.02502429      -0.38578117
C       11.01774500       2.12672128       7.58750824       1.40747663      -0.49593058       0.33802602
C       -2.47429334       4.31452784       7.66911534      -0.74272254      -0.97007568      -1.69858593
C        0.06553221       4.31916086       7.48613814      -3.04225859      -2.13714800      -0.36398645
C        2.49633711       4.21415590       7.49540284       2.30594169       1.23292136      -0.83351334
C        4.96210512       4.24038163       7.49607927       0.13030299       0.85202116       0.46284433
C        7.37820259       4.28059148       7.54242772      -0.07539991      -0.38343607       0.90436445
C        9.85860660       4.25735929       7.76926651      -2.85420887      -0.82696268      -0.60878504
C       -3.74120117       6.39877084       7.58844711       0.90809307      -0.32361704      -0.26087133
C       -1.22560245       6.36443154       7.50406364      -0.12982734       2.06500670      -0.08867683
C        1.22610335       6.34950258       7.42292878       3.93540455       0.27063895       0.31241346
C        3.74393805       6.40115693       7.22674757       1.60572746      -1.68418493       1.99177757
C        6.17627913       6.40410590       7.74567922      -0.39917225       1.15915152      -1.56545653
C        8.62331661       6.36833323       7.55399684      -1.19587973       0.67614871       1.19601266
C       -4.94496477       8.49834098       7.44399536       0.44389196       1.55525799       0.25591861
C       -2.50070118       8.44513646       7.39914481       2.27522524       3.46757330      -0.02620905
C        0.05254434       8.48509104       7.41811338      -0.98544933       1.79279707       0.62955621
C        2.44000012       8.45509816       7.39617307       2.33753052       3.57810502       1.44810572
C        4.86396849       8.52507593       7.59054201       2.34173376       0.79778349      -0.10720163
C        7.36670704       8.54118924       7.55714362      -0.34109206       0.86262979      -0.00233456
C       -6.14297665      10.67312298       7.43100065      -0.59721790      -1.06051423      -0.66303120
C       -3.74113595      10.65078429       7.38933887       3.71699370      -1.91835715       0.05210495
C       -1.18006813      10.65898039       7.34468546      -3.28882944      -1.23407810       1.17583515
C        1.22803110      10.66205029       7.50088852      -0.14281990      -0.12110127      -0.13477928
C        3.67346738      10.68513659       7.48777604      -0.15664086      -0.53776474       0.81820524
C        6.11375115      10.66421509       7.48313965       1.22802983      -0.07007027       0.23633786
C        1.21228041       0.73683198       7.35415782      -0.62758263      -1.44775039       0.29129185
C        3.71104374       0.67165006       7.49808586      -0.72661149       0.70234002      -0.57713553
C        6.16955262       0.69738115       7.55090885      -0.48928659       0.91478076      -0.33195899
C        8.58961578       0.69733194       7.67123874      -0.22728809       0.59268710       0.09986576
C       11.02732907       0.67318493       7.56645450       1.65963346       2.28057262      -0.88933199
C       13.47289300       0.74013565       7.33352673       2.47042545       0.81097479      -0.47786909
C       -0.02570265       2.90239548       7.38617223       0.90669053      -0.66866808       0.67997811
C        2.48906667       2.81708359       7.47209534      -1.39785300      -0.60497260       0.54975636
C        4.99444235       2.84036266       7.61839792      -2.24348008      -1.29612833      -1.23393103
C        7.41906470       2.86654696       7.55216514      -0.74239138      -0.74838257       0.67543986
C        9.81678286       2.81383864       7.74793816       0.76179910       1.26543296      -0.26172827
C       12.23878935       2.90055598       7.48132693       1.29021479      -1.16522472       0.97896938
C       -1.23053255       4.99150795       7.45253758       1.00849979      -0.65290774       1.49859576
C        1.30205862       4.92594920       7.52719030      -1.20069386       2.13752749      -0.74930816
C        3.76654981       4.94828929       7.35796369      -2.27132205       0.18155536       0.32988771
C        6.15544688       5.00037199       7.61326829       0.82432036      -0.62488708      -0.42899473
C        8.59097312       4.94671765       7.64496682       1.74117883       1.07330342      -0.08003047
C       11.00929589       5.00853806       7.71122778       2.68992027      -0.94386997       0.12296378
C       -2.50604373       7.06134897       7.46321372       1.54389423      -0.21894949       0.52920065
C        0.05869761       7.07896550       7.53947596      -2.26458190      -0.57195784      -1.22657073
C        2.54755575       7.07698609       7.30611060      -4.39346226      -0.71887016      -0.01506872
C        4.94310752       7.12848741       7.53068104      -0.22448790      -1.50317592      -0.12572694
C        7.42114029       7.14081740       7.68293756      -1.13429101      -1.71132421      -0.51516731
C        9.82119696       7.09077620       7.53236919      -0.27736598       0.60392796      -0.26205506
C       -3.68934993       9.22191131       7.42318961      -1.26655884      -1.23050118      -0.27155477
C       -1.18187244       9.21611279       7.36556958      -1.36843289      -1.05225328      -0.03902086
C        1.25908237       9.24664363       7.49747462      -0.81011630      -1.86809002      -1.04580855
C        3.68031162       9.23834260       7.60329238      -1.99691746       0.21056101      -1.90153570
C        6.09964706       9.25328445       7.52608786       0.87324742      -0.68155343       0.75519445
C        8.59381815       9.25754974       7.46294879       0.16436008      -0.84177840       0.11272230
C       -4.89713645      11.31744920       7.31037649      -3.34323707       3.34488231       1.20667528
C       -2.51678944      11.35662933       7.45366439       3.38811850      -0.64935756      -1.36588364
C        0.00069395      11.38020796       7.48943902       0.21813342      -1.02660421      -0.12696339
C        2.41791077      11.39121823       7.47248083       1.72927411      -1.23139901       0.68771842
C        4.91652901      11.40726685       7.51093888      -0.75772338      -1.17291258      -1.04415173
C        7.38038125      11.36098692       7.43574169      -1.04497217       0.46440448      -0.67568205
72
Lattice="14.76 0.0 0.0 -7.38 12.782534959858314 0.0 0.0 0.0 15.0" Properties=species:S:1:pos:R:3:REF_forces:R:3 REF_energy=-11165.712804395169 config_type=fd_force_conv_snapshot_027 snapshot_index=27 split=validation degauss_Ry=0.00285013035 kgrid=8 lattice_temperature_K=450.0 trajectory_seed=1 p4_key=seed1:snapshot027 pbc="T T T"
C        0.00558627      -0.02836275       7.57487031      -1.87891231       1.51245452      -0.30123353
C        2.44768774       0.01275249       7.52854575      -0.44158645      -0.19001532       0.44176977
C        4.93894633      -0.02055641       7.39579808      -1.05598472       1.94078668      -0.55628928
C        7.38537563       0.03757530       7.26952326       0.66991481      -1.40947927       0.64704562
C        9.82434859      -0.00410126       7.37211188       0.27041320       1.51534624       0.53033759
C       12.26223400      -0.00324155       7.63410870       0.05359927      -1.01396801      -1.15441298
C       -1.23429269       2.09632661       7.46997543       0.03881003       1.20487936      -0.12002604
C        1.16935235       2.09129590       7.64918327       2.33353477       2.81133136       1.13655050
C        3.68492403       2.12751704       7.70660440      -0.23477540       0.50763681      -0.52291842
C        6.17377520       2.11662601       7.45668530      -2.56211896       1.78208302       0.63194476
C        8.56413597       2.11170385       7.44701284       1.97021450       1.37585669      -0.48371681
C       11.03282357       2.08277728       7.59276162       1.14244192       2.39715698      -1.37172467
C       -2.45941098       4.24874204       7.41172034       0.25449730       0.44489444       0.20071651
C       -0.03542313       4.30580707       7.61776794       1.44921052      -2.54554434      -0.09070132
C        2.41213246       4.21567208       7.84571159       1.68331718       4.01973262      -1.07208960
C        4.92855308       4.24116885       7.63708079      -0.39528603       1.76020268       0.85196897
C        7.42312746       4.26677760       7.51529590      -1.76926710      -0.11516537       0.18078403
C        9.86436821       4.19320319       7.43842910      -1.16498535       2.34076471      -0.95783054
C       -3.69337459       6.35135349       7.34559843       2.08297254       0.72868149       0.62846143
C       -1.19440272       6.38269958       7.56314774      -1.60008697       1.45214492       0.24574141
C        1.20096902       6.39411479       7.70950911       2.49436036       0.59237831      -0.99480661
C        3.64880002       6.40404470       7.57493021       0.84318454      -1.28421255       0.93656006
C        6.11220253       6.38629042       7.67058038       0.85463289       0.35965568       0.05356816
C        8.61474456       6.36655932       7.46338679       0.65769564       0.83882832      -0.59068601
C       -4.90163737       8.52492500       7.30986222       0.43697801       0.98469780       0.19155593
C       -2.46661500       8.56152159       7.42254070       1.49214820      -1.02334405       0.58050033
C        0.02530257       8.54365382       7.65570167      -0.53809153      -0.77999814      -0.36417568
C        2.44725639       8.54981975       7.48219974       2.29689887      -0.27483910       0.41939526
C        4.94524799       8.49966077       7.45763796      -1.32911198       0.92143581       0.99069181
C        7.42036321       8.50475614       7.40452138      -1.77442371      -1.00881603       0.25411987
C       -6.16723192      10.65581469       7.37776128       0.87138569      -0.55209504      -0.03713984
C       -3.69648802      10.71520965       7.35162924       0.76453655      -0.75058960      -0.72452042
C       -1.15901395      10.66014173       7.39436209      -2.15423658      -0.20020203      -0.47895101
C        1.24565253      10.70251611       7.31831062       1.76549941      -2.88191637       1.50379556
C        3.69614991      10.68416864       7.45248620      -0.28013557      -0.56612118       0.14871852
C        6.17719549      10.60365235       7.48408463      -0.87182149       1.55076576      -0.07300082
C        1.20204903       0.70372543       7.70414574       0.23327002      -0.72229847      -1.55213950
C        3.67584213       0.70908527       7.52129620       0.99690411      -0.34304584       0.32523144
C        6.15086492       0.73156783       7.36928195       0.52695813      -1.21571965      -0.13705394
C        8.63128034       0.73488764       7.31295523      -2.21931711      -1.24406555       0.16702220
C       11.01345508       0.68439642       7.61343949       1.60938999       0.44247965      -0.49637203
C       13.46638538       0.68789560       7.44168819       2.53398440      -0.33719324       1.93550846
C       -0.00949806       2.84154841       7.56094172      -0.69832679      -0.14832488       0.04195809
C        2.46027791       2.87246350       7.80374317      -1.77675621      -4.42859433      -0.64969206
C        4.89062675       2.85869523       7.60451401       1.87180578      -2.32550033      -0.07734007
C        7.37216010       2.83296921       7.49443677       0.05436880       0.46607570      -0.39036931
C        9.80764408       2.83144372       7.43971104       0.91055876      -2.59668487       1.04215939
C       12.33151612       2.84527766       7.45232409      -2.58562398      -1.76286248       0.77718226
C       -1.22302798       4.98616537       7.50358905      -1.49903953      -0.16068829      -0.07684796
C        1.18919956       4.98660313       7.72303053       0.83189688      -0.81020886       0.52782100
C        3.70024510       4.95558548       7.73397072      -1.86562614       0.30648990      -0.23767535
C        6.16438860       4.98192387       7.65740629       0.37818074      -1.01781824      -0.71750670
C        8.64592055       4.94284328       7.38695464      -0.50157158       0.56294304       1.23469953
C       11.05030431       4.92444908       7.38266096       1.59566236       0.44650420       0.18193897
C       -2.44427643       7.10269015       7.48295259      -0.52148760       0.02451110      -0.81399481
C        0.01948586       7.09588101       7.70157052      -1.17901766       1.28290823      -0.34152375
C        2.45839170       7.13825537       7.49533025      -1.60500935      -1.20587104       1.43498744
C        4.86816336       7.09633836       7.66815116       1.32787220       0.23088532      -1.49463163
C        7.36452405       7.09055313       7.57428387       1.23445913      -0.67012307      -0.74685327
C        9.90387243       7.10088505       7.34101713      -3.29152215       0.08545241       0.23316538
C       -3.65688746       9.30372674       7.36469059      -1.96644166      -1.70418605      -0.39337518
C       -1.19987098       9.25563848       7.50527890      -0.27533301      -0.45678656      -0.00885385
C        1.24685057       9.23104640       7.57542257      -0.71136254       2.48020258      -1.26633233
C        3.72113100       9.27722579       7.48962313      -0.91447532      -1.78369048      -0.78980844
C        6.18680864       9.18662930       7.40792293      -0.56179273       1.00818946       0.34861562
C        8.58268482       9.22752894       7.29077186       2.83967263       0.06608841       0.56018990
C       -4.95599739      11.38213572       7.38453687       1.29951164       0.21965603       0.20167065
C       -2.42840065      11.37656346       7.24668622       0.05449787      -0.44471163       1.66023510
C        0.05570126      11.35032471       7.37333139      -1.81651267       3.07117167      -0.96706595
C        2.47625060      11.41830066       7.33338573      -0.55206084      -2.64590941       0.06427758
C        4.90880204      11.34336913       7.55830775       1.85684710       0.53995018      -0.13722672
C        7.40976794      11.36991431       7.49920984      -1.98998680      -1.65463241      -0.12200296
72
Lattice="14.76 0.0 0.0 -7.38 12.782534959858314 0.0 0.0 0.0 15.0" Properties=species:S:1:pos:R:3:REF_forces:R:3 REF_energy=-11165.221165982543 config_type=fd_force_conv_snapshot_033 snapshot_index=33 split=validation degauss_Ry=0.00285013035 kgrid=8 lattice_temperature_K=450.0 trajectory_seed=1 p4_key=seed1:snapshot033 pbc="T T T"
C        0.03795252       0.00236040       7.45025850      -3.41112010       0.07616379      -0.24314460
C        2.46664627       0.05633672       7.57379780      -0.12363278      -1.62893064       0.04853343
C        4.90340107       0.02334882       7.51557408       2.43242454      -1.75770948       0.21841084
C        7.36833053      -0.04294152       7.48153569       1.20626724       0.45516856      -0.03203440
C        9.78515977      -0.00117698       7.56441380       1.30753760       1.07133164       0.14575455
C       12.30080102      -0.00507136       7.53341750      -1.88101265      -1.08630934       0.06028311
C       -1.22949583       2.12795978       7.52854398       1.03009757      -1.11130072       1.33014094
C        1.23991647       2.10319909       7.73700173       0.64737164       0.57463616      -1.45883725
C        3.73848742       2.12390500       7.62708782      -1.36622457      -0.29589669       0.17911102
C        6.20011623       2.08487984       7.51351722       0.66821943       1.31562809      -0.74581712
C        8.63749135       2.14363392       7.63630289      -0.54370064      -1.37252737      -0.61268746
C       11.09138252       2.10841201       7.78426233       0.19481506       0.00705382      -1.08636025
C       -2.38477714       4.24187875       7.65741405      -2.58810227       0.70047957      -0.02728532
C        0.07105936       4.26838495       7.63048579      -2.25794922      -1.43716902      -0.23335975
C        2.49588377       4.24931167       7.56446726       0.14718949      -0.25448779       0.81425963
C        4.89586542       4.21448435       7.41321059       1.80509080       0.56325723      -0.16617091
C        7.38411260       4.27141406       7.38393159       0.42777449      -0.15295801       0.66701667
C        9.85790935       4.22224773       7.58153979       0.64817485       0.86800931       0.29448850
C       -3.73409330       6.42916625       7.58907040       1.83642972      -1.76160573      -0.77191125
C       -1.20282390       6.39505720       7.56241912      -1.95678280       0.92085448      -0.20506450
C        1.21558792       6.32315179       7.23201609       0.53499000       2.74502852       1.74749654
C        3.66490535       6.41946566       7.31503118       2.41408821      -2.74603536       0.32076209
C        6.16918812       6.42824256       7.46662985      -1.45025722      -1.33689857      -0.05950638
C        8.55826554       6.37684263       7.57780303       3.62101982       0.73858795       0.28670706
C       -4.99293908       8.53107785       7.54446630       2.14689325       2.39599098      -0.81335589
C       -2.46733965       8.52761281       7.52805406      -1.04742706       1.00105156      -0.29734731
C        0.02046380       8.54292268       7.31170981      -1.30858352      -0.69592718       1.06569295
C        2.44580880       8.47265486       7.21585171       0.03384112       2.52366965      -0.11477507
C        4.85850048       8.55243008       7.45485028       1.51622119      -0.99002770       0.28411821
C        7.37579434       8.54508503       7.62492189      -1.88409797       0.95028513      -0.23893339
C       -6.18604942      10.68048490       7.42944184       1.17883434       2.33045768      -0.17414982
C       -3.73604573      10.68211395       7.46924857       2.66227037       1.23606504       0.66674130
C       -1.20558309      10.59189074       7.46772283      -1.13064390       2.27546589      -0.28228707
C        1.20187536      10.66322160       7.29118070       2.45288641      -0.60682508       0.36941045
C        3.65565883      10.63330183       7.31245756      -0.73875713       2.74151434       1.43262305
C        6.12140296      10.66294279       7.33341914       0.95040340      -0.08011377       1.10887488
C        1.21209612       0.69037415       7.54024591       2.04907332       2.06446677       1.04494929
C        3.71265792       0.72721616       7.63004894      -0.93348451      -0.37994760      -0.43913619
C        6.18571337       0.69876170       7.50470461      -1.55152680      -1.06524018       0.21750067
C        8.58886468       0.71708078       7.58675844      -0.82293685      -0.52621149      -0.06260893
C       11.03143135       0.70032105       7.64407901       1.80750583      -0.45540562       0.13763372
C       13.50553961       0.69636874       7.56112863       1.80547672       0.44349138      -0.88937698
C        0.03421247       2.80351535       7.57868925      -0.32695793       1.93966002       0.92708478
C        2.50116095       2.83952712       7.72276264      -0.59412949      -0.49020576      -0.51773662
C        4.95587972       2.74377685       7.46236200       0.30074759       3.70123438       0.51716840
C        7.43930999       2.84049545       7.47072570      -1.92607560       0.53391297       0.25379488
C        9.86836158       2.79583350       7.65682654       0.11981315       1.72990917       0.49485714
C       12.34416415       2.82603566       7.71472888      -1.04515626       0.09720878      -0.55358191
C       -1.20576865       4.98272461       7.61799626       2.16807837      -0.45697631      -0.02221870
C        1.27924507       4.95833418       7.55283452      -0.70588866       0.00955808      -0.99585459
C        3.70853884       4.97171313       7.50806546      -0.48237109      -0.09775463      -1.29418612
C        6.12212976       4.97796867       7.30547993       1.16132179      -0.12157538       1.24073622
C        8.63860525       4.98294547       7.55463068      -1.55975639      -1.68050439      -0.90340492
C       11.09914261       4.93724660       7.58854688      -0.25845937       1.46653153       0.52478401
C       -2.47386430       7.12995023       7.51316140      -0.18114270      -1.60557062       0.90974269
C       -0.00732956       7.12371939       7.44543205       1.89949322      -1.43095132      -1.60565161
C        2.47142772       7.07051932       7.15817839      -2.61162092       0.27312752       0.60699992
C        4.90003028       7.09635453       7.38338420       0.65578197       1.77070358       0.55615892
C        7.41651317       7.11314568       7.67595130      -3.26719695       0.78854217      -1.27449738
C        9.79839373       7.13264657       7.53814244      -0.44730742      -0.87650681       0.69616938
C       -3.69443890       9.30061411       7.48228185      -1.86724644      -3.36268438       0.47981464
C       -1.24912560       9.21112053       7.50942922       1.78933045      -0.41033752      -1.04545734
C        1.23583672       9.25535399       7.23021747       0.09190948      -1.87329496      -0.12748378
C        3.66337358       9.25771492       7.35655893      -1.46023439      -2.40561565      -0.89177042
C        6.07595528       9.27593083       7.59241386       2.32312155      -1.77587535      -1.51814823
C        8.55236377       9.31047716       7.47397066       1.01712481      -3.34248682       0.96063330
C       -4.93435800      11.43117751       7.53847782      -0.57017966      -1.41027759      -0.86939154
C       -2.41419193      11.35834075       7.49229741      -2.35906068       0.35202387      -0.06464936
C        0.01975358      11.30632868       7.36407229      -2.49146478       2.01072968       0.72500584
C        2.39685497      11.41221142       7.42516442       1.88202746      -2.83696268      -1.07039575
C        4.89965565      11.31651568       7.41222643      -0.82320398       2.48633723      -0.58122024
C        7.37904505      11.39852581       7.30496879      -0.95995376      -1.23902901       0.95633930
72
Lattice="14.76 0.0 0.0 -7.38 12.782534959858314 0.0 0.0 0.0 15.0" Properties=species:S:1:pos:R:3:REF_forces:R:3 REF_energy=-11165.83563767039 config_type=fd_force_conv_snapshot_039 snapshot_index=39 split=validation degauss_Ry=0.00285013035 kgrid=8 lattice_temperature_K=450.0 trajectory_seed=1 p4_key=seed1:snapshot039 pbc="T T T"
C        0.01525604      -0.01617925       7.44886594      -0.73206043      -0.37354761       0.56995058
C        2.45625713       0.06887763       7.53572044      -0.34018703      -3.04175028       0.45852077
C        4.87668530       0.01161921       7.44455030       1.40620574      -0.84070394       0.22424750
C        7.36192917      -0.01261738       7.31458824      -0.30416228       1.51840662       0.93896019
C        9.77743071      -0.02296901       7.44419066       2.42732244      -0.03332330      -0.32230449
C       12.25799010      -0.00214498       7.46573741       2.13264214      -0.53536050      -0.89301021
C       -1.25040050       2.09840531       7.40109629       2.58236125      -0.69947247      -0.38546827
C        1.23373336       2.11709419       7.52933682      -0.04035604       0.65805894       0.71438256
C        3.66171547       2.10571967       7.50243777       1.81418402       2.66646563      -0.08117256
C        6.10896425       2.06185707       7.35521419       0.39599591       4.67148644       0.72792379
C        8.59458125       2.11937211       7.48522002      -1.13322426      -0.47221241      -0.42881039
C       11.06161166       2.18446962       7.33988463       0.31747133      -3.05148782       0.19939394
C       -2.42908916       4.21621171       7.25376951      -0.95530572       2.93110106       0.84275079
C       -0.01024885       4.22843942       7.28977726       1.23026875       1.74118577       1.15991462
C        2.45165855       4.24928978       7.49565382       0.09590395      -0.11153317       0.22609973
C        4.91892905       4.29185241       7.49246683      -0.47321231       0.24179348       0.22912951
C        7.38113401       4.21163096       7.49841939      -0.85525844       4.10834749       0.34485178
C        9.82250754       4.22252739       7.47349848       0.24069331       2.16191158      -0.82583371
C       -3.73400748       6.41485649       7.45934857       2.60141672      -1.52784926      -0.75769896
C       -1.22303574       6.43096744       7.50015865      -0.60241924      -0.76490628      -0.85361833
C        1.25997830       6.42351244       7.41702042      -1.70969593      -1.44500009       0.47805190
C        3.66880584       6.40238071       7.60566253       0.33323605      -1.43482520      -0.08586919
C        6.18565716       6.43839712       7.65768197      -2.73974490      -1.01157097      -0.17283135
C        8.58006303       6.35408836       7.54315412       1.36013928       2.57651765      -0.53578036
C       -4.89781031       8.49411486       7.45797384      -0.31614104       1.63761736      -0.04762583
C       -2.44219320       8.55253679       7.50915882      -1.12456530       0.52678561       0.02135327
C        0.01662409       8.50318611       7.63215802      -1.16456601       1.78353930      -0.66415066
C        2.51614833       8.52613371       7.55607833      -0.85678748      -0.75441206       1.88952402
C        4.96929285       8.57077958       7.76244819      -1.50370814      -2.81780000      -0.20427775
C        7.46832791       8.52157851       7.80179379      -2.48103228      -0.03913142      -1.32005836
C       -6.14946593      10.66362558       7.56667911       1.94841463      -0.59936426      -0.10326990
C       -3.70905139      10.67334913       7.47704538       1.93663949      -0.44594704       0.64407060
C       -1.18281643      10.66086790       7.58520967      -2.20170531       0.73232320      -0.78828917
C        1.19889211      10.60191953       7.48397737       1.36721213       0.79260477       0.43323217
C        3.69122333      10.66143610       7.58090007       0.71773785      -0.24758541       0.37299276
C        6.15056298      10.65650944       7.58600659       1.74556487      -1.40711231       0.09938651
C        1.21437581       0.70309410       7.59352642       0.21596264       1.01886056      -1.07690759
C        3.66633267       0.72623504       7.47325653       0.65649803      -0.17487744       0.16399987
C        6.12450941       0.69210507       7.37290353      -0.41816833      -0.80722946      -0.32129739
C        8.57763008       0.68257505       7.42631869       0.03704985       1.40846420      -0.44322990
C       11.05683991       0.71657938       7.38398236      -1.60824380       0.51154309       0.52486757
C       13.53385197       0.65961973       7.39570862      -0.97794274       1.52560263       0.60731668
C        0.00849631       2.82746763       7.44709614      -0.92325203      -0.63850673      -0.78053473
C        2.48469815       2.82727946       7.60224182      -2.31895250       0.00797556      -1.10320740
C        4.88856903       2.87689626       7.42104070       0.85122001      -2.41353747       0.10192161
C        7.34904915       2.85672354       7.45871341       0.20126210      -3.90677428      -0.40823873
C        9.80243352       2.82150024       7.45128890       1.15420292       0.34200943      -0.20857072
C       12.34513513       2.82590514       7.28358169      -2.51212308      -0.12758097       0.21616858
C       -1.22322017       4.97786890       7.33259306      -0.16406955       0.27702582      -0.15442663
C        1.24794123       4.96509944       7.38659365      -1.47352416       0.49653967      -0.12334996
C        3.64539543       4.97315661       7.52638418       2.18257271       0.42804754       0.16069678
C        6.16535485       5.01329791       7.56242686      -0.07816231      -1.26248956      -0.40340711
C        8.60356169       4.98646268       7.48834240      -0.10751094      -3.08484068       0.42086748
C       11.05728040       4.94010331       7.35110724       0.57989561       0.53625961       0.59712637
C       -2.46519341       7.16656957       7.53598569      -0.25173877      -3.04610727      -0.54908402
C        0.00397982       7.16148877       7.46805835       0.37511701      -3.84196269       0.42010669
C        2.46373576       7.08796218       7.60176158       0.25037737       1.86369035      -0.93644848
C        4.86711590       7.10497213       7.65907705       3.50380863       1.37195222       0.72473176
C        7.40002846       7.12388800       7.68414024       0.45609673      -0.77288801       0.19541695
C        9.82860996       7.10482873       7.39258723      -1.07361066      -1.36562807       1.35753424
C       -3.68756732       9.23685185       7.42717058      -0.09025601       0.58069650       0.41297445
C       -1.23439877       9.23880452       7.57835319       2.08485253       0.77111472       0.47848358
C        1.24697283       9.15967812       7.61829337       0.36474312       2.97392869      -0.84378464
C        3.73173722       9.25976988       7.75391438      -0.67281270      -0.03399410      -1.64615960
C        6.20293533       9.20436662       7.73630517       0.36179869       2.11723480       0.23911799
C        8.64298957       9.21086794       7.59748725       0.99872008       1.79068259       0.20563400
C       -4.88498368      11.41003314       7.54998200      -2.45889431      -0.42099886      -0.50929851
C       -2.44349459      11.38359650       7.55942429      -0.65495331      -0.95641541      -0.74702477
C        0.00779000      11.41241632       7.42470320       0.13714624      -4.09611958       0.57136211
C        2.43872194      11.31813250       7.48017290      -0.27575827       0.88267051       0.01514637
C        4.95610991      11.35348517       7.52049174      -2.74837738       0.59861889       0.34434579
C        7.39883598      11.34774166       7.50210215      -0.72225167       0.35378379       0.39248353
72
Lattice="14.76 0.0 0.0 -7.38 12.782534959858314 0.0 0.0 0.0 15.0" Properties=species:S:1:pos:R:3:REF_forces:R:3 REF_energy=-11165.336011219977 config_type=fd_force_conv_snapshot_045 snapshot_index=45 split=validation degauss_Ry=0.00285013035 kgrid=8 lattice_temperature_K=450.0 trajectory_seed=1 p4_key=seed1:snapshot045 pbc="T T T"
C        0.03137376       0.02352966       7.27792508      -2.15047274      -0.71184719       0.54374358
C        2.42357618       0.04996667       7.23976690       2.25127695      -2.83429182       0.26311076
C        4.92928306       0.02496509       7.44437178      -0.48247934       0.15490177       0.16223095
C        7.43032164      -0.02723566       7.55083307      -1.45775867       1.66069944       0.70019444
C        9.82914016       0.00730147       7.77504469       1.41251754      -1.21926648      -0.11757243
C       12.27254999      -0.03712046       7.41742986       1.54618122       0.51678814       1.45898894
C       -1.21149307       2.12816339       7.66824522      -1.44421281      -0.39295789      -1.07999600
C        1.23023101       2.14120512       7.38378443       0.21260015       0.75631211       0.47844759
C        3.67124126       2.11174793       7.34894743       3.13901666       0.21269631       1.52205373
C        6.20438050       2.09820776       7.61416278      -0.09467702       2.16316911       0.08902419
C        8.60711614       2.12700741       7.97179639       1.11843656       0.73621508      -1.34072437
C       11.06738116       2.13288810       7.81936164       0.55906376      -1.40339707       0.29596226
C       -2.49736159       4.23674590       7.71311993       1.36231032       1.88460859       0.18291908
C       -0.04116748       4.28962890       7.57819400       1.17031551      -0.73109370      -0.10625649
C        2.44997138       4.23551324       7.46580205      -1.10461971       0.95158508       0.31478145
C        4.93224381       4.22334720       7.55891919      -1.47698641       0.61393675       0.17025151
C        7.34506815       4.29176397       7.67939281       1.52791353      -0.66254063      -0.77927720
C        9.84357654       4.27859648       7.75493909      -0.72870900      -1.17752797      -0.76587198
C       -3.65163537       6.41327740       7.52452196      -1.67243730      -1.19877865       0.31193241
C       -1.22598170       6.44800023       7.69040334      -0.44477231       0.01537751      -0.04094790
C        1.13470703       6.42197764       7.40150373       2.39212404      -1.21544068       1.01247266
C        3.63606959       6.36807335       7.49041427      -0.04105460       0.32858776      -0.37556618
C        6.14259143       6.39208130       7.31975924      -1.85206871      -0.03102293       0.89213886
C        8.60046396       6.35431679       7.34036092       1.03615149       0.40809706       0.53727211
C       -4.89938465       8.53378154       7.38034493       0.13889845      -1.38308792      -0.16372116
C       -2.42291098       8.56280467       7.60910940      -0.86749741       0.68269577      -1.14315566
C        0.03643346       8.55950239       7.52781524      -1.44984636       1.64539032       0.13428409
C        2.42576165       8.45537407       7.33560376      -0.07330395       2.17506740      -0.30708793
C        4.92222854       8.48055676       7.33777952      -1.09397560       3.03824407      -1.13555908
C        7.40231720       8.52075179       7.40798149      -1.27282282      -2.41889128      -0.90249243
C       -6.14468547      10.62442656       7.28717174       0.60814946       0.69045998       0.08230538
C       -3.70127473      10.70026845       7.50922162       1.00352239      -1.45746068      -2.03965408
C       -1.24321995      10.71934310       7.44910510       0.27076030      -2.20834056       1.03100928
C        1.25077034      10.65483193       7.37874782      -0.10904666       0.69328460       1.13992070
C        3.68739399      10.57538808       7.40073218       0.46101602       2.61150702      -0.31483827
C        6.20874619      10.58872054       7.33820551      -1.89742143       2.25604661      -0.17883385
C        1.24227050       0.76710796       7.28090445      -1.40608978      -1.92526004      -0.27515149
C        3.66750797       0.70260783       7.36300633       0.65962963       0.43195716      -0.50851304
C        6.17573507       0.72787144       7.52513116       0.76854464      -2.39242023      -0.00326144
C        8.62449078       0.72700312       7.79956289      -0.93622865      -1.27847590      -0.03298031
C       11.07726754       0.66292837       7.78669330       0.04315571       1.29850146      -1.16214171
C       13.52321131       0.74159828       7.42409298       0.41424509      -2.33459355       0.10497634
C       -0.00968230       2.80142465       7.53937128       0.67476674       3.22758884       0.31864813
C        2.49271367       2.80289767       7.46809286      -2.43455084       1.98104398      -1.12592670
C        4.97731047       2.80850148       7.53430493      -1.90528977       0.08561388      -0.52890497
C        7.42906977       2.85452610       7.77538577      -2.29834280       0.08888355       0.24215190
C        9.85162261       2.83643381       7.90172328      -0.27805658       0.60620545       0.19524083
C       12.29388656       2.83946212       7.73975210       0.34107046      -0.33335381       0.18471808
C       -1.24521837       5.02328384       7.72598568      -0.51034135      -1.33904107      -0.75134859
C        1.19723233       5.02577162       7.42466523      -0.69089090      -3.10096484       0.63315729
C        3.64937363       4.92999851       7.56071984       1.67684237       0.70043535      -0.77333821
C        6.10644248       4.99769947       7.53125733       1.49367313      -1.15545427      -0.14086791
C        8.62059105       4.96269245       7.52735515      -1.40106919      -0.29216088       1.01492549
C       11.05042630       4.96179801       7.62776932       1.34385212       0.90521780       0.43273337
C       -2.46600239       7.15737021       7.62568398       1.33024404      -0.70661011       0.18304660
C        0.00809991       7.17247858       7.59255883      -2.53239443      -1.20860335      -0.38271333
C        2.36662050       7.06528660       7.44613573       2.76339879       0.15232398      -0.66350248
C        4.87521718       7.13120074       7.36872960       0.59886366      -3.59642208       0.24881054
C        7.36395110       7.04769547       7.29161529       1.10114692       2.22623955       0.53682166
C        9.85792751       7.05892978       7.42456376      -0.39480652       2.23295399      -0.51372492
C       -3.65651056       9.25584449       7.35700193      -0.75699911       0.19008371       2.24450184
C       -1.19551730       9.29399972       7.59070644      -0.51236018      -0.65357031      -0.53088189
C        1.24061628       9.26131145       7.37213162       0.45623789      -1.56115867      -0.02728712
C        3.63037899       9.18471962       7.20375245       2.19108280      -0.76775737       1.88678194
C        6.17893947       9.21286768       7.34318048      -0.68544402      -1.81414597       0.30933533
C        8.59725800       9.21331666       7.39514843       2.04677707       0.45608748      -0.44444938
C       -4.89264661      11.35038473       7.22491273      -2.32631434       1.84394505       1.32840081
C       -2.46851126      11.40420357       7.52284294       0.04640327       0.34478776      -0.49885212
C       -0.00460343      11.34302570       7.46119755       1.62426743       1.63353548      -0.45068405
C        2.48254937      11.36470179       7.57878312      -0.45050227      -0.76587584      -1.12659956
C        4.97376422      11.31306919       7.35276323      -2.06849517      -0.28640521       0.27908579
C        7.38839455      11.32740727       7.32169989       1.51788340       1.95714455      -0.73369514
72
Lattice="14.76 0.0 0.0 -7.38 12.782534959858314 0.0 0.0 0.0 15.0" Properties=species:S:1:pos:R:3:REF_forces:R:3 REF_energy=-11164.901583109246 config_type=fd_force_conv_snapshot_051 snapshot_index=51 split=validation degauss_Ry=0.00285013035 kgrid=8 lattice_temperature_K=450.0 trajectory_seed=1 p4_key=seed1:snapshot051 pbc="T T T"
C        0.02861076      -0.03381867       7.76521581      -1.91194456       2.16321230      -0.92181762
C        2.43450750       0.04013143       7.84417380       0.49099766      -0.26429501      -1.21642490
C        4.89417641      -0.05319341       7.54696387      -0.15962205       2.16957449      -0.62996527
C        7.37479570       0.03325636       7.40348936      -0.22094904      -0.67032362      -0.73285953
C        9.81690835       0.04090296       7.51374042      -1.53050521      -2.00130839      -1.29323275
C       12.28254721      -0.01102655       7.33502591       0.34442961       1.05376175       1.68582812
C       -1.18520475       2.09136758       7.50370596      -1.15263712       1.09475593       0.53977200
C        1.23762907       2.13521682       7.58831469       0.37571171       1.41279136       1.30403087
C        3.73262285       2.12318837       7.60102103       0.52198562       0.32286885      -0.84026505
C        6.19896335       2.11128095       7.15322328      -1.51355135       0.26493058       1.06227441
C        8.64379655       2.13332888       7.06067170       0.26590452       0.40819579       1.01435908
C       11.08023319       2.13083426       7.27360555       0.58971028      -0.22216928      -0.78463435
C       -2.41183179       4.25303451       7.46612814      -1.61076399       0.25884324      -1.55755424
C       -0.00101327       4.29945371       7.51045183       0.06762747      -0.61158702       0.27201886
C        2.48217408       4.21738981       7.43795664      -0.35037297       2.20580648       0.24809731
C        4.98992067       4.25963642       7.42936355      -2.75492341      -0.07200349      -0.07291417
C        7.42488114       4.26811428       7.20572310      -0.87445147      -1.42449837       1.01620307
C        9.84506529       4.26452451       7.24490731       2.11671647      -0.80618714      -0.06005274
C       -3.66172937       6.36625908       7.50975012      -0.81370607      -0.64788663      -1.07374307
C       -1.18702811       6.45933986       7.46762750      -2.11362960      -1.54715567      -0.42081374
C        1.24625176       6.39715694       7.44986513       1.21269989       0.97628798      -0.37175709
C        3.63420720       6.46477312       7.51097263       2.63375246      -2.69733790      -0.45408202
C        6.13948054       6.37266418       7.52234748       0.10819973       0.81190501      -0.64468381
C        8.60010135       6.36251997       7.55743589       0.88586151      -0.06760947      -1.17380938
C       -4.93421403       8.48535656       7.56167325       0.52088056       0.50046857       0.53199158
C       -2.47915247       8.50450161       7.55578177       0.47589114       2.14612809       0.01285860
C        0.02067503       8.48807984       7.50857386       0.91117531       1.59355046      -0.32799512
C        2.47950573       8.51902823       7.61753268      -0.53141746       3.47436461      -0.68194860
C        4.94735722       8.51691667       7.48909664      -0.41084969       1.98068120       1.59842064
C        7.36903192       8.53521710       7.73897450       0.97784221      -3.51229687      -1.25705167
C       -6.15885783      10.64610785       7.68774210      -1.57170199      -0.75727730       0.40771166
C       -3.77258952      10.66544097       7.58947137       0.97072308      -0.80597271       0.63028203
C       -1.25450568      10.68008370       7.53276651      -1.01688750      -2.31463228      -0.83157112
C        1.16024365      10.62110772       7.58516438       1.38535178       1.69957015      -0.67601964
C        3.63700613      10.64941066       7.62076846      -0.25694011       1.28600435      -0.21908190
C        6.07811667      10.63114679       7.81264831       1.56561285       1.31428160      -1.12140670
C        1.20516613       0.77424269       7.75430368       1.21548928      -3.33840365       0.38863227
C        3.69131938       0.70578811       7.72614291       0.25983697      -0.07538063      -0.46022335
C        6.13417735       0.68854460       7.28651683      -0.08356522      -0.06034893       0.74748294
C        8.59793180       0.75882229       7.32281214       0.24688093      -1.15105049       0.07875212
C       11.00929155       0.68867839       7.31156239       3.17373040       1.37224841       0.26772254
C       13.57144305       0.68115362       7.52586382      -1.41203597      -0.33230197      -0.29907612
C        0.00947516       2.82701990       7.72759227      -0.03098719       2.03584859      -2.70831548
C        2.50975581       2.82068828       7.51905938      -1.11379495      -0.29566349       0.40190250
C        4.97401063       2.84399140       7.35585472      -0.35964848      -0.64949665       0.34470292
C        7.42283297       2.82963175       7.10655066      -0.50725217       0.62022310      -0.60728248
C        9.89320289       2.84690408       7.12286454      -1.53358719       0.09956288       0.36709671
C       12.32365551       2.83979921       7.33845398       1.13413880      -1.09417023       1.02187287
C       -1.23600799       5.03880443       7.44944244       1.82443989      -1.29262057       0.71359168
C        1.24111752       5.00821713       7.39482060       0.26851702      -2.39674766       0.81305712
C        3.67272820       4.96548602       7.50959849       1.77081619       1.11901223      -0.54669289
C        6.20143929       4.94906177       7.41376767      -0.37707593       1.18297382      -0.47437753
C        8.63439131       4.92960450       7.38690833      -0.48387210       2.13512531      -0.65939463
C       11.10366518       4.94069246       7.32642760      -0.36231600       0.75780515       1.36551212
C       -2.48721277       7.12121178       7.50401896       2.19472503      -0.71249485       0.19825725
C        0.05392248       7.10082831       7.43768309      -1.53056588      -0.08780420       0.50053568
C        2.46759556       7.18800658       7.50136968      -1.48176403      -4.47517397       0.11288171
C        4.89457927       7.15445442       7.45962209       0.60096477      -3.30074419       0.59241585
C        7.36469907       7.08297125       7.54025670       0.21087417       0.17250482       1.19459906
C        9.86889799       7.06070765       7.47975426      -1.43453852       0.42511134       1.18035258
C       -3.71007552       9.25779464       7.65538857      -0.83644542      -1.91523788      -1.36454898
C       -1.19012592       9.18489823       7.49048213      -2.12428760       2.18768689       0.71909205
C        1.24725787       9.22680656       7.55037974      -1.20676090      -0.34615353       0.54846978
C        3.68939461       9.23440363       7.60291329       1.01164862       0.17857417      -0.17849241
C        6.20243360       9.19889344       7.73789466      -4.70427675       2.39934859      -0.52903996
C        8.56773478       9.17304906       7.64033122       2.91702889       2.98329933       0.37926163
C       -4.94922835      11.39360025       7.69793885      -1.54942955       0.02454298       0.33792420
C       -2.56854021      11.33628048       7.51185698       3.74792382       0.31762020       0.57573967
C       -0.04033819      11.38340849       7.47649447       0.01819775      -0.28592338       0.79598114
C        2.38755231      11.36559979       7.55988177       0.93702132      -0.02026492       0.65752030
C        4.85808980      11.41410502       7.61400389       0.71417404      -3.07064511      -0.01964683
C        7.33108539      11.35823542       7.75931271       1.25957547      -1.82630317       0.58356997
72
Lattice="14.76 0.0 0.0 -7.38 12.782534959858314 0.0 0.0 0.0 15.0" Properties=species:S:1:pos:R:3:REF_forces:R:3 REF_energy=-11165.44054620012 config_type=fd_force_conv_snapshot_057 snapshot_index=57 split=validation degauss_Ry=0.00285013035 kgrid=8 lattice_temperature_K=450.0 trajectory_seed=1 p4_key=seed1:snapshot057 pbc="T T T"
C        0.06517306       0.02273152       7.41301170      -1.89828403       0.56551954       0.53747883
C        2.50229094       0.00376302       7.46929051      -1.44970829       0.72112090       0.49973555
C        4.95282011      -0.01273847       7.53255718       0.57545917       1.75096008       0.20135183
C        7.38569339      -0.01759686       7.76476137       0.94829818      -0.98608491      -0.18662764
C        9.87130158       0.05896427       7.78607353      -1.50660809      -2.50546675      -0.54602235
C       12.29206031       0.00786710       7.47602374       1.52334546       0.16326428       0.45630756
C       -1.22835502       2.15399407       7.48901823       1.09145232      -0.89794544       0.37929582
C        1.20840332       2.16074887       7.35186331       1.15224837      -1.80451847       0.16980491
C        3.69247693       2.13863200       7.33196337      -2.85058567      -0.63306988       0.66488136
C        6.15119775       2.14546580       7.56558632      -1.02023199      -0.80449484      -0.69369006
C        8.64403947       2.13672214       7.67859184      -1.17877392       0.18578072      -0.13679426
C       11.09261939       2.11324972       7.67015192       0.24333409       3.07343373       0.73781071
C       -2.45338274       4.29823323       7.61255065      -2.17749041      -1.69681624       0.73474004
C       -0.02766232       4.28023494       7.47265787      -0.31378360      -1.09030509      -0.80444239
C        2.36248202       4.28440855       7.31691152       1.86340085       0.32399834       1.04005468
C        4.88999494       4.25932663       7.45324327      -1.54261459      -0.52282406      -0.78929962
C        7.30345718       4.22992236       7.54731701       1.57815932      -0.11758760      -0.73605696
C        9.81353999       4.28205593       7.65491840       0.10919398      -1.69963006      -0.13946872
C       -3.74030355       6.40155126       7.51934586       0.09752940      -1.46347732       0.05047178
C       -1.19930799       6.35647799       7.55306835      -3.74832800       0.88218663      -0.00195070
C        1.20057083       6.38941221       7.58283659       1.24328984       0.53353862       0.75398603
C        3.71349325       6.42988651       7.47808548      -1.14530896      -2.39030704      -0.16075823
C        6.10563336       6.38595330       7.33997504       1.48861911       1.94297572      -0.30950117
C        8.55663619       6.32643683       7.45361655       0.21261712       1.06911535      -0.62853599
C       -4.89500016       8.49009077       7.45478265      -0.77290344       1.63588830      -1.12467868
C       -2.46085011       8.47125112       7.64178729      -0.56548534       2.50738145      -2.13823403
C        0.02203038       8.47584769       7.61954358      -0.37585260       0.69644474       0.02478004
C        2.48792674       8.48005158       7.46979138      -0.90053145      -0.44155689       0.25942199
C        4.88132339       8.56204348       7.22905556       1.84461662       0.38751410       0.13929388
C        7.43286399       8.54315453       7.12425398      -0.55546216      -1.16915594       1.24241284
C       -6.12348915      10.66298250       7.40301842       0.41959709       0.19716376      -0.52762534
C       -3.66384664      10.68457735       7.50444444      -0.50978728      -0.26173804      -0.44062820
C       -1.21796810      10.61437352       7.58809873      -0.16034762      -0.58975424       0.10214247
C        1.26232810      10.58668416       7.66268331      -0.00517409       1.50304403       0.24118722
C        3.64917065      10.67056160       7.52075476       3.20305435      -0.67611400      -1.47204706
C        6.20110005      10.66099790       7.36377946      -0.39193742       0.65308951      -1.01524302
C        1.25145505       0.72089056       7.49402834       1.28903363       1.27215793      -1.21517072
C        3.70619784       0.71740479       7.49386170       1.01981110      -0.34941343      -0.80218341
C        6.22073447       0.74462618       7.62233804      -2.79628809      -2.11472232      -0.04641767
C        8.60701941       0.71790303       7.78114765       0.95302927      -0.06065644       0.01836590
C       11.06361609       0.73897286       7.65196734       1.50658778      -1.20109598      -0.17878449
C       13.56703139       0.69271691       7.47574594      -1.25996833       1.86992296      -0.43622750
C        0.02278971       2.86478240       7.32541503      -2.56954353       0.05104540       1.39390095
C        2.41294676       2.86223067       7.30657985       1.34903237       0.15868592      -0.14509944
C        4.85466723       2.82501081       7.38046442       3.92802394       1.54010134       0.98867324
C        7.36599570       2.81017242       7.56891496       0.58592561       1.22435753       0.64999802
C        9.88426310       2.86634946       7.66016773      -1.29595169      -1.31306624       0.41791662
C       12.32335521       2.86327822       7.73382955      -0.25633641      -0.26616394      -1.95410397
C       -1.23913652       4.96053329       7.51129577      -0.18372949       0.66554574       0.39523486
C        1.12979832       5.02609957       7.47029944       3.01742533      -2.08337415      -0.54160031
C        3.64038905       4.95723503       7.44614172       0.56634461       1.19986880      -0.48481364
C        6.11372863       4.97391387       7.42385399      -0.59678852      -0.15694554       0.57129578
C        8.54654745       4.88812319       7.53195550       0.22784705       2.61369194       0.42274001
C       11.02231725       4.97348842       7.66672490       1.71092054       1.17329902      -0.93196910
C       -2.51492632       7.08938447       7.47310186       2.39557215      -0.79809125       1.47083633
C       -0.02473883       7.04785858       7.70138512       1.21451046       2.34152113      -1.21967555
C        2.48612593       7.06437230       7.57856997      -1.38306684       1.00023806      -0.85101072
C        4.90392250       7.17154242       7.32488311       0.26863991      -2.17996407       0.03772631
C        7.37934814       7.11014875       7.27819085      -0.81896141      -1.31134874      -0.01333246
C        9.78451284       7.06579734       7.44259025       0.82107202       0.28244314       0.51106357
C       -3.69250799       9.28274173       7.47568877       1.20901087      -3.27074198       1.34406269
C       -1.21207179       9.19070816       7.56175041      -0.12447790      -0.62183904       0.95322184
C        1.28640200       9.18013073       7.54330065      -2.09310989       0.13259025       0.63990361
C        3.63099679       9.23367298       7.31882597       2.36674571       1.28139822       0.89496784
C        6.19479327       9.21943922       7.20156469      -1.29901182       1.86659210       0.12148771
C        8.67300417       9.23878056       7.27151578      -1.27533967       0.11696668       0.51965903
C       -4.90724954      11.37836795       7.47289294       0.91404877      -0.19318369       0.04011667
C       -2.41803979      11.36972514       7.51600868      -0.61852617      -0.29815001       0.41495780
C       -0.00138991      11.25696425       7.74313740       1.42435593       3.09645101      -0.56016419
C        2.50237401      11.38181303       7.69407569      -2.57441577       0.47846970       0.12597866
C        4.95009983      11.38732722       7.38349756      -1.27523529      -1.47336990       1.04631326
C        7.43516700      11.43029310       7.37887529      -0.87220175      -3.71479233       0.01857931
72
Lattice="14.76 0.0 0.0 -7.38 12.782534959858314 0.0 0.0 0.0 15.0" Properties=species:S:1:pos:R:3:REF_forces:R:3 REF_energy=-11164.865489521515 config_type=fd_force_conv_snapshot_063 snapshot_index=63 split=validation degauss_Ry=0.00285013035 kgrid=8 lattice_temperature_K=450.0 trajectory_seed=1 p4_key=seed1:snapshot063 pbc="T T T"
C        0.04214000       0.00762282       7.50699269      -3.27429062       1.37250732       0.59196796
C        2.45351660       0.00441983       7.66353256      -0.56289367       2.15195138      -0.82677267
C        4.89032970      -0.00454530       7.58027374       1.69395383      -0.28021888      -1.15156960
C        7.36667557       0.07019822       7.38100121       2.38346277      -2.43489666      -0.17512272
C        9.88317422       0.00785870       7.24784646      -2.87956869      -1.11162005       0.20044783
C       12.26172572       0.03215276       7.42459644       1.76592313      -1.18161139      -0.37526768
C       -1.18773897       2.21204192       7.52751904      -2.46166595      -3.89911908      -0.18672148
C        1.23052278       2.13847634       7.52303372       0.74344168      -0.44750590       0.02612215
C        3.77315036       2.11252492       7.48133052      -2.81283699       1.18424832       0.60773448
C        6.17072993       2.08727135       7.40735542       0.23861869       2.07401713       0.65131468
C        8.59351309       2.20376866       7.22143479       0.85961903      -2.29704285       0.30273223
C       11.06517759       2.14597040       7.30369383       0.79558262       1.68325059       1.06547621
C       -2.40114709       4.28375752       7.47051662      -3.48047998      -0.89941122       0.73975986
C        0.01792890       4.26180107       7.39415394      -0.92856419      -0.16580659       2.24570743
C        2.45074886       4.21386253       7.58423052       1.71252003       1.29054312       1.08169318
C        4.90686425       4.26726131       7.70300108       3.40069634      -2.40316924      -1.08162376
C        7.43690156       4.34576955       7.43994536      -2.41163512      -3.59713325       0.14139962
C        9.86569538       4.26041892       7.38113983      -0.38489594       0.01569170      -0.16926523
C       -3.66070230       6.35856861       7.53059735      -0.87967775       1.72171558       0.10165191
C       -1.24619675       6.43043085       7.44631487      -0.48345327      -1.82761443       0.26065484
C        1.22301312       6.28843189       7.59455541       0.20889930       2.86090763      -0.39799880
C        3.68978537       6.35506723       7.68595703       1.26800200       0.16022446       0.53285393
C        6.19797052       6.34739452       7.81953292      -0.54968334       2.60279998      -0.87959059
C        8.70271109       6.39614460       7.65104048      -3.15975646      -0.14468009      -0.24997705
C       -4.94030653       8.53559511       7.66609713       0.04103943      -0.95904282      -0.01617198
C       -2.49600875       8.58360317       7.42036371       0.49141623      -0.98135074       0.74825221
C       -0.00053830       8.48170616       7.30895113      -0.76951472       0.17396315      -0.04811408
C        2.43742955       8.48841861       7.50675276      -0.60441287      -2.50904856      -0.85206847
C        4.90271999       8.49928454       7.67876190       0.20621327      -1.70398422      -0.26681752
C        7.36934591       8.52456800       7.63709338       0.85731378      -0.04015472       0.69324115
C       -6.23748302      10.72151913       7.61827323       3.37173157      -3.32267698       1.05918703
C       -3.76421347      10.66436641       7.55631613       1.81714001       0.12166152       0.03320785
C       -1.17807415      10.67159476       7.38014711      -2.38018975       0.38437812      -0.37088317
C        1.18787753      10.62024852       7.27642921       0.42114773       0.94762326      -0.32438966
C        3.62332448      10.56586454       7.30161015       0.61605637       0.93616180       1.06006095
C        6.11563072      10.66521678       7.50611730      -0.86281903      -0.44155843       1.03295278
C        1.21605374       0.72507798       7.57324358       1.73900419       0.28657053       0.06642034
C        3.68799978       0.72871150       7.53134237       0.04458576      -1.75005016       0.78434767
C        6.14622017       0.71177575       7.52650605      -0.61445046      -0.78017529      -0.83751629
C        8.65123974       0.74998539       7.28041008      -1.35628263       0.13706859      -0.30318757
C       11.06733022       0.74641672       7.30619193       0.39772600      -0.50355878      -0.01641032
C       13.54027553       0.72914393       7.45178781      -0.20121016       0.52965522       0.54754959
C        0.01906390       2.85099422       7.49331367       0.78850900       1.16297964      -0.44952551
C        2.47353104       2.82796307       7.54091245       1.12931464      -0.78735998      -0.36017710
C        4.99127304       2.80191680       7.51251795      -2.32519951       2.19703928       0.36711419
C        7.35133121       2.84286788       7.31491293       1.94856710       2.33489746       0.11017691
C        9.83801240       2.87348522       7.24482737       0.44601235      -0.68889855       0.18210892
C       12.31881013       2.88796202       7.56926458      -0.30745380      -1.50813635      -1.97020550
C       -1.22721908       4.96811671       7.51047511       1.53864429       2.00263714      -1.10225455
C        1.22255955       4.92186068       7.65367686       0.59727729      -1.01247574      -1.70557188
C        3.73588923       4.95575874       7.70612729      -3.44408653      -0.97681146      -0.38624860
C        6.16488596       4.96667891       7.67519943       0.89443305      -0.11522759       0.10474160
C        8.67407217       4.99250298       7.45576876      -0.94302742       0.36377099       0.44185642
C       11.05993503       4.93587603       7.46724958       3.00587439       1.91364740       0.01048522
C       -2.47652875       7.16692138       7.47853514       0.63415360      -1.99637316      -0.33315583
C       -0.00278437       7.02508732       7.40744891       0.94410085       2.42247026       0.37691652
C        2.46010404       7.00074838       7.60571183      -1.43489616       2.66308772      -0.03102602
C        4.92834429       7.06423928       7.75780948       0.63795677       0.37652469       0.19517604
C        7.44841274       7.11869689       7.72215425      -1.30634024      -1.64868082       0.12622111
C        9.86175917       7.09093071       7.63764762       1.91903309       1.17416522      -0.18770776
C       -3.72986109       9.22309101       7.60244827       0.09718847       2.61900127      -0.77349659
C       -1.25532747       9.26664050       7.34891864       1.76680296      -1.58066614      -0.19163563
C        1.22140258       9.20683800       7.25099321      -0.50077068      -1.09159476       1.36251190
C        3.66269966       9.12948033       7.49709482       0.09517710       2.65857723      -0.24522745
C        6.11637101       9.19820780       7.63103901       0.71206059       2.28486405      -0.42810642
C        8.60894389       9.25431645       7.65192564      -1.61944815       0.80442310      -0.24635308
C       -5.00740050      11.40997292       7.68010126       2.45836852      -1.53750812      -0.66748589
C       -2.43855916      11.36608670       7.41435798      -2.41672616      -0.26375148       1.60412952
C        0.01325245      11.39816751       7.32206665      -0.33876084       0.27459896       0.29570103
C        2.39827906      11.30300479       7.27781163       2.29826746       1.70670702      -0.31587365
C        4.82440224      11.34494715       7.42100914       2.12177332       0.17582798      -0.26542218
C        7.36903301      11.40799213       7.65268974      -3.41261648      -0.88124381      -1.56293402
72
Lattice="14.76 0.0 0.0 -7.38 12.782534959858314 0.0 0.0 0.0 15.0" Properties=species:S:1:pos:R:3:REF_forces:R:3 REF_energy=-11165.645711598938 config_type=fd_force_conv_snapshot_069 snapshot_index=69 split=validation degauss_Ry=0.00285013035 kgrid=8 lattice_temperature_K=450.0 trajectory_seed=1 p4_key=seed1:snapshot069 pbc="T T T"
C        0.05422410       0.00559711       7.61566507      -1.22349055       0.88397483       0.85363196
C        2.49644462      -0.02027426       7.42794484      -1.52935104       1.60089481       0.70187054
C        4.96957714       0.01104013       7.39625629      -2.04029197      -1.70499287       0.15913432
C        7.36197825       0.03006766       7.74800292       0.52726332      -1.17438274      -1.59135319
C        9.82785288       0.03021400       7.62770499       0.63370314      -0.83705554       0.41572913
C       12.27519831      -0.01512283       7.69786405       1.68346373       0.39585707       0.42577983
C       -1.27691924       2.17985145       7.61846037       2.22516560      -2.13491988       0.67174904
C        1.24268297       2.17204856       7.51669892      -0.75385439      -2.23358237       0.75446965
C        3.66887838       2.10711377       7.42602635       0.83327525       0.52653853       0.25658350
C        6.06554049       2.11663182       7.61831745       1.64203966       0.62150197      -0.14642870
C        8.58587313       2.15199990       7.53470074      -0.07451006      -0.29294944       0.48278967
C       11.07333577       2.18177973       7.61804438       0.09915691      -0.52193060       0.19536913
C       -2.45912241       4.26884129       7.45977327      -1.47834961       1.80113284       0.27044586
C        0.00309248       4.25196243       7.49718274      -0.55731206      -0.74065974      -0.04001614
C        2.45772233       4.24518738       7.43611832       0.24681151       0.68679231      -0.22212069
C        4.89638383       4.27316677       7.49293784      -1.18517571      -0.48101586      -0.14491046
C        7.30993451       4.24947083       7.54578805       1.31637756      -0.33436322      -0.18714237
C        9.84122008       4.26774525       7.47336294      -0.63008174       0.64896366       0.40293557
C       -3.69056834       6.39348701       7.46324473       1.70358287      -0.69612130       0.35366424
C       -1.20173382       6.38005122       7.59439205       0.39488134      -1.62040563      -0.43771566
C        1.27716234       6.34194208       7.46433100      -3.43925748       1.56350017       1.23425293
C        3.69195185       6.40270096       7.41697706      -1.51513798      -1.03495361      -0.07163119
C        6.15939444       6.38840874       7.33266601      -2.00520721       1.31701340      -0.23095628
C        8.62591674       6.35978122       7.31483934      -1.12247293       0.41386379       0.73070572
C       -4.92636544       8.45030187       7.35339921       2.42141919       2.09865344      -0.26248058
C       -2.40399683       8.49327443       7.41875228      -2.31287981       0.28577735      -0.01445911
C        0.00663521       8.54743388       7.56641619      -0.26699441      -0.10650795       0.48446191
C        2.42837243       8.50609587       7.65938421       0.79298118      -1.05096181      -0.53280431
C        4.88789782       8.57298904       7.40883231       0.95549084      -2.44618971      -0.35085171
C        7.41011677       8.49659490       7.27038693      -0.30857712       2.22509670      -0.15658995
C       -6.15681365      10.67350859       7.35927970       0.19430726      -3.42454666       0.06762233
C       -3.72220080      10.67892366       7.24510551       1.02971319      -3.14700739       0.76817878
C       -1.21054242      10.69437817       7.44001699      -0.25376120      -2.12133751       0.13078430
C        1.27870543      10.69039545       7.72858155      -2.21084610      -1.52999613      -0.77674209
C        3.72014543      10.65551751       7.62923666      -1.66585091      -1.34330344      -0.03540409
C        6.21740667      10.64598282       7.45900523      -2.07717959       0.21615830       0.03541977
C        1.26713801       0.73883066       7.69066881       0.78035603      -0.53839697      -2.35399330
C        3.72708787       0.70839122       7.36145213      -0.62079440      -1.13869531       0.32652753
C        6.13399342       0.71462424       7.60522030       0.38482832      -0.07982864       0.07824715
C        8.59204232       0.71439617       7.62028103       0.30554579       1.27764030       0.50918153
C       11.06118304       0.75510964       7.72737029       0.09524497      -0.74597421      -1.05837122
C       13.54882980       0.68903645       7.75205927      -1.36673211       1.46909544      -1.33552226
C       -0.00633751       2.84237495       7.54052250      -0.16876001       0.09971278      -0.05032832
C        2.46957506       2.81754435       7.39876931      -0.59641417       1.53104000       0.54063743
C        4.87231608       2.84032832       7.56995544      -0.13040995       0.35821921      -0.69995892
C        7.29765617       2.81721646       7.56745311       1.60656487       0.97646281       0.28914215
C        9.85422180       2.87374394       7.51994102      -1.70189469      -1.27694327       0.11031112
C       12.29341753       2.93314606       7.58734097      -0.64201089      -4.75384042      -0.01972910
C       -1.24658423       4.88601987       7.48840315       2.16762946       4.70728700       0.42078417
C        1.22234041       4.95948384       7.49272526       0.75220014      -1.33385952      -0.54556444
C        3.67917148       5.00149748       7.40457820      -0.08880796      -1.92439333       0.32505300
C        6.09733227       4.97182513       7.46563531       1.62912218       0.71806720      -0.02260360
C        8.58045849       4.94698119       7.52122427      -0.17710170       0.39431852      -1.18164302
C       11.06204352       4.98489168       7.46414574       0.09900804       0.10074533      -0.13846085
C       -2.40594824       7.06400155       7.56875734      -1.65119742       1.11138968      -0.85221477
C        0.02053252       7.12095300       7.60517025       0.54309309      -1.15723425      -0.86333942
C        2.44393858       7.02835748       7.50610603       1.24575116       3.84211927       0.15412375
C        4.85213489       7.10705438       7.34567369       4.39728806       1.55423160       0.26620585
C        7.38864905       7.13961108       7.23070156       0.15268856      -4.16491510       0.72682207
C        9.85440360       7.06649698       7.38086749      -0.84108292      -0.77537658      -0.23607201
C       -3.66995109       9.18146521       7.31314707      -0.48039443       1.48685662       0.06788561
C       -1.24895750       9.25264743       7.42088076       2.72374493       0.05827405       0.69432461
C        1.24370362       9.25555059       7.71448611      -0.64760381      -0.28850657      -0.57843728
C        3.65828738       9.21964537       7.58877959       0.52101040       0.98890438      -0.04031310
C        6.16865342       9.22570591       7.30875758      -0.14733578       0.62316830       0.71303427
C        8.67044185       9.18095739       7.33376642      -2.90324290       2.23891586      -0.33915268
C       -4.98842994      11.35171893       7.35545823       4.20528836       1.30777568      -0.46309836
C       -2.44903848      11.33248398       7.34265055      -0.79724381       2.59099759      -0.10083301
C        0.01628427      11.37994779       7.62975611       0.04696788       0.85177151       0.56569566
C        2.47623036      11.34972897       7.63325571       1.27584104       2.61351351       0.74620690
C        4.93199113      11.32414864       7.61811598       1.44488259       1.41121990      -0.25231161
C        7.42580757      11.38611399       7.45022692      -1.46507937      -0.44229762       0.40379355
72
Lattice="14.76 0.0 0.0 -7.38 12.782534959858314 0.0 0.0 0.0 15.0" Properties=species:S:1:pos:R:3:REF_forces:R:3 REF_energy=-11165.471963647591 config_type=fd_force_conv_snapshot_075 snapshot_index=75 split=validation degauss_Ry=0.00285013035 kgrid=8 lattice_temperature_K=450.0 trajectory_seed=1 p4_key=seed1:snapshot075 pbc="T T T"
C        0.03116395       0.01248768       7.55752493      -0.65599537      -0.37552170      -0.10275645
C        2.49413026       0.04866589       7.62553358       0.54253568      -1.92956150       0.04033007
C        4.93341673      -0.07211529       7.55903262      -0.31999230       2.31681489      -0.56345237
C        7.42399094      -0.02739781       7.50349529      -1.29002221      -0.52660255      -0.28213075
C        9.88547782       0.00727969       7.42210092      -2.32492518       0.04968220      -0.09966521
C       12.30983078      -0.03291257       7.36162614       0.23359783       0.30333952       0.30339043
C       -1.33176478       2.13606342       7.47963863       3.18282311      -0.60217679      -0.36514859
C        1.27647290       2.12960657       7.42739101      -2.09481324      -1.08089588       1.33878910
C        3.70143866       2.13728155       7.43228765       0.95910710      -0.90033862       0.37885925
C        6.14904662       2.01918714       7.49343030      -0.47245563       4.23267138      -0.86008183
C        8.60756073       2.11035139       7.55989099      -0.50864288       1.46389435      -0.85529701
C       11.07637370       2.15204745       7.48369315      -2.39526207      -0.08166415      -0.71539043
C       -2.48045174       4.31586080       7.43680357      -1.30949369      -1.28957356      -0.73159069
C       -0.02255016       4.25492650       7.41413270      -0.12382381      -0.27810080      -0.78349509
C        2.49464474       4.28875855       7.55411282      -0.89950018      -2.20545013      -1.38542634
C        4.87516177       4.24004656       7.36926462       1.10056431      -0.50764221       0.47932074
C        7.34429057       4.26823613       7.55416030       0.07771494      -1.98345439      -1.16159458
C        9.83194323       4.31945853       7.40169113      -1.25815699      -2.96890424       1.09000504
C       -3.68949326       6.42499054       7.54260099      -0.81518780      -0.60553593      -0.69304754
C       -1.24387045       6.40290107       7.42715734       1.00859363      -0.16537001      -1.14598850
C        1.29862235       6.35403757       7.40942166      -1.68972463       1.31820896      -0.79845943
C        3.72236446       6.40554310       7.56565250      -1.60128948       0.26443487      -1.01112026
C        6.19128466       6.39113430       7.59265681      -3.72269384      -0.75067213      -0.54312780
C        8.61047944       6.40695589       7.60734669      -0.13871179       0.11976533       0.29870022
C       -4.95848507       8.54654086       7.70027543      -0.80591923       0.40832718      -0.43539498
C       -2.48319043       8.50316650       7.36230022      -0.45434427       2.01243124       0.77487881
C        0.02959928       8.47105710       7.31650433      -0.38563154       1.84018815       0.49951546
C        2.47447562       8.54854725       7.55277323       0.45532232      -1.34080690      -0.89265231
C        4.91077705       8.59140335       7.61295403       0.63334627      -3.09894935      -0.47516095
C        7.38306790       8.52047093       7.61956758      -0.98732084       1.62197400       0.47766880
C       -6.09531517      10.69821284       7.73129250      -2.98590566      -0.46174159      -0.44454348
C       -3.66848425      10.64168524       7.69431597      -1.01779381      -0.76859298      -0.47288244
C       -1.23597745      10.63784057       7.50014034       1.27213145      -1.07555364      -0.49816384
C        1.20904243      10.65854550       7.45079066       0.31203345      -0.89823417      -0.15632050
C        3.67322857      10.64177507       7.56205525      -1.09894580       1.93692694      -1.68667376
C        6.16770686      10.62303140       7.43302284      -0.31159636       2.38638663       0.64988026
C        1.26798371       0.68381316       7.57505759      -0.50491478       2.43182985      -0.58806811
C        3.70901415       0.75854912       7.47934065       0.83735508      -3.74367327       0.90929969
C        6.16704045       0.64370177       7.44946183      -0.09877947      -1.12334068       1.01661548
C        8.62136871       0.70119925       7.50263195       1.11114157      -0.14395247       0.01737166
C       11.08480217       0.72408870       7.35725292       1.08898046      -0.32680032       0.88182334
C       13.55418523       0.67993555       7.46095988      -2.22809255       1.54757707      -0.19352976
C       -0.03908471       2.79842447       7.44685747       0.64941901       1.82290983      -0.10029745
C        2.50919425       2.79651679       7.53577374      -2.16875791       3.73093628      -0.87439490
C        4.91453515       2.79750579       7.42008504       1.12324555       0.84898958      -0.08235963
C        7.34832286       2.82280313       7.49469327       0.85532298      -0.75506358       0.76697679
C        9.82300600       2.85601945       7.47894729       0.25637241       0.15599063      -0.00629612
C       12.22869413       2.90722513       7.46211245       2.43096544      -1.40654667       0.06881969
C       -1.29683739       5.00449624       7.31502511       3.33812237      -0.77890645       1.62072187
C        1.25801918       4.95319217       7.38003690      -0.84952874      -0.80221093       1.35290343
C        3.68730353       5.01630236       7.43720700       0.39081694      -2.05481459       0.79625625
C        6.10026037       4.91457807       7.40614595       1.72045008       3.09341248       1.49204690
C        8.58637199       4.97242363       7.54243963       0.11346330       1.37734125      -0.18550535
C       11.04787747       4.97726178       7.41104329       0.18345284       2.88260337       0.69110199
C       -2.45744204       7.11372437       7.44845048      -0.37680031      -0.15465520      -0.03471324
C        0.03369352       7.05450504       7.35272982      -0.17862225       0.73806704       0.20405380
C        2.49536245       7.10873634       7.43417793      -0.31747262       0.42905901       1.26955418
C        4.89145393       7.10273768       7.63144807       3.80639945       1.93366370      -0.22031577
C        7.37238278       7.12771689       7.65931592       1.21929168      -1.46713111      -0.43079451
C        9.83420651       7.15767532       7.63081776      -0.13086992      -2.49286501      -0.24917846
C       -3.76683351       9.22204469       7.53670883       3.37198431       0.70250997       0.57013570
C       -1.24179991       9.23945249       7.31966760       0.62144823      -2.06489563       0.54426089
C        1.27318631       9.23536646       7.44149647      -2.16753047      -0.66736196      -0.13952554
C        3.69917625       9.26867780       7.55880413      -0.75581408      -1.15956238       0.77034570
C        6.15665461       9.24632068       7.51245618       0.08334437      -1.19665183       0.61038092
C        8.56359469       9.27449905       7.73177887       1.88384060      -0.47615391      -0.19600959
C       -4.87953296      11.38378290       7.74104247       0.54912953       0.80083127      -0.15415872
C       -2.42939798      11.30243270       7.64726916      -1.65558063       1.47369231      -0.44704002
C       -0.00897469      11.33181178       7.46704239       0.18181556       1.00461948       0.12432518
C        2.40058825      11.37669362       7.42666960       3.22965344      -0.33188982       0.79659512
C        4.89587168      11.31820195       7.40264268       1.14454020       1.08674643       0.42346095
C        7.37974357      11.39303109       7.58577098       1.13258688      -1.29400537      -0.19663591
72
Lattice="14.76 0.0 0.0 -7.38 12.782534959858314 0.0 0.0 0.0 15.0" Properties=species:S:1:pos:R:3:REF_forces:R:3 REF_energy=-11165.720408888503 config_type=fd_force_conv_snapshot_081 snapshot_index=81 split=validation degauss_Ry=0.00285013035 kgrid=8 lattice_temperature_K=450.0 trajectory_seed=1 p4_key=seed1:snapshot081 pbc="T T T"
C        0.01916752      -0.02800337       7.44009948      -0.99625851       0.15387718      -0.07196338
C        2.52493596      -0.01790136       7.38506953      -2.60487743       0.77488241      -0.19420391
C        4.93287539      -0.03028751       7.42359782       0.41209564       3.14610030       0.74173292
C        7.41521961       0.02859993       7.61353789      -1.59485735      -1.37372062      -1.22704793
C        9.83909321      -0.01234531       7.40938507      -0.09840640      -0.02905501       0.07765914
C       12.25718844      -0.06491876       7.44007060       1.27985710       1.01159694      -0.12780491
C       -1.21090756       2.05332208       7.58755271      -1.75214895       1.07266115      -0.14385451
C        1.26506411       2.13076072       7.67236269      -0.82096172      -2.47100806      -1.49660958
C        3.69594593       2.12126897       7.47318464       0.48299741      -0.08084705      -0.32941822
C        6.14136454       2.13414901       7.46219226      -1.30652407      -0.05238443       0.05518436
C        8.63304535       2.10221498       7.51909056      -0.53862014       3.04846703      -0.46590549
C       11.06591187       2.10376853       7.45421839       0.07594139       1.70320775      -0.19096663
C       -2.51762741       4.27174509       7.68224614       3.13022117      -1.21857743      -0.27185199
C        0.00864905       4.20178173       7.74682395      -0.35364676       1.93032512       0.32773672
C        2.55606367       4.26019015       7.56623392      -2.73381954       0.31309300      -0.65653788
C        4.95863700       4.27105846       7.37337758      -1.06529006       0.61030610      -0.36561190
C        7.36939869       4.24692740       7.41503299       1.85554638      -0.91339108       0.17788331
C        9.89685873       4.33583582       7.51735397      -1.97328517      -2.67347266      -0.76679578
C       -3.68964549       6.44818864       7.58436816       0.21743151      -0.20864322       0.49299283
C       -1.25101001       6.38918609       7.70147682       0.65457304      -0.47023960       0.74977045
C        1.24227883       6.39890464       7.54337326       0.88985675      -1.24492532      -0.00710936
C        3.74288277       6.38736690       7.37942839      -1.18334252       2.45929540      -0.74845353
C        6.19289612       6.43553690       7.34057113      -1.53561270      -1.30011225       0.58638893
C        8.60340680       6.37135358       7.54911447       0.33570457       0.15427467      -1.43302260
C       -4.95383215       8.54221643       7.47284674      -0.31825629       0.65101181       0.44981321
C       -2.48642122       8.57616105       7.67897516      -0.62272144      -0.62284923       0.15672416
C       -0.02704265       8.50886421       7.66114393      -1.04943972      -0.43793909      -1.05234455
C        2.42361080       8.46869340       7.53008966      -0.56509145       2.46174566      -0.85140487
C        4.89982698       8.54379028       7.36012064      -0.32700781       0.20663262       0.59250250
C        7.35472774       8.55499133       7.45281192       0.33022041       0.12635609      -0.71077324
C       -6.16504749      10.67952008       7.36581494      -2.09109517      -0.21899705      -0.19333590
C       -3.67773177      10.70524256       7.48548033      -2.89089389      -2.52306158      -0.00334989
C       -1.25860118      10.72400993       7.62622938       1.64752357      -2.91858055      -0.63637272
C        1.25739282      10.63307924       7.46499933      -1.44666539       0.16492367       0.16573125
C        3.70928527      10.59480619       7.51045092      -2.39933599       0.52498301      -0.71998705
C        6.12129698      10.67403420       7.33397691      -0.22254389      -2.07249375       0.56486468
C        1.25545315       0.67704245       7.39523436       0.76374414       1.42396023       1.62989943
C        3.73496490       0.70856817       7.44238381      -0.58806169      -0.55260309      -0.44550327
C        6.14480562       0.71603670       7.55251853       0.91466301      -0.46109059      -0.39809753
C        8.62458252       0.71099979       7.48302491       0.44182659      -0.23375236       0.44748971
C       11.05155620       0.67643932       7.38602443       0.63715793       0.78446054       0.54228345
C       13.52491484       0.62985650       7.53825273      -0.51643744       1.19420851      -0.66280417
C       -0.00505446       2.76242375       7.70318880       1.19719382       1.68907337       0.09007988
C        2.49485789       2.80801272       7.57814033      -0.50770597       2.04973101       0.35323949
C        4.87381994       2.88174035       7.38392640       2.76431231      -1.87191788       0.55645614
C        7.36438556       2.80894926       7.46881541       1.00587418       0.63206072       0.08709329
C        9.84642414       2.91230962       7.50465619       0.83864757      -3.04312865      -0.14332383
C       12.30497770       2.83435200       7.48206619      -0.24121858      -0.87126793       1.36064810
C       -1.26162823       4.96027649       7.83639910       0.89369052      -0.63340361      -1.54654169
C        1.26781390       4.98712774       7.64945064      -0.00001594      -2.40877579      -0.21000668
C        3.73696957       5.00298601       7.30840126       0.03626515      -1.44626044       1.58650281
C        6.17534384       4.96414545       7.43481360       0.04939475       1.85016352      -1.03870794
C        8.63957809       4.92554140       7.39173464      -1.51699766       2.80987328       1.45402234
C       11.09077507       5.02303490       7.57283286      -0.46978631       0.87405835       0.30890750
C       -2.46595400       7.15700197       7.70858892      -0.08874625      -0.64758221      -0.64003191
C        0.01409100       7.03699718       7.60726729      -1.70034688       2.87209372       0.67193904
C        2.48291573       7.12292146       7.42596619      -0.22614524      -3.47690769       0.68806526
C        4.94179559       7.16823081       7.30837556       0.56957931      -3.09809755       0.30868922
C        7.39398879       7.12169551       7.45733622       0.24395732       0.10048771       0.06425495
C        9.81787400       7.11880016       7.52769677       0.19944459      -0.03554216       0.26764721
C       -3.74298266       9.26579991       7.60040342       1.41401495       0.40148959      -0.69020622
C       -1.26901993       9.26156708       7.67949703       1.07786095       0.81084958       0.04216326
C        1.16293366       9.20323954       7.47936808       2.35049788       0.41847378       1.08304533
C        3.63091925       9.16589961       7.51087715       1.65441001       2.16765671      -0.53585132
C        6.12239059       9.25733816       7.38274001       0.41042237      -0.32022421      -0.19144460
C        8.57612756       9.29132215       7.38591218       0.47282819      -2.03134299       0.60057910
C       -4.95651087      11.35486272       7.37196988       2.81365332       1.21043192       0.24000991
C       -2.48060070      11.39178182       7.48965831       0.92885961      -0.84022854       0.39524540
C        0.01726444      11.35306942       7.52107643      -0.17352838       1.52027504       0.81077810
C        2.48309610      11.37499798       7.44196558      -0.11895440      -2.36648320       0.37379623
C        4.89885053      11.30807304       7.39903231      -0.62910369       1.09451810       0.25921631
C        7.29912341      11.35356535       7.36770222       4.27748339       0.75130103      -0.19379022
72
Lattice="14.76 0.0 0.0 -7.38 12.782534959858314 0.0 0.0 0.0 15.0" Properties=species:S:1:pos:R:3:REF_forces:R:3 REF_energy=-11165.477226601344 config_type=fd_force_conv_snapshot_087 snapshot_index=87 split=validation degauss_Ry=0.00285013035 kgrid=8 lattice_temperature_K=450.0 trajectory_seed=1 p4_key=seed1:snapshot087 pbc="T T T"
C       -0.03135867       0.02795353       7.53842859       1.72276562      -0.78442815       0.72099518
C        2.46554029      -0.06957797       7.50943200      -1.33459486       0.55738611       0.15835296
C        4.88406666      -0.00868967       7.51901465       1.65109252      -0.52767213      -0.86314658
C        7.38916805       0.01613445       7.38390197       1.02317410      -1.22810259       0.43663425
C        9.89257583      -0.04453531       7.58777757      -1.74270864       2.21833958      -1.16040005
C       12.30057234      -0.00377601       7.71304094       1.32578626      -0.83772532      -1.13841120
C       -1.19626679       2.12532641       7.49572220      -2.94258772       2.09504953       0.14042337
C        1.23144352       2.15635997       7.68558892      -0.42253047      -1.89046891      -1.21310586
C        3.63809589       2.12087451       7.59326145       2.02906525      -0.60004740       0.26466139
C        6.10711101       2.08180329       7.63846754      -1.76164198       1.55280747       0.03595559
C        8.62759884       2.10471494       7.52552578      -4.10544085      -0.46917773       1.01532607
C       11.03225490       2.08248922       7.50026902       0.81241975       1.35729204       0.75633216
C       -2.47045696       4.32232613       7.37321788      -0.91012295      -2.16013623       1.30584067
C       -0.01950694       4.25977738       7.42235537      -0.61412933       2.04408152      -0.24147261
C        2.41742160       4.27894964       7.51045701       1.17399347       1.03921496       0.51639347
C        4.86918200       4.30283507       7.65908309      -0.01566470      -1.18835411      -0.13736761
C        7.32002531       4.24400574       7.69764505       0.98514852      -1.47387589      -0.43329773
C        9.83935093       4.19159537       7.48674954      -2.08577787       1.97642268       1.22373969
C       -3.70228534       6.37725119       7.36939747       0.06866620      -0.65802115       0.89483620
C       -1.19116678       6.43831748       7.30845869      -2.18196413      -0.33859526       0.16996123
C        1.20961171       6.43933186       7.38023451       2.21444127      -1.59055975       0.01005147
C        3.70501064       6.44803153       7.50582271       1.57654801      -0.14657011       0.62196580
C        6.14397454       6.44677753       7.56019940       0.37873995      -2.62370665       0.15287702
C        8.61624648       6.36084777       7.50147026      -0.44247220      -0.32352345       0.27486044
C       -4.92087847       8.46950168       7.42573456      -0.28703873       2.08426118       0.59227084
C       -2.48427031       8.50989349       7.44676450       2.77679321       0.59379036      -1.25143227
C        0.04627222       8.55243686       7.31295961      -0.99620349      -0.32201884      -0.10636500
C        2.51596514       8.51718644       7.51671144      -1.42892272       0.17914830      -0.32426033
C        4.91938157       8.57178768       7.56218453       1.60605810       0.44317617       0.35616798
C        7.29386897       8.50165025       7.49634401       3.22924258       1.99088154       0.32158741
C       -6.10850215      10.59636951       7.47231216      -2.75017587       0.74721760       0.38254287
C       -3.63961064      10.65946214       7.45913685      -1.07527108      -2.60113030      -0.50804433
C       -1.20072526      10.69015357       7.24402088       1.04183928      -1.46290833       0.87649370
C        1.30928411      10.64523481       7.34903586      -0.75643321       0.11223739       0.16512859
C        3.73546114      10.63520211       7.58222591      -0.72016857       0.67956751      -0.34019680
C        6.17183149      10.74055674       7.53138554       1.14826393      -4.27362185       0.74463261
C        1.22776325       0.67730257       7.61292605       0.12851402       1.46056374      -0.38341139
C        3.66195557       0.67019931       7.51619313      -0.07768768       0.98996908       0.62023184
C        6.13498791       0.69145897       7.54353036      -0.35479347      -0.97871484      -0.60199835
C        8.64961157       0.69834606       7.45297386      -0.45603837      -0.49256500       0.50318263
C       11.09790359       0.65957409       7.62145513      -0.79675350       1.67540255       0.17979364
C       13.51743889       0.75256879       7.60935214       0.05203630      -1.96981572      -0.01255598
C        0.00235128       2.86875834       7.49188602       0.40126050      -1.34768512       0.74081247
C        2.46303816       2.82565730       7.64878178      -1.90443231       2.36078898      -0.51358557
C        4.85070052       2.87058830       7.63402799       0.86322038      -1.53701987       0.15093095
C        7.29060914       2.76373511       7.68148030       3.61990319       2.40551023      -0.72214729
C        9.77763901       2.82037659       7.57987750       3.50797382      -1.29107097      -1.06595854
C       12.25087186       2.84012283       7.45630614       1.92683433       0.52756594      -0.25794541
C       -1.22664771       5.04740294       7.41903237      -0.45707786      -2.46865627      -0.97074931
C        1.17248440       5.00671813       7.37903905       2.02389245      -0.82353128       0.79042885
C        3.67507001       5.05779753       7.59001199      -1.32394612      -2.58751374      -0.61798367
C        6.10453875       4.95260981       7.64650042       0.83453483       2.60394540       0.09628524
C        8.60583621       4.91421546       7.60135965      -1.21434976       1.08509295      -0.56255840
C       11.00362040       4.94573315       7.48732255       3.07352603       0.95117550      -1.55106349
C       -2.47946371       7.10318772       7.33797366       1.04648450      -0.29058222       0.31912121
C        0.01887730       7.11583253       7.27753876      -0.06064152       2.19039297       0.62722524
C        2.50730617       7.10778751       7.50020105      -2.61364643       0.96617583      -0.57475186
C        4.96439826       7.18993102       7.54399922      -1.75714538      -2.20978475      -0.05376280
C        7.38181896       7.10812233       7.50015322      -0.33555827      -1.20335238       0.30829147
C        9.85128068       7.07426383       7.45150222      -0.85398960      -0.16331724      -0.41922120
C       -3.66493908       9.21612113       7.46800249      -1.68393142       0.32962262      -0.27982627
C       -1.18689016       9.26687061       7.30904818      -1.39089893      -0.93349685       0.21147272
C        1.27581693       9.22324012       7.40019055       0.85146401       0.54259713      -0.26400987
C        3.71534448       9.23311951       7.57184954      -0.97096580       0.68792076      -0.17524922
C        6.13891837       9.29625583       7.59664753       0.04900831      -0.73931891      -1.03952503
C        8.57988133       9.19461639       7.48460419       0.43210088      -0.77457285      -0.43382995
C       -4.89960950      11.26903567       7.45001618       0.61942117       2.77565550       0.39228221
C       -2.44372992      11.35569912       7.36436855       0.42126625       1.30364726       0.48287760
C        0.08481999      11.34201636       7.29538704      -1.98693515       1.74446650      -0.10538875
C        2.51691844      11.38878557       7.45899607       0.31128166      -3.17584179       0.82091107
C        4.95855105      11.31738681       7.61671461      -1.97943910       4.02930895       0.47003622
C        7.38464073      11.38712204       7.53641304       1.86531940       0.18680736      -0.52889186
72
Lattice="14.76 0.0 0.0 -7.38 12.782534959858314 0.0 0.0 0.0 15.0" Properties=species:S:1:pos:R:3:REF_forces:R:3 REF_energy=-11164.990626376442 config_type=fd_force_conv_snapshot_093 snapshot_index=93 split=validation degauss_Ry=0.00285013035 kgrid=8 lattice_temperature_K=450.0 trajectory_seed=1 p4_key=seed1:snapshot093 pbc="T T T"
C       -0.01587694       0.03202466       7.22665156       0.55500913      -0.64887933       1.01825173
C        2.47906260       0.06464301       7.54898829      -0.27646121      -2.34341166      -0.73799660
C        4.98477754       0.00241871       7.49053939      -2.91627093       1.47010485      -0.03292040
C        7.40149581       0.08005626       7.46590377       0.20973080      -3.71767659      -0.61635282
C        9.86433883      -0.05231117       7.46552235      -1.81398913      -0.11528107       1.19956515
C       12.26326869      -0.03090921       7.33067216       1.01317200      -0.74981544      -0.13084730
C       -1.30713085       2.07268768       7.58395090       2.49306041       1.47234274       0.79425208
C        1.21866576       2.14037163       7.73983667      -0.87437434      -0.83709822      -0.38965274
C        3.65630977       2.11992907       7.58801132       2.44874102       0.85282001      -0.12926710
C        6.18522731       2.09299611       7.47159211      -0.78484415       2.77763294      -1.12716623
C        8.71159996       2.13681939       7.48359515      -2.61981194       0.60160317      -0.73582658
C       11.06662379       2.07521388       7.48172113      -0.03389717       1.34223875       0.91563874
C       -2.43602316       4.25575822       7.65605354       0.53193219      -0.74265646      -0.48272179
C        0.03596304       4.22259714       7.83054186      -1.89132714       0.27935936      -0.21879445
C        2.48785764       4.25021473       7.72346323       0.17588634       0.57502928      -0.30033699
C        4.95949476       4.25307227       7.40747895      -1.69191572      -1.59208853       1.15931736
C        7.39554813       4.24993781       7.31848101       0.58865175       0.62976189       1.00215122
C        9.84728715       4.30757548       7.41387402       3.05789501       0.20433817       1.04419621
C       -3.64742983       6.45961814       7.47316298       0.59664789      -1.91613829       0.62689820
C       -1.17491491       6.37172838       7.60540197       0.09936182      -0.62727641       0.27707493
C        1.24181582       6.37873634       7.75968223       0.69515302      -0.63937756      -0.69930818
C        3.70466385       6.40032084       7.57857643      -1.16557748      -0.98795025       0.09089724
C        6.10574124       6.40984191       7.40077461      -0.11231067      -0.38937583      -0.00880269
C        8.54945410       6.41618951       7.37190902       1.37259114      -0.11072430       1.17088732
C       -4.94703501       8.51737880       7.41087562       0.51938084       0.33232588       1.28239735
C       -2.48680733       8.51302618       7.54591225       3.35380738      -0.38953653      -0.22199727
C       -0.00153087       8.51185785       7.55548424      -0.42758757      -0.46696787       0.37549522
C        2.44425941       8.54939823       7.52460935      -0.14198789      -1.21808429       0.65037931
C        4.86689747       8.50586808       7.40896685       1.06753874       1.13108176      -0.17942212
C        7.36209950       8.55626435       7.38734511      -1.38200292       1.36441734      -0.03640039
C       -6.12198099      10.65734193       7.40962429      -3.10430239       3.48974572      -0.30995600
C       -3.67997402      10.65894900       7.44563460      -1.97866314       0.17874952       1.04624898
C       -1.26967954      10.63502870       7.57366629       1.64273849       1.66309905      -0.43192116
C        1.19167936      10.66704085       7.60837394       0.55308054      -0.31521673      -0.94944181
C        3.66306532      10.62366577       7.31986473       0.40286410       0.20633103       1.05394275
C        6.08563677      10.60231049       7.23088643       1.70495507       2.50364590      -0.52863192
C        1.24720914       0.70868554       7.49287034      -1.59727290       1.97389580       0.22906704
C        3.71770735       0.74720241       7.54643413       0.44541071      -2.07101511       0.14496985
C        6.17751042       0.71962046       7.32809767       0.11522553      -0.23108612       1.88531513
C        8.64040264       0.70657221       7.49499394       1.30166031       0.70331910      -0.07027673
C       11.05292553       0.65665063       7.54242595       0.73093198       0.56462814      -1.61332327
C       13.48826989       0.70825899       7.27971199       0.04971074      -0.70899789       0.80295295
C       -0.06829492       2.82071868       7.86955373       1.83723190      -1.67199379      -1.78798370
C        2.47352793       2.83454879       7.69239664      -1.84715790       0.52663058       0.38312702
C        4.91004080       2.79215328       7.53154486       1.63577568       1.68678740      -0.78478425
C        7.44046184       2.85442085       7.37861404      -0.59111281      -1.77582444       0.65221791
C        9.89944791       2.88088147       7.46127131      -0.77729128      -0.75932055      -0.15394326
C       12.26315038       2.77245330       7.63073047       0.14511718       2.10141635      -0.48788662
C       -1.18394367       4.93569027       7.65698445      -0.47899395       0.59388009       0.77767669
C        1.23145079       4.94346285       7.78399748       1.74816554       0.28600694       0.40598747
C        3.73385154       4.96741853       7.55946126      -0.86431849       0.01200140       0.22922413
C        6.15694643       4.94997037       7.35991669       0.62322127       1.63811076      -0.22605885
C        8.62760129       4.98670747       7.45991222      -1.48429708       0.52584279      -1.60628924
C       11.17762901       5.04742147       7.51969850      -3.83660888      -1.77695342      -0.39825694
C       -2.37140435       7.09848899       7.55975077      -2.71522763       0.85304421      -0.40297491
C        0.04792434       7.08232430       7.66208727      -1.18809597       0.77929700      -0.28152551
C        2.46429460       7.08111546       7.63197013      -0.14271911       1.71743932      -0.00016172
C        4.87834838       7.13495400       7.51046224       1.20598108      -2.22320411      -0.57423224
C        7.29264492       7.16684824       7.37685273       2.76948434      -1.99509326      -0.00563303
C        9.82790188       7.08738754       7.47539803      -0.83390337       1.40489808      -1.08210533
C       -3.68128904       9.18731883       7.45209372      -1.68283664       2.40413958      -0.03646596
C       -1.22547371       9.22335001       7.54372201      -1.47670667       0.18533129       0.30747951
C        1.17403086       9.24968373       7.55231100       2.26697894      -0.42048284       0.27974862
C        3.70745444       9.24708609       7.45802247      -3.24550069      -1.46640349      -0.53667228
C        6.05865400       9.22115122       7.26095913       3.26251805      -0.72772144       0.98365676
C        8.60741417       9.30112912       7.52026668      -0.43409066      -3.86146296      -1.65138896
C       -4.95681352      11.41233579       7.46459217       3.11733711      -0.97331656      -0.17664610
C       -2.49363124      11.40004439       7.59668510       1.58023343      -2.19602395      -1.17283725
C       -0.00864636      11.39224616       7.50240383      -0.95933927       0.34754476       0.93637906
C        2.46293830      11.30753517       7.53413361      -1.02993173       1.41198815      -0.96783291
C        4.88228843      11.30208012       7.23409850      -0.16808921       2.42644776       0.18765736
C        7.34301945      11.40554096       7.23794660       0.65163607      -2.55082127       0.37198978
72
Lattice="14.76 0.0 0.0 -7.38 12.782534959858314 0.0 0.0 0.0 15.0" Properties=species:S:1:pos:R:3:REF_forces:R:3 REF_energy=-11166.009733655339 config_type=fd_force_conv_snapshot_099 snapshot_index=99 split=validation degauss_Ry=0.00285013035 kgrid=8 lattice_temperature_K=450.0 trajectory_seed=1 p4_key=seed1:snapshot099 pbc="T T T"
C        0.04138969       0.02034406       7.57996237      -0.87205006       0.05029361       0.00857900
C        2.47107839       0.02776327       7.48826421       0.39475175      -1.51427435      -0.97692561
C        4.91803243      -0.02206287       7.30364526      -0.75648128       1.04767749       1.41500174
C        7.40644552       0.03146234       7.37310806      -1.10318760      -1.45517523       0.67657577
C        9.90351873       0.02990588       7.41080334      -1.45367833      -1.26779169       0.63752200
C       12.32250462      -0.06194275       7.53852406      -0.82980709       3.42238848       0.60474223
C       -1.23714960       2.12028344       7.44474213       0.32495967      -0.86651859       0.27704896
C        1.23736385       2.17961631       7.40699076       1.48786089      -1.15583223      -0.13855958
C        3.65298220       2.12023914       7.37633779       2.90900371       1.51775151       0.02376933
C        6.12588741       2.11254779       7.43729466      -0.75938226      -1.34329059       0.30901369
C        8.59039881       2.10641550       7.41780871       0.33730637       0.70594342       0.13670324
C       11.08112886       2.16537177       7.31181849       0.15034294      -1.82416453       1.26452176
C       -2.45361972       4.24599681       7.31829462      -1.37087492      -0.47386280       1.25228485
C        0.02884214       4.23428331       7.43538631      -2.21118189       1.47104767      -0.71176466
C        2.46988830       4.29641365       7.38612386      -1.34077888       1.71640959       0.33800005
C        4.87741960       4.30977546       7.53930882      -0.39191505      -2.51867143      -0.45985440
C        7.32048858       4.22993043       7.71582493       1.33839444      -0.81810060      -1.68510127
C        9.77228030       4.21270149       7.47923191       3.00577720       1.11450791       0.10279528
C       -3.66141474       6.31964040       7.46152166      -0.98936615       1.78623870       0.32541913
C       -1.24299981       6.35373371       7.37965634       1.43235900      -0.09179018      -0.71684027
C        1.24943904       6.43103382       7.33830970      -1.46505006      -0.02049966       0.56864677
C        3.70503291       6.44626479       7.54570893      -0.08103654       1.46968216       0.35954358
C        6.14433051       6.36966981       7.65951505      -1.39510397       1.38980956       0.36602636
C        8.57360236       6.40129830       7.58973929       1.43897239      -2.06437627       0.50696267
C       -4.96073230       8.47347173       7.48902028       1.36700310      -0.27322753       0.31908290
C       -2.47328923       8.45512028       7.48275817       0.15530492       1.47744715      -0.05995196
C       -0.00889908       8.50065239       7.48393720      -1.68275462       1.29182610      -0.33162191
C        2.42392236       8.56022942       7.59287344       1.39983120       0.17406548      -0.23248378
C        4.91476069       8.58208572       7.71319418       0.59924701       0.85899682       0.71147104
C        7.29946539       8.48231231       7.64610578       1.89220749       2.38000978       1.51402341
C       -6.12751195      10.63488890       7.60013559      -0.52744844      -0.30956853       0.16828333
C       -3.63427398      10.59957327       7.35120861      -2.05263095       1.17398344       1.10188817
C       -1.18904444      10.64517938       7.51005797      -1.11298171       0.82438052      -0.23324996
C        1.26544552      10.69290944       7.50705050       0.51675034      -1.30815286      -0.26651875
C        3.73258197      10.67200158       7.66927311      -0.45584656      -0.25647397      -0.03745455
C        6.17464981      10.71155984       7.76005609       0.59280409      -1.56821429       1.06989182
C        1.27202121       0.75116569       7.45024774      -1.35617464      -0.22828671       0.72845497
C        3.68774512       0.72707632       7.39873366       0.06645196      -1.06135730      -0.45948159
C        6.11641518       0.67717788       7.40834406       1.86211118       0.92043436      -0.94897952
C        8.63118208       0.71880460       7.41954861       0.52812927      -0.70876958      -0.68961049
C       11.10361231       0.74518700       7.47779390       0.31412813      -1.09939266      -1.05524064
C       13.51027365       0.67883595       7.52357110       2.20693545       0.85293159      -0.14135000
C        0.01077669       2.82285535       7.46287859      -0.51052519       0.69265519      -0.31899317
C        2.49428620       2.89873823       7.33131072      -2.06754155      -1.09753349       0.67601090
C        4.93557507       2.82834389       7.44629601      -2.85560395       1.68556021       0.00742175
C        7.32407897       2.77358847       7.52423780       2.24967104       2.91063379       0.48837796
C        9.82989607       2.81137900       7.35852756      -1.05580063       0.61894861       0.35616232
C       12.31362447       2.83211409       7.40808105      -0.15289451       0.63264256      -0.97673458
C       -1.25398430       4.92585335       7.33228206       2.08896295       0.83145722       0.51078255
C        1.19338353       5.03035584       7.41349892       2.25397738      -2.29940003      -0.53161774
C        3.65060732       5.05639008       7.49256840       1.60836130      -1.87199296      -0.25476521
C        6.09450441       4.95065934       7.62190138       1.44161831       0.91447737       0.66952478
C        8.61065326       4.94116183       7.62054787      -3.42017116       0.64170904       0.22283751
C       11.05487253       4.94704382       7.49290723      -0.04727127      -2.00861187      -1.37985836
C       -2.42396445       7.06100773       7.43221062      -1.99810300      -0.79694145       0.16729937
C       -0.02533297       7.10314467       7.29746599       1.26754460      -0.18056678       1.29232104
C        2.46588952       7.13563117       7.51903212      -0.20466187       0.63646425      -0.49035334
C        4.95185258       7.19483340       7.65606175      -1.01952751      -3.38792258      -0.28218063
C        7.33294951       7.09136429       7.70331949       0.98122398      -0.83339069      -0.88162510
C        9.84958970       7.02480366       7.51080191      -0.91160519       1.84186117      -0.01132237
C       -3.68107076       9.17864023       7.44393329      -1.51098231       0.14787648      -0.17667361
C       -1.28994305       9.22137753       7.54590230       2.90396435      -0.37708982      -0.53054431
C        1.19773110       9.25740144       7.52958349       0.71269848      -0.20847687       0.15472025
C        3.68954044       9.28717455       7.68054269      -0.93136387      -1.80622877       0.01393204
C        6.15381736       9.30021469       7.83845502      -0.70594240      -1.67669119      -1.60895548
C        8.56864531       9.16891027       7.63189425       0.62075815       1.22732329      -0.93233317
C       -4.90069093      11.35602281       7.42813607       0.21947245      -0.72262268       0.54702071
C       -2.44987442      11.37279113       7.43916547       1.21336940      -2.05447778      -0.89410987
C        0.06432672      11.38645177       7.44304986      -1.94993749       0.03960296       0.13890796
C        2.52907057      11.34770918       7.48473976      -1.18261464       2.41729463       0.38135862
C        4.95472714      11.36250527       7.75599971      -0.78608240       0.15515888      -0.98617927
C        7.39926770      11.38373408       7.73283736       1.63610478       0.51024776      -1.01169387
72
Lattice="14.76 0.0 0.0 -7.38 12.782534959858314 0.0 0.0 0.0 15.0" Properties=species:S:1:pos:R:3:REF_forces:R:3 REF_energy=-11165.581769200675 config_type=fd_force_conv_snapshot_105 snapshot_index=105 split=validation degauss_Ry=0.00285013035 kgrid=8 lattice_temperature_K=450.0 trajectory_seed=1 p4_key=seed1:snapshot105 pbc="T T T"
C       -0.05510039      -0.02758745       7.37131459       1.86181293       0.85049341       0.34629134
C        2.51276291      -0.00862928       7.36780869      -1.21346633       0.70102593       1.61983073
C        4.97503868       0.02681931       7.61046882      -2.37919062       1.01420789      -0.70138666
C        7.43658172      -0.01684467       7.57445985      -1.05728030       2.90185810      -0.54794168
C        9.85333871      -0.06241996       7.58023071       0.26189848       3.46973997      -0.71902725
C       12.33852740       0.02679713       7.40101584      -2.98361172      -1.27194273       0.31910167
C       -1.26653966       2.13350727       7.49257594       0.08393135      -0.89656656       0.00239473
C        1.22763984       2.09930968       7.50133133      -0.97224801       0.38542122       0.22603211
C        3.60925113       2.08447283       7.65615888       2.03314893       3.51290545      -0.26180386
C        6.13319560       2.10968170       7.64714766      -0.66048966       1.22365510       0.31158094
C        8.59491184       2.11316297       7.54364016       0.76983714       2.30419103       0.92587430
C       11.02895321       2.10181735       7.58163963       1.14652535      -0.10271043      -0.53827639
C       -2.45109038       4.21903050       7.39938584      -0.69045150       1.14060333       0.71347676
C       -0.04169645       4.23080393       7.63867769       1.33411998       0.14882419      -1.47759756
C        2.46625258       4.26625330       7.69504994      -2.27365506       1.11856949      -1.01318331
C        4.89098978       4.28488321       7.75478815       1.08564008      -2.47181718      -1.63679153
C        7.39080681       4.25043945       7.54012038      -0.14231107       0.10037638       1.19219097
C        9.90805055       4.26905191       7.49348678      -0.84498020       0.66641760      -0.03291603
C       -3.63975508       6.42631951       7.46107906      -1.05700776      -0.54214358      -0.08537477
C       -1.29129244       6.37041717       7.47589497       2.93268126       0.97519989       0.16098860
C        1.17337925       6.37297892       7.48166923       1.32862990       0.33966304       0.39601134
C        3.64574368       6.36951342       7.51218355       1.02218628       0.73404378      -0.45771344
C        6.14162276       6.41390615       7.33896033      -0.64571225      -1.40316181       0.72208841
C        8.65857215       6.38171889       7.38701625      -2.62406917      -1.09834776      -0.23641294
C       -4.92850803       8.53467639       7.38501626       1.08442318      -0.67044266       0.23223566
C       -2.39594744       8.57352838       7.57894963      -1.51971737      -0.80221453      -0.06047106
C        0.04314100       8.53018403       7.57739166      -0.74748088      -0.78082655       0.12778871
C        2.46107034       8.49826181       7.47312726       0.87390665       0.73702240       0.16573434
C        4.85805786       8.53929585       7.22159855       2.57657344      -2.14304637       2.05979662
C        7.36799116       8.55203532       7.32911735       0.21225356      -1.45378657      -0.86224541
C       -6.17558329      10.70395777       7.32284478       0.82157468      -0.99043496       0.56346677
C       -3.63470904      10.65935174       7.53561084      -1.67237045       1.42057512       0.15522547
C       -1.18570246      10.68945665       7.68484433      -0.24396992       0.00267138      -0.28578146
C        1.24124061      10.65505933       7.47664947       1.06714665      -0.58355351       1.89130760
C        3.70789089      10.68715229       7.41709282      -0.15605671      -1.18367059       0.71406323
C        6.09426331      10.63390605       7.37504174       1.00906235      -0.86222767      -0.21929710
C        1.25514825       0.64949099       7.41129832      -1.46589827       1.63369309      -0.42212757
C        3.69719539       0.73545294       7.55518836       0.35575506      -2.50202816      -0.34099693
C        6.15913433       0.72225252       7.55053049       2.41029351      -1.10546329       0.94461739
C        8.65900838       0.72767694       7.46137222      -1.10907337      -2.08249097       1.47561344
C       11.06432473       0.67079052       7.52751064       0.48767116       0.68695686       0.16416057
C       13.50234803       0.72005361       7.43163487       1.91340160       0.59588015      -0.17310312
C       -0.04133512       2.79474918       7.51900898       1.27433437       1.10119706       0.57183314
C        2.42030134       2.89473978       7.63708849      -0.10911608      -3.88484894      -0.06203661
C        4.86804622       2.77739777       7.66816350       0.52898853       2.52360254       0.97387680
C        7.35000972       2.83514047       7.75189433       1.20325468      -0.18958209      -2.40659087
C        9.85495582       2.86600460       7.57587381      -1.12526927      -1.51180300      -0.35328577
C       12.26501389       2.81265588       7.51738614      -0.02225444       0.17231122      -0.35828091
C       -1.25153965       4.94226188       7.48041301       0.17960261       0.23752031       0.19778031
C        1.19692502       4.96946118       7.56585163       0.09744172      -1.10087284       0.81707447
C        3.66975728       4.96328209       7.61240839       0.48453416       0.60104859       0.99580702
C        6.14124664       4.96689758       7.56667314       0.19633715       0.69961234      -0.26186789
C        8.66447810       4.94223460       7.46776201      -1.25520974       0.87545086      -0.16228649
C       11.13159748       5.01635577       7.40470934      -0.70465967      -1.67946335       0.39418714
C       -2.44004720       7.15510646       7.48352766      -0.17912104      -0.38035975       0.15761942
C       -0.01613045       7.10202835       7.50338547      -1.29894497      -0.28234184       0.04955081
C        2.42474028       7.08280715       7.48818600      -0.00502805      -0.03340531      -0.08725450
C        4.88201494       7.09521277       7.36424559      -0.17383126       0.26432277      -0.53951129
C        7.37036368       7.10133309       7.26588684       1.49197697       0.65112442       0.85298301
C        9.85390373       7.05106967       7.47005172       0.73229466       3.60784318      -0.75004401
C       -3.67184075       9.25124132       7.51935385       0.48299253      -0.28798824      -0.17069940
C       -1.16921449       9.24987230       7.68007106      -0.58206459       1.21111146      -0.57419470
C        1.26745236       9.22422773       7.54020577      -0.76119977       0.64493475      -0.52639455
C        3.70810498       9.24259488       7.43388732      -2.36609111       0.85718882      -0.98766588
C        6.11133481       9.20314911       7.39147566       0.08210587       1.07881586      -1.45811297
C        8.62120804       9.26455311       7.23700348      -0.64443338       0.15374580       1.45658213
C       -4.90047098      11.40150484       7.50017119      -0.00776267      -2.58060467      -1.60775194
C       -2.41850694      11.43154437       7.59138878       0.25917337      -3.26239541       0.48897523
C        0.05267360      11.39451414       7.64298964      -0.81128255      -1.75435342      -0.69679261
C        2.47289301      11.35706754       7.59606266      -0.15226921      -1.72586302      -1.54213533
C        4.94128874      11.39055164       7.33813131      -1.78310324      -0.31638967       0.53053634
C        7.29026768      11.34357312       7.36581936       2.75517049       0.59332319      -0.29932294
72
Lattice="14.76 0.0 0.0 -7.38 12.782534959858314 0.0 0.0 0.0 15.0" Properties=species:S:1:pos:R:3:REF_forces:R:3 REF_energy=-11166.025131489014 config_type=fd_force_conv_snapshot_111 snapshot_index=111 split=validation degauss_Ry=0.00285013035 kgrid=8 lattice_temperature_K=450.0 trajectory_seed=1 p4_key=seed1:snapshot111 pbc="T T T"
C        0.01068294       0.04456743       7.55654327       0.07884159      -1.21545405      -0.23723749
C        2.43744635       0.03236538       7.49507029       1.94417874      -1.69843990      -0.10384891
C        4.92613992      -0.00868681       7.47189034      -0.70038856       1.11966658      -0.68038229
C        7.35765194      -0.00181259       7.24406538       0.07761929       0.88134974       0.42263408
C        9.80318648       0.01254323       7.36432240       1.16325526      -0.80988824       0.00270017
C       12.25906103      -0.04298065       7.46834869       0.46700309       2.11366149       1.31610246
C       -1.18944785       2.15175722       7.63094978      -2.85774671      -2.08343405      -0.70063512
C        1.23445739       2.12707539       7.42918437       0.69626039       0.79808585      -1.39743751
C        3.70974066       2.13469630       7.33987175      -0.36617497      -0.52407670      -0.05338921
C        6.12295494       2.15048667       7.29232186       1.08943477      -0.93393754      -0.98384985
C        8.61751984       2.13511814       7.29318028      -0.15169689      -1.45982584       0.30169762
C       11.06193161       2.09013856       7.58957491       0.46567383       0.98659348      -0.24953610
C       -2.44177828       4.23161104       7.68522565      -1.01562509       0.12296892      -1.13460546
C       -0.01499309       4.25405478       7.52243731       2.33191035      -0.48986534      -0.81479236
C        2.46788566       4.24085407       7.36470221      -0.62057637       0.70520603      -0.18712026
C        4.91261171       4.28327082       7.34689723       0.60058553      -0.88939498       0.73835475
C        7.39256266       4.23118215       7.28031202       0.52747827       1.65606786       0.71921006
C        9.82141146       4.21801600       7.54941365       1.27266933       1.46744967      -0.51889773
C       -3.65210804       6.31560753       7.62802443      -0.68364862       2.74941379      -0.37722968
C       -1.21709418       6.29932350       7.49381676      -0.13651247       3.84328475       0.04382754
C        1.24105164       6.41177833       7.47695424      -0.83945773      -0.04780786      -0.16815580
C        3.73130873       6.44508150       7.52661282      -1.09752989      -2.34765013      -0.22881944
C        6.17176797       6.33978103       7.51726828      -0.00828538       3.00222240       0.10382757
C        8.64436123       6.41257012       7.59587758      -0.12376314       0.30452557      -0.38088579
C       -4.92130431       8.52383607       7.58240786       1.50271518       0.70151676       1.61061847
C       -2.48895701       8.50536265       7.59978748       1.74596159      -0.32697130      -0.39518575
C       -0.04248451       8.53552324       7.42032821      -0.14094659       0.68775981       0.84247337
C        2.44860126       8.49027244       7.49638610      -0.58854197       1.91728474       0.91913596
C        4.94751778       8.54681522       7.74892632      -1.80397442       0.36419882      -0.96820572
C        7.34813106       8.51396030       7.60196194       0.30292840       2.27613027       1.36571678
C       -6.16602498      10.64428922       7.62076267       0.86057342       0.76148362       0.26531676
C       -3.65680140      10.66816673       7.68107521      -0.05897828       0.50048246      -1.13800934
C       -1.22874330      10.66649356       7.41701920       0.71750799      -0.01617635       0.80766141
C        1.24843337      10.66839649       7.38088199      -0.63025735      -0.65107737       0.24086454
C        3.67735167      10.59379097       7.67550933      -2.05058435       2.93285198      -1.82000114
C        6.12005928      10.74889859       7.69505939       0.36483080      -1.99471994       0.08622040
C        1.24300066       0.73890891       7.38448495      -1.20295206      -0.60894419       1.45214595
C        3.69383209       0.72877248       7.49237800      -0.11893023      -0.81540608      -0.52948296
C        6.11155789       0.71493509       7.25729550       0.92712283       0.30448341       0.85228702
C        8.58507059       0.70033914       7.28387992       0.07885059       1.06468045      -0.25015497
C       11.05192024       0.69465003       7.47764801      -0.19378919      -0.01595370      -0.22167357
C       13.52150818       0.66402272       7.62084105      -0.48204096       2.65132415      -0.99489222
C        0.01189644       2.84360824       7.47955891       0.31429062      -0.17067523       0.89679975
C        2.47807740       2.79961325       7.25416942      -0.86112493       1.99537814       1.46949679
C        4.91362546       2.86553818       7.31168844       0.26767472      -0.06815789      -0.04903839
C        7.39453182       2.82134417       7.19620284      -0.68262378       0.73621199       0.77163074
C        9.84247686       2.79847503       7.53925612      -0.86633347       0.84765260      -0.79978458
C       12.27477469       2.84775875       7.61185696       1.92507775      -2.05299476       0.83540952
C       -1.21117863       4.90743713       7.57341321      -1.19462915       1.15383345       0.32765059
C        1.21011523       4.99079130       7.40374276       1.01887830      -0.90509619       0.60326642
C        3.69914835       4.95967884       7.46253894      -0.43974760       1.94878718      -0.67588980
C        6.16760866       4.94461825       7.45049507      -0.18223516      -0.02949287      -1.19650117
C        8.62902232       5.01262824       7.39521989      -0.47030079      -2.44206772       0.84832212
C       11.09186229       4.93137222       7.58503608      -1.07117968      -0.98208479       0.93079000
C       -2.44507472       7.05636817       7.52062463       0.05017482      -0.44364539       0.78228616
C       -0.02546299       7.13928644       7.46226894       0.86222819      -2.90799455      -0.05553120
C        2.48281094       7.10355677       7.53581778      -0.54924369      -0.52580397      -0.48217260
C        4.93998297       7.15041355       7.51441237       1.45110157      -1.79555200       1.20885043
C        7.39676970       7.12631249       7.58694000      -0.74872915      -2.11296780      -0.30838377
C        9.89428574       7.10554460       7.68565239      -0.84158737      -0.73751554      -0.99245379
C       -3.63887086       9.27198781       7.65342964      -3.35400587      -1.89047533      -0.17336769
C       -1.28704041       9.25423249       7.53121081       1.74950715      -0.71291831      -0.85358774
C        1.20243840       9.22730278       7.45828257       0.80267707       0.19389537      -0.59661369
C        3.65765885       9.21734579       7.69083701       0.98609494      -1.18363922      -0.11360265
C        6.11865849       9.30904129       7.74934937       1.65097527      -0.97192790      -0.62423711
C        8.59767662       9.22182679       7.67967808      -0.23000086      -0.11883665      -1.22301952
C       -4.90066691      11.34867694       7.58828964      -1.23797589       1.22347847       0.33567552
C       -2.43112216      11.37347268       7.49102347      -0.86402642       0.02558788       0.75493579
C        0.03298809      11.39569730       7.39494986      -1.66078480      -1.64207643      -1.02926119
C        2.46010692      11.37727726       7.36433572       0.55255835      -1.41694935       1.52336834
C        4.83817488      11.36552442       7.60357651       2.52497629      -0.95662033       0.42173805
C        7.38374431      11.41855455       7.62664393      -0.24468572      -1.04100265      -0.09314207
72
Lattice="14.76 0.0 0.0 -7.38 12.782534959858314 0.0 0.0 0.0 15.0" Properties=species:S:1:pos:R:3:REF_forces:R:3 REF_energy=-11165.760165536673 config_type=fd_force_conv_snapshot_117 snapshot_index=117 split=validation degauss_Ry=0.00285013035 kgrid=8 lattice_temperature_K=450.0 trajectory_seed=1 p4_key=seed1:snapshot117 pbc="T T T"
C       -0.05000027       0.02151760       7.50247161       1.92236550      -1.74276803      -0.85875411
C        2.47690648      -0.02945332       7.44238580      -0.35295461       0.12142395      -0.73745409
C        4.91298787       0.04741197       7.57132662       1.00237388      -0.98056707       0.37389856
C        7.40509323       0.04868745       7.81633378       0.81938358      -0.74978588      -1.38567497
C        9.85011311      -0.04237571       7.57232609       1.25527864       2.03071513       0.24030610
C       12.29065077       0.01289411       7.45251599       0.26827636      -0.55616021      -1.16236489
C       -1.25898836       2.14186365       7.56188847       0.52345655      -1.53381730      -0.67158449
C        1.17263177       2.09526099       7.41381350       2.54403356       0.79915568       0.53390680
C        3.64643617       2.14384771       7.50049760       1.63791921      -0.47174755      -0.08970990
C        6.13832718       2.16774596       7.73322836       0.97210042      -0.26437497      -0.53722995
C        8.62356927       2.17856273       7.64229982       0.61677268      -1.23831193       0.45313174
C       11.07954703       2.10262451       7.56446142      -0.45749233       0.49883232      -0.27731045
C       -2.42671855       4.25522119       7.63124959      -1.67633946       0.13780727      -0.96220888
C       -0.03075305       4.22006533       7.59693458       2.35550639       1.06930792      -0.16024015
C        2.45408689       4.26321430       7.49735729       0.38302238      -0.00528490       0.04178223
C        4.94166561       4.18660198       7.56112857      -0.59231481       5.69412781      -0.95773747
C        7.35672340       4.26452974       7.59579811       1.79909190       2.95393605      -1.15969608
C        9.89358218       4.26078495       7.54679026      -1.64727854       0.64584929      -0.55434553
C       -3.68608401       6.40818790       7.37650196      -2.59362448      -0.49640237       0.60475535
C       -1.25802839       6.35861390       7.50336125      -0.36389157       1.01266909       0.63148865
C        1.21065273       6.37123623       7.53837475      -0.55340322       1.26111299      -0.15569212
C        3.69496331       6.42574662       7.36804357      -0.57817065      -2.87278844       0.93558587
C        6.16566180       6.38980902       7.32974397      -0.04521722       0.86135504       0.69431612
C        8.56751032       6.36286223       7.36658473       2.23555569       0.95194709       0.32604673
C       -4.92778126       8.50434508       7.43512372      -0.35687400      -0.23186208      -0.44137897
C       -2.40965487       8.56606640       7.49445629      -2.13451827      -3.00615927      -0.14773096
C        0.00164065       8.50762743       7.66074958       0.04997787       0.06405158      -1.03383904
C        2.47080661       8.56757510       7.41202702      -0.29694467      -1.43493859       0.98815773
C        4.84311085       8.47522310       7.33070218       5.79141578      -0.09238668       0.22275729
C        7.41115624       8.56252758       7.37229891      -0.82986828      -2.13568530      -0.05872168
C       -6.11585650      10.68159966       7.48174882      -1.19788828      -0.74259219      -0.69200779
C       -3.66735288      10.61626308       7.36105532      -0.44325124      -0.20740446       0.92774684
C       -1.26142721      10.68246294       7.54723704       1.20650738       0.66896093       0.13146436
C        1.14624123      10.64656618       7.59259099       4.09383978       0.72336316       0.45231310
C        3.73813082      10.62668834       7.33894570      -1.16233917       2.49244077       1.61329550
C        6.15893093      10.62016612       7.31744533       0.25303023      -0.03027834       0.97403132
C        1.22634119       0.68699836       7.42585083      -0.68506478      -0.23489933       0.43668130
C        3.68413117       0.72073957       7.46053452      -0.26595183       0.19932169       0.42566233
C        6.18043833       0.75430516       7.77471430      -1.30272064      -0.35972381      -0.52452793
C        8.69587486       0.72324850       7.72634684      -3.75577005       0.86322783      -0.03719512
C       11.06838485       0.70636334       7.45435545       0.01171523      -0.85471645       0.83783819
C       13.50549536       0.71417645       7.41489913      -0.05024733       1.09261111       1.29889252
C       -0.02414374       2.81298220       7.54009053      -0.33838546       0.21451614      -0.04353675
C        2.45139667       2.83408485       7.44908538      -2.04697658       0.31910630       0.04893118
C        4.90828594       2.85048302       7.57347517      -0.27769405      -3.09443167       0.66612706
C        7.37853754       2.90741958       7.66089910      -0.23344820      -3.33362911       0.62242731
C        9.87739620       2.83623730       7.58675156      -0.88470169       0.84825630       0.09980663
C       12.28664495       2.81802813       7.59885615       0.39591903       1.44351502       0.23321783
C       -1.19739235       4.95880442       7.59697012      -2.07850782      -0.61897920      -0.13362023
C        1.20203754       4.97081894       7.54937332       0.77808704      -1.19087431      -0.15777626
C        3.72735990       4.94400003       7.49764157      -1.77302477       1.07945067      -0.48462646
C        6.14795872       4.99905500       7.45956133       0.09386043      -2.17650567       0.72170609
C        8.62673952       4.98352259       7.47748881      -0.59984197      -2.32330358       0.41364602
C       11.08856177       4.99156914       7.46825552       1.26262377      -0.96226981       0.66177984
C       -2.50586715       7.08914820       7.46588519       3.35290596       1.83606976      -0.00065795
C       -0.05671931       7.07538259       7.57867942       1.71689450       0.77962481       0.05065099
C        2.43281444       7.12460687       7.41665984       0.84985552      -0.16655298       0.14202183
C        4.92877386       7.08304339       7.37586432      -1.03783685       0.05898753      -0.76860841
C        7.41202246       7.11065765       7.34977045      -2.05810457       0.49088967      -0.13215367
C        9.78728494       7.08866994       7.39324786       1.76714620       0.07345513      -0.26003160
C       -3.69144028       9.17021448       7.44545746       1.55077141       2.36773430      -0.37490669
C       -1.19696620       9.27085143       7.54926681      -0.54107503      -0.56646468       0.35068459
C        1.23767690       9.22739788       7.60880551      -0.99108339       0.28926042      -0.62466777
C        3.74533952       9.23173369       7.40176576      -4.13560092       0.48692889      -0.82996521
C        6.13033156       9.15391411       7.35633336      -0.03633329       2.82466073      -0.54051556
C        8.63251573       9.27768912       7.40884881      -0.39498007      -0.86696262       0.33923546
C       -4.87741284      11.31181746       7.36443786      -0.59455629       2.42124539       0.88085994
C       -2.48736255      11.38715397       7.52543599       0.70284062      -0.08027473      -0.62480455
C       -0.01784632      11.40008739       7.58154140      -0.93862826       0.39942088       1.41063086
C        2.48225886      11.36655361       7.62337615      -0.95074098      -3.07471671      -1.84520283
C        4.95409579      11.38624677       7.31611778      -0.86267582      -1.50216137       0.33486896
C        7.37797105      11.36054156       7.49355784      -0.09620528       0.12444268      -0.69417471
