72
Lattice="14.76 0.0 0.0 -7.38 12.782534959858314 0.0 0.0 0.0 15.0" Properties=species:S:1:pos:R:3:REF_forces:R:3 REF_energy=-11164.037725346887 config_type=fd_force_conv_snapshot_001 split=validation degauss_Ry=0.0038001738 kgrid=8 lattice_temperature_K=600.0 pbc="T T T"
C        0.00332250      -0.01553350       7.46731623      -0.57634183       3.06065457      -0.63233197
C        2.36783795       0.02014341       7.34010012       2.69636525      -1.70983322       0.28208113
C        4.81772463       0.05050833       7.49729028       2.09226348      -3.01724124      -1.41370230
C        7.34770562      -0.03728449       7.67964550      -0.75180162       1.78021435      -1.60752903
C        9.77183504       0.01787832       7.58421709       2.46835391      -1.32101841      -0.32793264
C       12.34127549       0.01899564       7.48378070      -2.44993838      -0.76996904       0.24690124
C       -1.15883764       2.15846266       7.55081631      -4.20782887      -0.83614512      -0.76716602
C        1.23393967       2.16588954       7.46190766       1.28288380      -0.19007060      -0.82353746
C        3.67957874       2.12882773       7.36366590      -0.23925915      -0.05243739      -0.54598584
C        6.16805840       2.14965148       7.51992791      -1.67399307      -2.25847604      -1.11895232
C        8.62937354       2.20534548       7.45566337      -0.03590288      -2.99222646       0.57065635
C       11.07914799       2.11549801       7.53186188       0.42056949      -0.87543594       0.49768870
C       -2.34260742       4.23397094       7.46169415      -4.63198736       0.54631468      -0.07186825
C        0.04188089       4.27782013       7.39412329       1.06821263       0.22385027      -0.92448719
C        2.52990222       4.24394875       7.35059626       0.25168015       2.08533924       0.23993920
C        4.98577006       4.19131650       7.53392723      -1.19375986       4.40457354       0.02701792
C        7.42755402       4.28012112       7.58838219      -0.12715468      -0.22183092      -0.29935894
C        9.95320440       4.30195109       7.54053672      -1.95896926      -1.51130858      -0.20826218
C       -3.65081956       6.39734102       7.49199495       0.25083940      -0.87971452       0.88569465
C       -1.22225734       6.40878626       7.49562307       1.03937668       0.59444676      -0.36835758
C        1.28132538       6.37567331       7.42205660       0.09461891       2.92392485      -0.03176187
C        3.71481472       6.40588133       7.52477745       1.02787254      -0.81974919      -0.27639488
C        6.17953004       6.35371008       7.44507303      -1.51776693       3.34213483       0.44651937
C        8.58205629       6.41882302       7.59549193       1.69078855      -1.69246439      -0.83886277
C       -5.02284271       8.45487998       7.56146656       5.26441394       0.09077743       1.43401762
C       -2.49767820       8.55310151       7.72142520      -1.89791662      -2.54725232       0.00027357
C       -0.02651535       8.55058697       7.67378419       1.03418357      -1.71209708      -0.23865057
C        2.44611292       8.55222276       7.40412007       1.28067728      -1.56659424       0.62348815
C        4.90662696       8.47426790       7.33291369       2.43096698       1.44339212       0.53050343
C        7.38088149       8.54758077       7.35479404      -1.26025373      -1.64275211       0.41320147
C       -6.23142887      10.62128676       7.39407670       1.55148078       1.08572004       0.76471756
C       -3.70096763      10.63306110       7.65415702      -1.87779877      -0.17285089      -1.44856466
C       -1.26329837      10.63389518       7.71936386       1.10980460      -0.79126677       0.47051316
C        1.19066998      10.62905925       7.71114532       1.07785247       0.28233258      -1.15650560
C        3.67690817      10.61639763       7.52140186      -1.92319699       1.10720238      -0.99867715
C        6.05687001      10.64693134       7.41197853       1.52183442       0.17033019      -1.35004308
C        1.24623666       0.76768398       7.45060487      -3.32614077      -1.61332970      -0.18710046
C        3.59119516       0.71500264       7.30415052       1.75782364       0.20693704       1.11314472
C        6.08206787       0.68655353       7.45059280       1.44259122       1.29308954       1.83195188
C        8.56941803       0.72021718       7.49609285      -0.15161127       1.27377876       1.07750177
C       11.08885404       0.66550120       7.62914276      -1.22415672       1.87009703      -1.31739418
C       13.54822368       0.74421784       7.44875104       0.91956944      -0.60235111       0.92404265
C        0.02235496       2.84872192       7.45145931       0.73105487       1.87053206       0.41007424
C        2.48415787       2.85426565       7.33657110      -0.74606138      -0.44123113       0.52901656
C        4.91149095       2.83838645       7.41356828       1.55764474      -2.10013697       0.76796666
C        7.37919290       2.83534375       7.54743460       1.09083757       2.19246503      -0.16324885
C        9.90501260       2.85367989       7.49043648      -2.06064482       0.92727658       0.09917002
C       12.26563914       2.85523904       7.52215401       4.57756739      -1.67827216       0.05605159
C       -1.19768136       4.95387736       7.34504208       2.39159131       2.18431154       1.13627847
C        1.31761601       4.99977700       7.29278551      -1.78041721      -1.99620758       1.09676473
C        3.77513459       4.95778821       7.52013759      -1.55611237      -0.18748047      -0.68037355
C        6.18038915       5.00224570       7.57627884       1.17316995      -3.76349622      -0.16919993
C        8.68085730       4.98733385       7.55512972      -1.33008103      -0.07707782       0.46788653
C       11.16722708       4.95832694       7.51270283       0.55631756       1.52368176      -0.32590635
C       -2.45224725       7.15063078       7.54938073       0.38118481      -1.71606969       0.06337409
C        0.05090074       7.15124284       7.55943846      -1.57582141      -2.86913413      -0.52130094
C        2.51358126       7.13393139       7.42907378      -1.76365284      -1.26323029       0.07291289
C        4.94244621       7.10971887       7.48946001       0.10646681      -2.23001933      -0.84757496
C        7.35397653       7.12777134       7.41423879       1.40671996      -0.86143397       0.61714241
C        9.86673525       7.03536241       7.61672515      -2.29345924       1.72614430      -0.89354088
C       -3.78084838       9.18145284       7.72950047       0.90991418       2.03881590      -0.82182356
C       -1.29341651       9.16022684       7.80907662       2.25747254       4.63797803      -0.70555107
C        1.22272164       9.22055963       7.53415316      -1.09442297       1.30741084       1.04801482
C        3.72457780       9.17786101       7.43937353      -2.43163316       2.62647624      -0.22963551
C        6.15562313       9.22349754       7.29326201      -1.66971245       0.64989800       0.59342321
C        8.60532458       9.18273155       7.52371819      -2.85436700       2.64118346      -1.35196832
C       -4.98257229      11.35170448       7.43575774       0.15835707      -0.25882627       0.31098136
C       -2.43906385      11.33160941       7.51517164      -3.12263693       1.68120373       1.56675545
C       -0.01189378      11.34452262       7.78431986      -1.32194632      -0.42960871      -0.45007752
C        2.38420272      11.36204237       7.53110934       1.83600883      -0.79032035       1.30504054
C        4.84838001      11.36754530       7.40233443       1.61965358      -0.02165820       0.95211190
C        7.27752832      11.40355127       7.35977307       2.09776410      -3.31186935       0.64080813
72
Lattice="14.76 0.0 0.0 -7.38 12.782534959858314 0.0 0.0 0.0 15.0" Properties=species:S:1:pos:R:3:REF_forces:R:3 REF_energy=-11165.046342229134 config_type=fd_force_conv_snapshot_005 split=train degauss_Ry=0.0038001738 kgrid=8 lattice_temperature_K=600.0 pbc="T T T"
C       -0.05134543       0.02029042       7.29895121      -0.23620442      -1.77821094      -0.34183639
C        2.40974508       0.03684298       7.61680235      -0.18615867      -1.33747012      -1.84671516
C        4.93105619       0.02025330       7.58887327      -0.23456354      -0.68821130      -0.74678231
C        7.36650908      -0.01090399       7.66478660      -1.08247891      -0.14453688      -2.13294373
C        9.85732396      -0.01335126       7.44538961      -1.87503972      -0.11780358      -0.29767178
C       12.30330707      -0.02653014       7.29571577       0.08083343       1.11432871      -1.14092831
C       -1.20108361       2.17908467       7.25476053      -1.37861806      -1.20899416      -0.01386724
C        1.20251351       2.11396579       7.31131836       2.74011257       0.57223912      -0.85957687
C        3.67287646       2.05225485       7.39933045       1.53025504       1.28606374      -0.53158818
C        6.15506506       2.20345460       7.46412341       2.15400775      -2.85690313      -0.74935239
C        8.68503881       2.08935414       7.38476613      -1.79603691       2.56840196       0.06318435
C       11.12419121       2.06845870       7.29097938      -1.02742131       3.41468262       1.04467470
C       -2.44926271       4.30181866       7.69549601       0.21168175      -2.44441385      -1.05589756
C        0.01525107       4.20463177       7.57126406      -0.63956525       1.64573074      -0.71050276
C        2.47484949       4.27125772       7.24237799       1.09428182      -1.03470139       1.42002516
C        4.96842747       4.22930902       7.32955815      -1.55012015       1.06364224       0.06650133
C        7.43475659       4.30170962       7.36116886       0.30750599      -1.30949755      -0.42523707
C        9.86053267       4.30396375       7.50021675       1.43979977      -1.54959025       0.14666678
C       -3.62329786       6.41889694       7.69497861      -1.31518817      -1.58425695       0.25914586
C       -1.18766307       6.37002141       7.85542510      -0.79823883      -0.31304492      -1.51897869
C        1.20991850       6.37171650       7.57255251       0.14116359       0.37712247       0.13000860
C        3.68308054       6.43349457       7.40015643      -0.36997249      -1.25692183       0.78546199
C        6.15083600       6.37313893       7.36987959       1.22566699       0.30161328       0.41971922
C        8.70364507       6.38698316       7.46324967      -2.47109830       0.44044180       1.08756584
C       -4.93831812       8.53804182       7.66041008      -0.27779227      -1.53084742       1.35680328
C       -2.48020165       8.48944898       7.67135722       0.09086047       2.15687350       0.22837670
C       -0.08565308       8.54555991       7.62798201       3.05742424      -0.11113953      -0.22734260
C        2.43851130       8.52551022       7.51551437      -1.56837036       0.98050382       0.71170938
C        4.85805034       8.52091467       7.60901006       0.39386241       0.05288065      -1.34269306
C        7.36341793       8.50014342       7.62116436      -0.65747607      -0.50778465       0.44309363
C       -6.19859094      10.66962482       7.69069228       1.04892319      -1.07892333      -0.10455031
C       -3.67126730      10.66567069       7.58957079      -0.86443959       1.21546511       0.80755059
C       -1.25216999      10.65364938       7.58486287      -0.03682900       0.00554895      -0.48706130
C        1.23732004      10.65508053       7.55481868      -2.71012759      -0.35654465      -0.20873372
C        3.65836626      10.72387312       7.50956061       0.86898890      -3.20523027      -0.16874176
C        6.12352900      10.63797667       7.47255453      -0.97453217      -0.99730675       0.27405337
C        1.16244957       0.72326993       7.31820645       1.46775512      -1.02269099       1.40936974
C        3.67243127       0.64806053       7.50928518      -0.37735156       1.80996972       0.59370886
C        6.13452298       0.72738112       7.52236530       1.57309245       1.50126019       1.06824297
C        8.59056995       0.68535441       7.46794257       1.92567296      -0.23737376       0.51623278
C       11.08270150       0.65781696       7.28428817      -0.41641510       0.94631972       0.40746303
C       13.48883402       0.72937826       7.10287732       1.33442517       0.22037131       1.75359957
C        0.04336092       2.84259251       7.35001524      -2.20290036      -0.66171556       0.05118449
C        2.50245251       2.78359187       7.24811752      -2.22594747       1.95465084       0.71708864
C        4.91496147       2.80082960       7.37259492      -0.43252332       1.33841963       0.15178199
C        7.46273166       2.88225885       7.34381068      -1.55866779      -1.27278940       0.98035778
C        9.89414103       2.86852853       7.40494039       0.32932489      -2.19447049      -0.44824818
C       12.31609938       2.86834396       7.41834223       0.53910505      -0.61162533      -0.24023899
C       -1.19968298       4.94252304       7.70543531       0.08189581       0.58406054       0.89361416
C        1.19871039       4.91577891       7.43360375       2.38956271       2.09912061       0.35228613
C        3.75842781       5.02585102       7.39930398      -2.49899760      -2.60823323      -1.60982862
C        6.18703939       4.94444345       7.30815598      -0.34049531       0.85060680       0.31865610
C        8.65543134       4.99915180       7.43675350      -0.00317634      -0.45506443      -0.26268241
C       11.09966892       4.99762533       7.68201043      -0.49859090       0.28704798      -0.33230120
C       -2.40873835       7.08791097       7.74136697      -0.17887962       0.50463325       0.56076788
C       -0.02263864       7.10951932       7.69818873       1.07485508       0.06444701       0.17641084
C        2.43040315       7.12026524       7.56929723       0.38176588      -1.35600855      -1.21861728
C        4.90645734       7.08203157       7.41338881       0.78545967       2.08303502       0.81774450
C        7.43261168       7.07107591       7.53318341      -1.50964842       0.52412658      -0.92016260
C        9.89000105       7.06415317       7.65345576       0.42572917       3.18212994      -0.64181960
C       -3.73094616       9.24337017       7.72034165       1.67134407      -0.19020044      -1.20888103
C       -1.27496009       9.27102869       7.59968940      -0.82166878      -2.68648784       0.48797070
C        1.20636396       9.25564840       7.54851935      -0.96582128      -1.35827369       0.10380418
C        3.61350361       9.27971748       7.55081446       2.45076268      -0.76199887       0.09701081
C        6.09183382       9.20861788       7.57915232       0.97620288       0.13179783       0.24546605
C        8.57376340       9.20519508       7.78160781       0.39260308       1.69750736      -1.53184064
C       -4.94664202      11.40421720       7.64038618       0.08442937      -1.55994897       0.24980735
C       -2.39808409      11.40355874       7.53936391      -3.95752169      -1.19790524       0.83082859
C       -0.07240985      11.32273986       7.54873330       4.48942303       2.34336230       1.08003019
C        2.43842011      11.34916281       7.51068769       0.11407908       2.31975366      -0.04858177
C        4.90969026      11.37328906       7.39025138       0.08558148      -0.81461701       0.46928186
C        7.32725227      11.32123018       7.49390288       1.08044028       2.76357800      -0.20304696
72
Lattice="14.76 0.0 0.0 -7.38 12.782534959858314 0.0 0.0 0.0 15.0" Properties=species:S:1:pos:R:3:REF_forces:R:3 REF_energy=-11163.105001694525 config_type=fd_force_conv_snapshot_009 split=train degauss_Ry=0.0038001738 kgrid=8 lattice_temperature_K=600.0 pbc="T T T"
C        0.06350898      -0.03333854       7.55818068      -0.07930053       0.25117107      -0.72806237
C        2.54930951       0.11465178       7.61348110       0.14682619      -3.21290193      -1.52379926
C        5.02617264      -0.05424101       7.47710609      -1.16351391       4.07012932      -0.46104173
C        7.40268859      -0.00505366       7.36201968       1.34536855       0.18887581      -0.86602339
C        9.90012695      -0.03174267       7.36961011      -3.12655760       0.52907492      -0.57294129
C       12.31304748      -0.00205209       7.57058523       0.32282540      -0.56067378      -0.20095305
C       -1.26388341       2.07176431       7.55051933       2.63925462       0.81085215      -0.42671776
C        1.26379291       2.12674171       7.68408590      -3.31398537       0.69545769      -1.63591015
C        3.69513697       2.09677702       7.59578043       1.11373813       4.71634216      -0.73526686
C        6.12849909       2.11672412       7.52679003       0.75660393       2.68464102      -1.51876838
C        8.61652443       2.07246870       7.42426180      -0.27319462       2.88847731      -0.15697768
C       11.06412904       2.14516386       7.36857851      -0.10236410       0.08687655       0.62680358
C       -2.54747046       4.24253915       7.26550237       1.60609898       2.13798155       0.35394783
C       -0.06393915       4.20306356       7.53108701      -0.07718452       1.34265655      -0.47857537
C        2.45433785       4.23551547       7.44922469      -1.69717106       1.22295345       2.54445342
C        4.90540906       4.29807102       7.51774568       1.79012929      -2.92538755       0.23443781
C        7.35206677       4.19228653       7.60815416       0.45388815       1.51135614      -0.05901273
C        9.75568287       4.27571525       7.47794134      -0.24335620       0.66635949       0.67189045
C       -3.70751938       6.38864473       7.54062151      -1.72629626       0.98848812       0.00032730
C       -1.26964653       6.41621858       7.46505167      -0.87082030      -0.95579500      -0.81505153
C        1.09655570       6.42126480       7.58434141       1.79160690      -1.33268890       0.01845049
C        3.66962549       6.34333758       7.51660838       0.31660873       1.45748948       0.26723429
C        6.18039449       6.40990787       7.46385959      -0.55258895      -2.13327437       0.68694760
C        8.56682641       6.41327005       7.56079049      -0.42699339      -1.40005000       1.67919827
C       -4.87610375       8.47044229       7.55277476      -2.20931809       2.67284120       1.63275489
C       -2.43162332       8.53886103       7.68803109       0.30952662      -0.65546290      -0.10556667
C        0.06421784       8.62994754       7.56962087      -4.35556728      -2.22294005       0.03656829
C        2.51071934       8.49570510       7.45845587      -2.02095085      -0.90770817      -0.07638439
C        4.94932798       8.51228097       7.41087726      -3.30144173      -1.20927801       0.07170807
C        7.35751917       8.55795092       7.48846568       1.64286550       1.00389700       0.42023858
C       -6.09289762      10.68474437       7.44597296       0.71634199       1.14538095       0.53072891
C       -3.69954945      10.63962307       7.55313082       1.80669208       0.81528756       0.83512027
C       -1.20798865      10.67740804       7.64264946      -0.18520505       1.87209914      -0.92144892
C        1.26654784      10.61836654       7.29316594      -2.56654408       1.18053179       0.40462942
C        3.65057915      10.65715685       7.41494114       1.52221109      -1.16670311      -0.18605788
C        6.14401639      10.64794739       7.43112279       0.52516608      -0.70732719       0.04865787
C        1.27778715       0.75071167       7.50567772       0.52260963      -1.69096338       1.93888946
C        3.83430010       0.76767303       7.52020599      -2.61604836      -4.17344139       0.79831468
C        6.22612898       0.77081978       7.34549490      -1.88670275      -4.85772738       1.47150019
C        8.64189356       0.69626578       7.32648366       0.70662759      -1.58779941       0.42062965
C       11.06104703       0.71811776       7.42653439       2.06808688      -0.21307812       0.36697972
C       13.59212493       0.65586786       7.66098034      -2.25030173       0.22471879      -0.99275152
C       -0.03350477       2.79100596       7.52737612       0.65525593       0.11932773       1.06219419
C        2.43297872       2.83697165       7.59263223       2.20716737      -0.30154001      -0.08785434
C        4.90145498       2.86111746       7.53101798       0.11119404      -0.38933907       0.40909568
C        7.36582975       2.81857749       7.42791215       0.60539401      -1.63531906       1.36057020
C        9.82508949       2.86457502       7.46965831       0.05795961      -1.60518367      -0.93914068
C       12.33603739       2.82791825       7.35845832      -3.21835524      -0.09057714       0.18320061
C       -1.26781413       4.97927848       7.32239343      -1.13966102      -1.06036537       1.13422416
C        1.14087086       4.94952400       7.67538216       1.60575240       0.65545210      -2.21085870
C        3.69874824       4.94012569       7.52411267      -2.13778306       1.30073472      -0.69815195
C        6.16853444       4.91435466       7.57047624      -1.32758732       3.12098885      -0.50548634
C        8.53172351       4.96467904       7.69853307       0.93818423       0.48985917      -1.84059362
C       10.92357854       5.03892716       7.34224121       3.93984330      -3.90715738       0.22151905
C       -2.48859877       7.08457764       7.52359824       0.22778097       1.85777810       0.73909754
C       -0.12162598       7.19129141       7.46140719       3.98913135      -0.31576721       1.33730197
C        2.40432534       7.04756437       7.60236863       0.96873459       1.16970333      -1.06617040
C        4.96501291       7.08772859       7.43510209      -2.81567035      -0.35265457       0.31499665
C        7.35887610       7.16268729       7.52841117       1.17874770      -1.12648977      -0.41748262
C        9.79486471       7.06607638       7.68933076       1.38907576       1.38603183      -1.56353668
C       -3.65127576       9.20610947       7.63375427      -1.51748514       0.46804465      -0.54615245
C       -1.22903732       9.33715425       7.75937201       2.00461097      -4.48968965      -1.24425761
C        1.28885656       9.23606748       7.39555935       0.34341042      -0.65217137       0.54878886
C        3.68282222       9.23231591       7.40532984       1.63479224      -0.53292901       0.06686591
C        6.10467483       9.18971878       7.42345812       3.07890323       3.49479588      -0.01001573
C        8.63434572       9.33161049       7.59914511       0.42825914      -5.30313038      -1.50600054
C       -4.84998878      11.42996180       7.55562303      -1.36349252       0.13083213      -0.40481531
C       -2.44594844      11.35942963       7.56462277       0.24645566      -0.67562960       0.11706001
C        0.02004542      11.34671194       7.37258832      -0.01292725       0.43419016       0.61446923
C        2.42482891      11.32635561       7.29861803       3.12775497       1.97878527       0.62148346
C        4.91142266      11.34874775       7.52585422      -0.17817308       0.76053052      -0.62432170
C        7.43344814      11.32237071       7.36914855      -2.08494252       1.82015078       1.33487177
72
Lattice="14.76 0.0 0.0 -7.38 12.782534959858314 0.0 0.0 0.0 15.0" Properties=species:S:1:pos:R:3:REF_forces:R:3 REF_energy=-11164.403639002638 config_type=fd_force_conv_snapshot_012 split=train degauss_Ry=0.0038001738 kgrid=8 lattice_temperature_K=600.0 pbc="T T T"
C       -0.02633944      -0.04878915       7.65295182       2.23413155       2.54213557       0.39583007
C        2.52086676      -0.08267161       7.65006406      -2.22839722       4.42242111       1.08472734
C        4.88405634       0.02488318       7.46470890      -0.72205627      -0.89736000       0.99269856
C        7.33777009      -0.03267235       7.41802878       0.54752773       1.65666513       0.47876563
C        9.85074019       0.03646994       7.48787341      -0.74207925       0.96658078      -0.73700826
C       12.29992644      -0.01228169       7.40665729      -1.53202756       0.84083275      -0.02910669
C       -1.24566304       2.08278028       7.51241797      -0.30602093       1.39500576       1.61429977
C        1.22891787       2.09485020       7.67116432       1.67219099       0.41984623      -0.27443544
C        3.73435123       2.21310629       7.73617775      -1.33389089      -2.85090938       1.10079905
C        6.14116354       2.08099830       7.57329355      -0.35988734       0.16139509       0.58946988
C        8.58664633       2.12875476       7.36031212      -2.84743196      -1.16167737       1.14793328
C       11.04861881       2.12568481       7.47391288      -1.36919497       1.14292555      -0.63702089
C       -2.50903517       4.25939114       7.54741904       1.53401682       0.28911772       0.07204514
C       -0.04292024       4.24668471       7.53789203       0.87320911       0.89313876      -0.23003043
C        2.41073859       4.29977445       7.67311118       2.25032770      -1.46571289      -0.31942152
C        4.92380964       4.22138275       7.80060909       0.44580383       4.28045765      -0.31895717
C        7.32506890       4.24296011       7.50929829      -0.53178615      -0.74502008      -0.20592505
C        9.79550031       4.24233139       7.44198586      -0.43516384       0.02275323      -0.02272495
C       -3.65752015       6.37182642       7.39451478       0.31272636       0.90727340      -0.00624727
C       -1.15959726       6.44433946       7.30273868      -1.47886151      -0.93776231       0.76358781
C        1.26569267       6.35220068       7.36401916      -0.20548385       1.68964955      -0.27994403
C        3.68860909       6.41513902       7.63368913       1.44481548      -1.87027160      -0.51832591
C        6.18468701       6.41915950       7.61226731       0.48426111      -1.09660944      -0.30170507
C        8.59794077       6.34466930       7.54905292       0.56860101       1.64869985      -1.62864061
C       -4.88125984       8.52777512       7.42558954       1.40547889      -2.20660275      -1.14060924
C       -2.46489092       8.55897267       7.27937383      -0.14555478      -1.41287287       0.02925581
C        0.01565042       8.57099621       7.21306362       0.60032122      -1.79245640       1.14759261
C        2.46408935       8.53120550       7.40914336       0.81692792      -1.05915361       0.45936280
C        4.96885147       8.48866507       7.49433721       1.24760158       1.07967358       0.17983710
C        7.46239567       8.58113322       7.51799472      -1.09860976      -2.32898906      -0.27898886
C       -6.13487303      10.64828765       7.63399881      -0.03521769      -0.72823823      -0.25153951
C       -3.68243374      10.65255111       7.52084364       0.87017161      -0.16628275      -1.48458479
C       -1.25618353      10.72946091       7.27152142       1.31007116      -3.94278927       0.32686846
C        1.22066828      10.69175345       7.44758732       0.99134744      -0.16659463       0.12179624
C        3.62605454      10.61009814       7.37191588       1.57564092       2.22831186       1.34762958
C        6.10059843      10.65320392       7.52846204       1.22277424       1.93908512       0.46462817
C        1.26384291       0.66270417       7.66634304      -0.96518416      -0.08250310       0.09816446
C        3.69233709       0.71436651       7.74501426       0.10630946       1.25849201      -1.66351094
C        6.08318618       0.64984634       7.47016329       2.91058185       2.50597609      -0.12725392
C        8.55590347       0.70551705       7.54912951       1.47876021       0.36337838      -1.69391218
C       11.09473435       0.75518152       7.26567668      -1.20983259      -1.76208087       2.27338021
C       13.51200829       0.65336480       7.59935462       0.47075125       1.57015316      -1.05704813
C        0.01174870       2.82216722       7.62440240      -1.88901418      -0.70632318      -0.58535483
C        2.47746819       2.87626881       7.68001073      -0.79227875      -0.96444419       0.56247381
C        5.00105841       2.86420052       7.86795607      -2.37039385      -2.36113145      -1.74307759
C        7.30209689       2.80914671       7.41765253       2.46741906       0.48223225       0.27982447
C        9.75892003       2.82503775       7.44172125       3.10356243       0.52431016      -0.20053268
C       12.23401174       2.84754589       7.58904145       2.84146314      -0.96060656      -0.92864878
C       -1.26441909       5.00692032       7.50042650       0.88503387      -0.93187937      -0.52053423
C        1.22664561       4.97190897       7.46262035      -2.03087891      -0.80798125       0.77869330
C        3.67162874       4.96400719       7.72536237       0.32322572       0.67727794       0.14283352
C        6.14854237       4.99934296       7.64795453      -0.67387560      -1.09542210       0.30848044
C        8.53292292       4.92264546       7.44384470       2.35445404       1.21684862       0.62463691
C       11.04884335       4.94179937       7.46873844      -0.96476764       1.16202344      -0.12848188
C       -2.39666681       7.16763019       7.36612983      -1.68200592      -2.86967869      -0.78100421
C        0.08733422       7.10903217       7.22460446      -1.56243085       0.99835627       0.24033361
C        2.46895886       7.08141576       7.44355085       0.35917540       1.31404172       0.20816011
C        4.97779667       7.07202923       7.57289434      -2.49002291       1.81572257       0.32043042
C        7.40312371       7.13998863       7.50874123       0.62362030      -0.53051114       0.75564233
C        9.86582190       7.06833414       7.37427971      -0.44636022       0.18963814       1.15713115
C       -3.67771069       9.25827777       7.28120039      -0.40143662       0.16680880       1.73789604
C       -1.25987656       9.18468903       7.30792071       2.44862815       5.02384739      -1.08773862
C        1.25700052       9.27520487       7.40159232      -0.76667545      -0.21205328      -0.91580432
C        3.74323016       9.19316983       7.46970351      -2.01872890       0.49867497      -0.68838767
C        6.23420601       9.27666027       7.51982216      -2.68564349      -1.82311886      -0.16756702
C        8.70186964       9.19915875       7.47195594      -2.42192081       3.39487639       1.06224536
C       -4.90909862      11.33342657       7.66114152       0.53677743      -1.08187059      -0.46924073
C       -2.45182182      11.40941830       7.35642843      -2.05447778      -1.13725986       0.67937904
C        0.00932314      11.36797443       7.34315346      -1.59047722      -0.31190001       0.13502920
C        2.44581708      11.43330004       7.52121230      -0.15726975      -3.17885590      -1.06094541
C        4.82577054      11.38649938       7.43802494       2.27328843      -2.76055567      -0.19324874
C        7.38074499      11.37786684       7.68423734      -1.04565891      -3.28114955      -1.00435363
72
Lattice="14.76 0.0 0.0 -7.38 12.782534959858314 0.0 0.0 0.0 15.0" Properties=species:S:1:pos:R:3:REF_forces:R:3 REF_energy=-11164.0311963835 config_type=fd_force_conv_snapshot_016 split=train degauss_Ry=0.0038001738 kgrid=8 lattice_temperature_K=600.0 pbc="T T T"
C       -0.06756166       0.03952527       7.57895325       1.10216122      -2.81815789      -0.24870795
C        2.31855151      -0.05476313       7.67390045       3.50195718       0.97729817      -0.71275890
C        4.88118616      -0.04173744       7.65948773      -1.94567229       1.35577355       0.10345605
C        7.29230260      -0.00929913       7.53960269       0.72730158      -0.12944862       0.41056995
C        9.72763812       0.00681013       7.60177906       3.49159512       0.42364401      -0.09722369
C       12.29988885       0.00264217       7.54981597      -0.67166702       1.69279889       1.26517353
C       -1.20969894       2.19074678       7.83926715      -1.21239547      -1.69292025      -2.08668547
C        1.25658812       2.17790383       7.67259407      -1.88866348      -1.42180642       1.22064974
C        3.67084380       2.07685434       7.79117285      -0.39778103       1.02688678       0.39093161
C        6.14519461       2.18105574       7.63829226      -0.66461551      -3.03912287       1.54135938
C        8.58677571       2.15298414       7.82814603       2.65747449      -1.05080601      -1.87459106
C       11.07393760       2.14007263       7.54101506       0.86406498      -2.94474359       1.37473724
C       -2.41685460       4.22070245       7.27801841       1.25007704      -0.11143238       1.33796763
C        0.08741515       4.30091505       7.71330401      -1.18890973       0.01023119      -0.93658989
C        2.54429902       4.30393118       7.75532052      -0.61692258      -1.45272419       0.46876893
C        4.97663461       4.29274638       7.65697973      -3.41799266      -3.30396861       0.38006844
C        7.39349310       4.22906898       7.48668147       1.42069031       1.36661255       0.50506519
C        9.89858200       4.23468326       7.40218555       0.62391135       1.59601409      -0.02515824
C       -3.53548550       6.39879859       7.13156139      -5.17782381      -2.00444565      -0.03172176
C       -1.13944648       6.40403970       7.28402522      -1.48071091      -1.83492716       0.09384269
C        1.28580039       6.44419501       7.58413017      -0.85493268      -0.59604959      -0.36255023
C        3.67990066       6.39959321       7.63952797       2.20960503       0.63294312      -1.07005765
C        6.18935605       6.39043627       7.56831402      -3.29446375      -0.81793296      -1.16840518
C        8.59655775       6.40926435       7.37102796       2.10674830      -1.74716847      -0.76655101
C       -4.92792159       8.49836849       7.13919035      -1.10284513      -0.51505161       0.32707055
C       -2.50145450       8.45998207       7.27220257       0.42821209       3.77929282      -0.45467671
C       -0.00562095       8.55271681       7.28678243      -0.19274738      -0.40393059       0.98779521
C        2.50738823       8.56122515       7.39211477      -0.97506053      -1.28555672       0.66030583
C        4.98300450       8.56550328       7.42347062      -2.65610897      -4.21650094       0.78300658
C        7.37146012       8.50611500       7.42542095       1.01547056       1.55984869      -1.21451277
C       -6.16714475      10.63042141       7.35751532      -0.97554467       0.08660530       0.08125920
C       -3.78389884      10.59517112       7.36944685       3.53617805       2.90581220       0.95780278
C       -1.25529431      10.60218480       7.31452495      -2.54329925       2.34758199       0.96524355
C        1.20453568      10.67439718       7.22715913      -0.99502798      -0.14503439       1.42791973
C        3.66359657      10.63542964       7.42908685       0.42118964       2.02953653       0.35176419
C        6.10682627      10.64580712       7.45757057       1.79871549      -0.16317635       0.37966272
C        1.14563149       0.71209621       7.59942544       1.65409711       1.33407858       0.71283629
C        3.59723153       0.65126957       7.70452245       0.48896237       0.51765665       0.46177090
C        6.08465135       0.68548358       7.72259805       0.88669095       1.92564134      -1.25958935
C        8.53403833       0.72320408       7.66587805      -0.33457303       0.17373304       0.31961255
C       11.05935667       0.69221424       7.67100472      -1.68198252       0.52642129      -1.13210069
C       13.52737266       0.74271443       7.68463799      -1.57591860       0.70711276       0.08410181
C        0.00822225       2.88902690       7.74987722       1.55571796      -0.17286221       0.31496194
C        2.46249103       2.86442798       7.87056236       1.20699307      -0.49569943      -1.66439000
C        4.90292146       2.83046706       7.77475902       0.86571075       0.55996724      -1.17726032
C        7.41507236       2.84709053       7.64372178      -2.00926390       0.15052035       0.07711330
C        9.90694325       2.84077026       7.63006388      -3.62881335       0.33741564      -0.16748680
C       12.29459202       2.80973243       7.55843151       1.81910742       1.99298007      -0.12992787
C       -1.16405365       4.93178376       7.41463581       0.37486915       1.96192346      -0.03662202
C        1.34307593       5.01315627       7.69810042      -2.09711078       0.70669624       0.04706970
C        3.75992466       4.98493713       7.64995981      -0.91786866       0.83935231       0.87503948
C        6.14211922       4.91266415       7.51426231       4.16071829       3.59623696       0.32103694
C        8.67593171       4.95095295       7.43412029      -2.42328504       0.70183557      -0.11115419
C       11.16088181       4.96715988       7.19867621      -1.07007514      -0.15721756       0.24213030
C       -2.36623531       7.11364182       7.13603234      -0.14112991      -1.72601112       0.48668489
C        0.01771922       7.13530704       7.40780969       2.25323151      -0.11798767      -0.06786118
C        2.49832847       7.13776354       7.54625981      -0.94620222       0.47068748      -0.01951724
C        4.90860456       7.11386044       7.50840465       2.03303092      -0.22467585       0.63951717
C        7.34726058       7.12803905       7.41767762       2.23023427      -1.88352744       0.48210010
C        9.86741008       7.05081961       7.17909361       0.69601022       1.34686005       0.15064351
C       -3.74651224       9.22613941       7.24354857       1.29027213      -2.34600282      -0.38682890
C       -1.31090005       9.20535647       7.31740472       2.59575901      -0.18025747      -0.64915907
C        1.24762244       9.26322456       7.35941075      -0.45417329      -0.36739084      -1.31039204
C        3.74761492       9.20302792       7.42789876      -1.53287782       3.22785264      -0.56392160
C        6.16219287       9.19739520       7.47632882       0.94230622       3.11292330      -0.41636985
C        8.59767953       9.23323832       7.19369566      -0.37301359      -1.54547623       1.18430617
C       -4.94920401      11.31858374       7.50809121      -2.33749607       0.57443535      -0.50362872
C       -2.51187671      11.37872886       7.49000548       0.30401495      -3.95683778      -0.90466322
C       -0.06943919      11.34867371       7.33361081       1.27580093       0.26550497      -0.13580490
C        2.38621541      11.39168934       7.40562679       1.93104426      -1.16355454      -0.05745901
C        4.91633932      11.40141929       7.52685036      -1.49101769      -2.69520028      -0.83001689
C        7.34940146      11.32657128       7.45742178      -0.45193669       1.90689260       0.16099837
72
Lattice="14.76 0.0 0.0 -7.38 12.782534959858314 0.0 0.0 0.0 15.0" Properties=species:S:1:pos:R:3:REF_forces:R:3 REF_energy=-11164.041152212512 config_type=fd_force_conv_snapshot_020 split=train degauss_Ry=0.0038001738 kgrid=8 lattice_temperature_K=600.0 pbc="T T T"
C       -0.04779490      -0.03804871       7.61933523       1.42879519       1.50784325      -0.42784725
C        2.44734333       0.03590261       7.62537439      -2.89490121      -3.68524392      -0.79290430
C        4.93789575      -0.00288020       7.62889121      -0.29935380      -0.27558009       0.23841840
C        7.35806077      -0.00005052       7.62072213      -0.16494450       0.02426247      -0.26070343
C        9.84196465       0.04762969       7.55850044       0.31708695      -3.22841494       0.10486553
C       12.30341682       0.03910170       7.55562592       2.54454881      -2.52660585       0.23073337
C       -1.22785734       2.16163717       7.63138666      -0.17959618      -0.92349063       0.30985958
C        1.16585407       2.18365227       7.61336721       1.66503818      -1.43422048      -0.06736342
C        3.63394878       2.06114374       7.65798449       0.49696750       2.08083004       0.54676797
C        6.09538885       2.20376787       7.62006796       1.95704479      -1.05176760      -0.57228617
C        8.69132407       2.09455331       7.53861320      -3.10570081       1.30948572       0.22334350
C       11.11472172       2.06012673       7.43928105       1.62797933       3.22688436       0.98375343
C       -2.45664198       4.29991187       7.54838481       0.02308362      -3.21556225      -0.60252414
C        0.04625221       4.28643296       7.50924043      -1.24142837      -1.88181663       0.52596646
C        2.56549980       4.32639182       7.55246137      -3.28187383      -1.98044055       0.62940760
C        4.93817710       4.29009287       7.58112504      -0.36447444      -1.17462751      -0.48790719
C        7.44659952       4.23630777       7.42196153      -2.12808769      -0.24031150       0.01780463
C        9.87442774       4.27177303       7.51950153       1.02223128      -1.45814331       0.10096568
C       -3.65356539       6.43514076       7.39851605       1.10460762      -0.94721163      -0.09367017
C       -1.22629005       6.32943736       7.47558649       0.78329301       1.18207471      -1.78001637
C        1.21660083       6.42922293       7.40194905      -0.44692792      -2.96040135       0.79539853
C        3.69301310       6.42205577       7.43758724       1.39064542       0.36209926      -0.02606584
C        6.19523086       6.32733645       7.39492899      -0.15788579       2.93224263      -1.36156676
C        8.67847965       6.40960870       7.43755643      -0.25624231      -0.99554477      -0.61185288
C       -4.95965293       8.54539461       7.27204507       0.13853747       0.72652768       0.28226419
C       -2.46213654       8.53055715       7.36741073      -1.81258531      -0.27083307       0.24953199
C       -0.07605315       8.48068234       7.44641345       1.84156524       2.33333551       0.63003572
C        2.47792810       8.44869461       7.52775856      -1.46996395       3.43696792      -0.05022984
C        4.89740944       8.50620751       7.34693103      -1.01605112       2.03527318      -0.17138228
C        7.30119633       8.49750879       7.21139699       1.57297237       1.47336013       0.92295456
C       -6.14462738      10.62230400       7.47801611      -3.14637181       1.88389639      -0.50214442
C       -3.68437173      10.71964171       7.45552383      -3.10234193      -3.90662079      -0.70640339
C       -1.25809562      10.60529848       7.45611823       0.03837680       2.83898948       1.07872793
C        1.20839935      10.58665511       7.59594870       0.36395019       1.57525551       0.37743923
C        3.67516537      10.70574561       7.54184607       1.54658334      -1.46352026       0.56496855
C        6.15849944      10.64131110       7.51111847      -2.32294851      -1.33054126      -0.26710291
C        1.19842428       0.72996969       7.51925343      -0.01728655       0.05610019       1.63826605
C        3.66284436       0.62109421       7.77557021       1.79335423       3.26115563      -1.44366106
C        6.14971811       0.80885805       7.58737596      -0.84729445      -4.01403839       0.67991512
C        8.59846850       0.69808776       7.61373154       1.01651057      -0.00710139      -0.43982293
C       11.12286470       0.69598466       7.42056014      -3.17673320      -0.58155525       0.90136192
C       13.53493941       0.73987539       7.62880659      -0.52326037      -0.66047295      -0.25989534
C       -0.04667579       2.86746687       7.70631890       2.30583422       1.29491477      -1.34151061
C        2.43974937       2.87322690       7.57769866       0.76585013      -0.72821329       0.49076497
C        4.85319273       2.84325867       7.65089915       0.08710512       0.81540660      -0.24699457
C        7.38098947       2.82850407       7.48752405       1.86695617       0.43604855       0.61649680
C        9.93576697       2.77519707       7.56381694      -2.45239944       2.54340210      -1.02345975
C       12.33485902       2.83700243       7.57754062      -2.27071064       0.72614201      -0.64733204
C       -1.23159437       4.90028070       7.38701883       1.79944568       3.32061444       1.58617628
C        1.28274306       4.96626922       7.52100660      -0.38564439       1.93722390      -0.89467191
C        3.75079959       5.05596144       7.59819389       0.17687416      -1.83762091      -0.72459446
C        6.17717793       4.93265518       7.38073922       0.74980156      -0.11342267       1.18600258
C        8.63710646       4.95359357       7.45929215       1.50013919       1.09842952       0.12544489
C       11.10645506       5.01618822       7.49099447      -1.50693976      -0.41701751       0.15061651
C       -2.39357893       7.09469415       7.37386150      -1.98746017       0.53819514       0.45231001
C       -0.02137820       7.10959810       7.38482168      -0.51426768      -2.09607514       0.65682276
C        2.42711508       7.05123750       7.49490286       2.31847042       2.08378064      -0.75586499
C        4.95364667       7.12239653       7.26424804      -0.81823764      -2.43852140       1.69810051
C        7.45231112       7.09337605       7.34885332      -2.49113285      -0.69238188      -0.27753387
C        9.90546088       7.12298485       7.35293650      -2.04642405       0.57574199      -0.04158297
C       -3.73292652       9.26085513       7.32943548       1.17297891      -0.16490516       0.26309893
C       -1.29020900       9.25146549       7.49669807       1.67026575      -2.71193688      -1.08050353
C        1.20845051       9.17133221       7.54820914      -0.13217141      -0.35934303      -0.33112543
C        3.67017355       9.27614524       7.50245542      -0.06842683      -2.47560056      -0.30960453
C        6.06921493       9.22432415       7.28904220       2.51049275      -0.09831616       0.51178297
C        8.52112657       9.27982738       7.28708146       1.73853753      -4.06303128      -0.19543367
C       -4.96658132      11.32390966       7.46776843       2.01078445       3.51273704       1.09010866
C       -2.48414665      11.32982529       7.50541610       2.77763628       3.11681878       0.16732354
C       -0.03388659      11.32038884       7.60083768       0.35741702       0.94834549      -0.56265764
C        2.44770756      11.35966781       7.63707212      -0.82416069       1.23247347      -0.73086898
C        4.97473523      11.37913378       7.59921258      -2.90516582       0.69777760      -0.74952491
C        7.31922744      11.32623803       7.57232658       3.87763494       1.28581486      -0.18918486
72
Lattice="14.76 0.0 0.0 -7.38 12.782534959858314 0.0 0.0 0.0 15.0" Properties=species:S:1:pos:R:3:REF_forces:R:3 REF_energy=-11164.298561427498 config_type=fd_force_conv_snapshot_024 split=train degauss_Ry=0.0038001738 kgrid=8 lattice_temperature_K=600.0 pbc="T T T"
C       -0.02363896      -0.02276081       7.46803162       0.86335279       0.91827849      -0.09447416
C        2.57714873       0.03862270       7.50374040      -3.40453834       1.51569591      -0.88501433
C        5.01060458      -0.03350246       7.41980813      -1.48538106       1.36762942      -0.04344984
C        7.43535173       0.04349740       7.54472406      -1.04619679      -0.99184598       0.23228966
C        9.88388037       0.03121817       7.56885563      -2.42301405      -1.48620150       0.86761645
C       12.28505221      -0.00926163       7.46140420      -0.09587412      -1.26294644       0.37875538
C       -1.29005951       2.12628241       7.54115462       3.28250221      -1.10809995      -0.76252518
C        1.21794512       2.11714752       7.33732774      -1.95084818       0.71727119       0.51200794
C        3.75228083       2.10670368       7.37864582      -0.88447800       1.94406818      -1.14054985
C        6.21628033       2.13298180       7.29335975      -0.56396608      -0.42452333       0.46895739
C        8.67868980       2.16057025       7.61428904      -2.14272215      -2.58359821      -0.76529194
C       11.09875445       2.12785822       7.51995025      -0.21570887       0.18824949       0.55400717
C       -2.46638944       4.28966683       7.66331971       0.71795562      -0.54961881      -1.07044563
C       -0.02024124       4.22989224       7.46425349       0.28862767       0.35997013      -0.35040665
C        2.47825016       4.24422278       7.23982684      -1.61071180       0.04679742       1.50776020
C        4.91899011       4.25847717       7.35261413       0.75024662       0.30281425      -0.56246661
C        7.32870586       4.23490888       7.31553929       3.23959101      -0.11945062       0.38518699
C        9.81386523       4.25771575       7.58517723      -0.40134020      -0.49363689      -1.17009568
C       -3.72167677       6.34593242       7.59632745       1.60678598       3.28660826      -0.62698922
C       -1.25656093       6.39593253       7.49769345       1.59519930       0.09778934       0.31672289
C        1.16937174       6.33060770       7.40358146       0.84205017       3.76926397      -0.13566657
C        3.68408703       6.36943608       7.47638815      -0.24587922       0.00740941      -0.51662873
C        6.11487527       6.38027451       7.49243265       2.57214214      -0.76715548      -0.74781127
C        8.66248288       6.34857960       7.45133617      -4.90515858       2.30132142       0.62860773
C       -4.92773355       8.50752655       7.58798160      -0.45299392       0.71579589       0.96180444
C       -2.43018699       8.56672973       7.66484999      -0.36493930      -1.90246387      -0.54061352
C       -0.04427773       8.62193490       7.51977059       2.66407245      -3.73792917      -0.27332395
C        2.43884680       8.46891313       7.42897551       0.76861406       1.61921906       0.64445806
C        4.85708497       8.42323385       7.42049950       2.65870245       4.34385179       1.35435739
C        7.38338569       8.54777719       7.57953989      -0.17394593      -0.41246151       0.38883359
C       -6.15623166      10.76046092       7.73124588       2.14740233      -3.62071103      -0.76147925
C       -3.76662474      10.57481653       7.68165769       1.79188510       5.64773174      -0.27159437
C       -1.30357307      10.71399321       7.53412306       3.92691862      -1.23789001       0.43763673
C        1.19316003      10.70130043       7.53441450       2.19081258      -1.46933763       0.23294349
C        3.68594167      10.63318814       7.61730661       0.60425372       1.90449504      -1.11978253
C        6.13561064      10.60443788       7.59271252       1.29217191       1.51989272      -0.73067127
C        1.20097605       0.74615321       7.40249805       2.25150450      -3.01304803       0.57825293
C        3.82011883       0.73505541       7.33722054      -1.78837246      -1.91303059       1.25741471
C        6.20493266       0.72763547       7.41266383       0.27914904      -0.89836838      -0.01270331
C        8.64424654       0.71518952       7.67388729       0.91132134       1.38751999      -1.03425530
C       11.05757243       0.71086769       7.53312885       2.63359459       1.03022972      -0.46163669
C       13.49010207       0.67108281       7.45586464       0.80589403       1.57832181       0.20505088
C       -0.03955791       2.82706682       7.45323062       0.27814323      -0.56675933      -0.09236354
C        2.42011950       2.78703117       7.34410788       3.90709824       2.22670235      -0.62578825
C        4.98377658       2.84297811       7.27852213      -1.45548479       0.27224974       0.49770567
C        7.44691446       2.80581040       7.37607064      -1.07216802       1.72122321       0.21063583
C        9.87227253       2.81206874       7.55776636       0.84962670       2.59323933       0.44877012
C       12.32299531       2.86426579       7.56396705      -2.37350180       0.28907530       0.40681357
C       -1.20178449       4.97235357       7.57233499      -2.36103889      -0.06048392      -0.03212593
C        1.18686577       4.96281087       7.30969096       1.42554609      -2.19069328       0.27814554
C        3.69399355       5.00509617       7.40607236      -0.46969093      -3.97037104      -0.77709510
C        6.16656876       4.95184763       7.30226712      -2.54903873       0.75455193       0.99571806
C        8.55534907       4.97532874       7.42934300       2.02055361      -2.18721098       0.34783709
C       11.03256040       4.97636343       7.56744665       0.73261913      -1.42221317       0.93680740
C       -2.43873629       7.09299193       7.56064330      -2.77833073       1.28737681       0.69166815
C       -0.06268965       7.15136775       7.46243630       1.60474992      -0.59122697       0.06255751
C        2.46569052       7.03220903       7.42324128      -2.33060809       1.59093796      -0.00266778
C        4.91045052       7.03904343       7.46549912      -1.31113843       1.22071427       0.08186958
C        7.33445228       7.11167775       7.55063370       2.52005108      -0.48113311      -0.85302904
C        9.82398963       7.08088596       7.53435908       1.18364719       0.41272968       0.13394702
C       -3.69415910       9.22517653       7.71341910      -0.34526162      -2.04543881      -0.55299698
C       -1.21158203       9.31029100       7.59394931      -2.94380282      -0.24733010       0.06859292
C        1.23687718       9.22612398       7.49404197      -0.69622851       1.44253774      -0.11883485
C        3.70231049       9.26510007       7.50206093      -2.03299235      -4.60883869      -0.42302103
C        6.12476446       9.21590839       7.55962955      -0.54895315      -1.96322598      -0.35973204
C        8.63079846       9.29161434       7.66250469      -0.37449326      -1.02691763      -0.17381403
C       -4.93881403      11.45852058       7.65719667       1.95750219      -2.91538622       0.25062805
C       -2.49219251      11.34256802       7.56668764      -1.95578804       0.62786082      -0.05179847
C       -0.02080990      11.40340928       7.53819116      -0.38766579       0.23275297      -0.16354119
C        2.47115746      11.39748505       7.58610698      -0.80272900      -1.15321279      -0.11542248
C        4.94627057      11.33619411       7.50672185      -1.62661099       0.51877097       0.74781538
C        7.42075160      11.34223436       7.56373168      -4.59269164       1.66181145       0.34793068
72
Lattice="14.76 0.0 0.0 -7.38 12.782534959858314 0.0 0.0 0.0 15.0" Properties=species:S:1:pos:R:3:REF_forces:R:3 REF_energy=-11163.911859635044 config_type=fd_force_conv_snapshot_028 split=train degauss_Ry=0.0038001738 kgrid=8 lattice_temperature_K=600.0 pbc="T T T"
C        0.01491754      -0.04170755       7.37384723       1.19658241       0.93484514      -1.11580272
C        2.48698196      -0.04683140       7.27264595       1.36815007       0.92238892       0.06938482
C        4.94886090       0.02255513       7.40603924       0.00112666      -0.86129231      -0.64760458
C        7.33373760      -0.03642807       7.36344804       3.65397031       1.39768099       0.98783506
C        9.83451529      -0.01773217       7.44220195       2.73466492       0.91446375       1.13246578
C       12.36338966       0.07892261       7.49374964      -3.13832863      -1.70951029       0.16222787
C       -1.23054641       2.11072591       7.25742972       0.28456636       1.05865970       0.10406926
C        1.22990507       2.13586786       7.19550200       0.43206334      -0.85092048       0.45124043
C        3.68488659       2.15914781       7.38575941       1.50677033      -0.92372358      -1.61210045
C        6.16909425       2.14943783       7.42281173      -1.30717970      -0.72344929      -0.51716660
C        8.57943833       2.14897076       7.49962912       2.34147794      -1.35179888       0.07889044
C       11.10276490       2.25841721       7.43021951      -2.07758402      -5.51190242      -0.51450705
C       -2.44050206       4.22354314       7.41505457      -1.64391297       3.57825801       0.09248258
C       -0.09380214       4.27541161       7.34676364       3.43477991      -0.26010539      -0.29057914
C        2.41360037       4.28337108       7.28831140       1.16077029      -0.48574052      -0.58943260
C        4.91567113       4.24693634       7.27077394      -1.45804355      -0.55606919       0.12478438
C        7.32091596       4.25001034       7.52477148       0.99774461       2.30079512      -0.11212967
C        9.77729418       4.23672572       7.64021983       0.27085878       1.91221992      -1.21057641
C       -3.80122346       6.32950867       7.75051371       1.78644953       1.57374165       0.06871093
C       -1.33903017       6.45802482       7.70789905       1.55512532      -2.62135666      -1.08307078
C        1.17603272       6.38550327       7.52559759       0.54948203       0.30243809       0.21539340
C        3.73478724       6.34640755       7.39896499      -3.98297150       0.77566069       0.13086247
C        6.08771185       6.35983138       7.44713452       0.01471442       1.48989823       1.25373058
C        8.51533214       6.45919859       7.77834868       1.54575493      -2.38941359      -0.96690474
C       -4.85789698       8.56594424       7.67712347      -2.07108762      -3.15465513       1.43445625
C       -2.42856495       8.54988097       7.86966683      -0.87754939      -1.06284365      -0.22490494
C        0.03003639       8.44547588       7.85385464      -0.12454527       6.33433250      -1.27154138
C        2.47608271       8.55726514       7.63988602      -0.80262462      -3.85498790      -0.47163314
C        4.89474890       8.56178190       7.55330358       0.51472251      -3.19083544      -0.57073502
C        7.37970601       8.51676880       7.69171822      -1.93230924      -1.38778867      -0.56628650
C       -6.07926828      10.58246142       7.39458233      -1.68552499      -0.00156349       1.27412791
C       -3.61440093      10.62443297       7.60880255      -2.16094947       1.96091945      -0.74069883
C       -1.22522546      10.65072867       7.54029158       1.88905840      -0.23844359       0.55292653
C        1.33279173      10.62494032       7.47753362      -3.54376897       0.85425828       0.75646406
C        3.82328701      10.69383897       7.63736840      -4.04911775      -1.95841596      -0.40769751
C        6.24039369      10.63647299       7.56791449      -2.56170295       0.45022716      -0.77880669
C        1.26838931       0.65553534       7.20861303      -1.28831680       1.61310292       0.62879773
C        3.76025889       0.74139865       7.29591344      -3.19957282      -1.43202784       0.85029621
C        6.16365135       0.72065419       7.36057841      -0.18688809       0.22281848       0.53607321
C        8.65237585       0.69860263       7.52266216      -3.62776922       0.42951487      -1.62392161
C       11.08403126       0.77448986       7.43975460       0.22702969      -0.28328080       0.19340609
C       13.55292409       0.73155822       7.36561935       1.67601191      -1.07049397       0.03010350
C       -0.03759030       2.83411494       7.27597641       1.23220119       0.61722777      -0.63423253
C        2.48376030       2.85141389       7.24090959      -2.68920421       0.23691456       0.40958985
C        4.92917409       2.84636323       7.33349028       0.08569384      -0.51250314       0.53313495
C        7.36181557       2.87033522       7.48191294       0.53315269      -1.28450180       0.00336326
C        9.84460007       2.85624179       7.48520281      -2.03737377       0.11075130       0.57774899
C       12.31952025       2.84916121       7.28390984       1.04725711       0.56947852       0.67363674
C       -1.24802410       5.02170451       7.39766557      -2.59645501       0.05977661       1.29787719
C        1.17836455       4.98293240       7.37505881      -0.45541153      -0.69067930      -0.06032811
C        3.68729990       4.94219831       7.20918065      -0.70896936       0.69525818       1.18610697
C        6.07704901       4.95360488       7.44265185       2.18057316       0.40109569      -0.48443749
C        8.55884881       5.00095557       7.59007692      -0.69287579      -0.06581201       1.35882571
C       11.01004634       4.93364952       7.59776045       1.33639000      -0.58684453       0.20652463
C       -2.57388357       7.08907875       7.83375589       1.53668820       1.05463181      -0.20121042
C       -0.07655842       7.12529445       7.69137511       1.09885915      -2.94214857       0.30280756
C        2.44874319       7.04020892       7.57506305       0.33047109       1.92344227      -0.50723469
C        4.88085947       7.10443052       7.47609404       1.49813630       0.45066605      -0.34534801
C        7.26720426       7.09902083       7.71220780       1.84572785       0.12332913      -0.53396928
C        9.80393288       7.12543511       7.77921145      -1.06878136      -0.17773342      -0.06144499
C       -3.64941473       9.24882153       7.73255729       1.02420486      -0.04096539       0.02182250
C       -1.17765799       9.26737147       7.82893068      -1.03104065      -2.39627072      -0.24734295
C        1.26747996       9.23765055       7.63069184      -0.96731971      -1.59627197       0.84165011
C        3.67319375       9.20862307       7.55363809       2.73615821       3.63177655       0.82167289
C        6.13960113       9.20113843       7.50895996       1.27690727       2.25965335       1.37744075
C        8.62294673       9.15245493       7.70134891       1.04553010       3.35283191      -1.71019729
C       -4.89328556      11.31292933       7.42599394       1.84883863       0.24076299      -0.24302813
C       -2.42773316      11.35695088       7.49673970      -0.27049728       0.91034407       0.21728907
C        0.00766902      11.35523976       7.42150551       1.34057293      -0.93176110       0.02946818
C        2.53149527      11.32101591       7.56773779       0.85188515       2.04451784      -0.87023949
C        4.98704558      11.42410055       7.63890697       2.23974761      -0.62802743      -0.69575363
C        7.44544813      11.32063250       7.36865725       0.00680571       0.02545521       0.92317824
72
Lattice="14.76 0.0 0.0 -7.38 12.782534959858314 0.0 0.0 0.0 15.0" Properties=species:S:1:pos:R:3:REF_forces:R:3 REF_energy=-11164.023942100675 config_type=fd_force_conv_snapshot_033 split=validation degauss_Ry=0.0038001738 kgrid=8 lattice_temperature_K=600.0 pbc="T T T"
C        0.09908189      -0.00838768       7.33521519      -1.55531455       1.03949161      -0.60155535
C        2.52405614       0.05764960       7.27946178       0.90502266      -2.27077363       1.34548991
C        5.01952578       0.02188914       7.53942763      -2.19819961      -1.52432993       0.39867783
C        7.45219017       0.01584060       7.52560121      -0.44162656      -0.01498902      -0.37434079
C        9.88768839       0.02844207       7.52863774       0.73961793       0.84950971      -1.21130763
C       12.30774894      -0.04717046       7.26753297       0.66488419       2.75889756       1.39175974
C       -1.26208882       2.08890307       7.38235076      -0.10322876       2.10203187      -1.00692936
C        1.21966885       2.18879896       7.21456799       1.33867751      -2.64353834       0.97441622
C        3.72136570       2.06495042       7.38302113      -0.69580196       3.91953107       1.20608135
C        6.13581015       2.16743470       7.41892626       0.25400982      -0.59212249       0.90583281
C        8.62784730       2.11529812       7.44485953      -1.21416002       2.16319636      -0.12237963
C       11.10126831       2.14014434       7.26690206      -3.61010138       1.34779233       1.07167256
C       -2.52346882       4.27458586       7.46542103      -1.59354814       0.37298197      -0.16679209
C       -0.05486961       4.15181843       7.40558033       0.16120971       5.33396768       0.45493742
C        2.42092446       4.21345414       7.51656079       1.22885413       1.08395935       0.24905479
C        4.85552231       4.25253862       7.53562210       0.50805873       1.04181177      -0.05773592
C        7.35232813       4.22469757       7.42773822      -2.31621968      -0.37445289       1.10031928
C        9.74814035       4.30894014       7.50474076       1.17519906      -3.34640441       0.22997412
C       -3.72413662       6.40192388       7.43819789       0.18406733      -0.04120913       1.12901254
C       -1.20938136       6.37614398       7.49854587      -2.05534655       0.29423242       0.49264599
C        1.17819875       6.38666954       7.64844596      -0.81362405      -2.00173005       0.92964868
C        3.58923354       6.43208305       7.80882241       1.59885696      -2.03411207      -1.50653507
C        6.08826093       6.33596528       7.45147337       1.64275700       2.23372378       1.39484018
C        8.57347316       6.36027584       7.65583612      -0.17563771      -0.33172244      -0.49535208
C       -4.98807049       8.46642902       7.52974457       4.35113419       1.09051078      -0.18863001
C       -2.40897998       8.52411493       7.56225375      -2.43902379      -0.44634557      -0.46485931
C        0.02204492       8.55635026       7.67080727       1.16328174       1.00554533       0.87424321
C        2.44950864       8.54314862       7.72725768       1.34504819      -1.74987430       1.07631006
C        4.91694599       8.48040857       7.62500468       0.55858450       2.24571103       0.21797890
C        7.42554726       8.59683649       7.51561864      -1.03664283      -3.02217056       0.14145901
C       -6.11600233      10.64714856       7.33955783       2.25197912       2.30758874      -0.18662661
C       -3.69090745      10.61583603       7.51153923       0.46203701      -0.24082701      -0.61739952
C       -1.20346531      10.69069761       7.55664031      -0.40807521      -2.59961232       0.29423370
C        1.33786693      10.70328501       7.69247529      -4.43847893      -1.61322428      -0.81720020
C        3.65822375      10.65302048       7.57950868       3.53130092      -0.83018710       0.37855226
C        6.19833607      10.68607279       7.47916560      -1.74420245      -1.42628940       0.06613623
C        1.31428282       0.74594381       7.26497323      -2.19829937       0.20375787      -0.43806044
C        3.74884726       0.72543625       7.54641620       0.86614578      -2.42717589      -2.06505632
C        6.23030045       0.76075024       7.53682325      -1.10164006      -1.82473120      -0.63841751
C        8.68444886       0.75274317       7.45783721      -1.23247527      -3.20169758       0.78870389
C       11.10559048       0.75929122       7.34896311       0.08749233      -2.94586484      -0.27951311
C       13.56285176       0.69447649       7.33223567      -0.01677748      -1.33229655      -0.39283525
C       -0.03529092       2.83700051       7.28001321      -0.14924380      -4.04540637       0.39946638
C        2.48317209       2.79815750       7.38339965      -0.94371519       0.94842802      -0.75303883
C        4.89309477       2.86051652       7.45728346       0.19740724      -1.34722746      -0.33236676
C        7.35266066       2.82105226       7.46675977       1.42413121       0.41900368      -0.73969558
C        9.80428654       2.84316071       7.39470239       1.72056989       1.10301920      -0.09117363
C       12.23230342       2.89266710       7.36692491       3.31642020      -2.48080756      -0.05677099
C       -1.28767833       4.89015885       7.45896772       1.78978065       3.32969764       0.16545152
C        1.18331401       4.88819160       7.53046818      -0.60558864       1.87570563      -0.10698206
C        3.64182427       4.99109428       7.64679151      -1.02721845      -0.20595616       0.09985445
C        6.10399981       4.93322120       7.50075140       0.03687502       0.19784279      -0.56100957
C        8.50911885       4.91065591       7.60959591       1.94048123       3.29915113      -0.68557489
C       10.96227740       4.99613587       7.53955097       2.53155882      -0.08394472      -1.04911962
C       -2.49166654       7.12145560       7.42967496       2.67396400      -1.82494331       0.74864893
C       -0.00352259       7.16152425       7.72588668      -1.21484573      -2.87942471      -1.88229408
C        2.33646562       7.09524806       7.81374593       3.44410401       1.05202959      -0.66258100
C        4.87368713       7.08800089       7.60203600      -0.48219394      -0.79979023       0.55930750
C        7.39432245       7.10715737       7.55602326      -1.92862253       0.46071598      -0.34230125
C        9.81987065       7.06456611       7.59549244      -1.70687311       0.25513725      -0.39353511
C       -3.69926502       9.15974728       7.52126521      -0.02564598       1.68557667       0.23920335
C       -1.20156759       9.23778759       7.62270190       0.40713856       1.21230625      -0.30877843
C        1.32774175       9.28080213       7.75581122      -4.18540011       0.60140905      -0.69073072
C        3.69031885       9.22966851       7.71979658       0.41826629      -0.24993848      -0.76311216
C        6.16824837       9.22794426       7.56202592      -0.14760652       1.15655034      -0.44534618
C        8.67402046       9.28505634       7.44809069      -2.84498298      -2.20000556       0.35639089
C       -4.85654297      11.38668849       7.31554059      -1.67386246      -0.15327734       0.57527919
C       -2.45661835      11.31936054       7.54353208       1.33584801       2.77104114      -0.03492664
C        0.02353208      11.34743144       7.52835711       2.20260957       2.27336067       1.07117763
C        2.50280924      11.38542643       7.57689706       0.11096547       1.86541479       0.43348774
C        4.91667600      11.36947828       7.47890890       0.67745406      -1.46013566      -0.52378308
C        7.44265525      11.35688731       7.34868709      -0.92157053       0.66590698       0.29439877
72
Lattice="14.76 0.0 0.0 -7.38 12.782534959858314 0.0 0.0 0.0 15.0" Properties=species:S:1:pos:R:3:REF_forces:R:3 REF_energy=-11163.841756035246 config_type=fd_force_conv_snapshot_037 split=train degauss_Ry=0.0038001738 kgrid=8 lattice_temperature_K=600.0 pbc="T T T"
C       -0.00926595      -0.05304572       7.60853519       0.73007014      -0.16657843      -0.34852923
C        2.50403064       0.00437865       7.35414417      -2.23209421      -0.83988967       1.82569253
C        4.92586882       0.04600108       7.38170673      -1.49562434       1.68770760       1.04574196
C        7.30168840      -0.04036343       7.60181189       1.89423994       2.57665726      -0.97373796
C        9.77892456       0.00737706       7.54325592      -1.07982065      -0.26294441       0.44409971
C       12.18830375      -0.00281823       7.41038618       5.00442193      -0.42352523       0.79293027
C       -1.20242466       2.10519690       7.48563608       1.15872832      -1.08384622       0.28947948
C        1.26224609       2.07443241       7.56923318      -1.52091551       0.44804224      -0.18042511
C        3.64434107       2.13277451       7.55881918       1.81684768       0.71107226       0.79896954
C        6.12389919       2.20971736       7.54627111       2.42860003      -2.99457696       0.77182049
C        8.62733503       2.15831004       7.55778467      -2.28712070      -1.30682206       0.05056280
C       11.00763224       2.09022819       7.32706972       3.10692003       2.11544197       0.37305524
C       -2.50393871       4.28631408       7.49594689       2.77338856      -2.39650752      -0.19781913
C        0.07654317       4.28122219       7.51600877      -3.41125714      -0.77439776       0.61896249
C        2.49015939       4.25534638       7.62855441      -0.17791031       0.32529083       0.07076139
C        4.95218447       4.26824940       7.67437297      -1.12267142      -0.72845909       0.70240841
C        7.37523671       4.29875154       7.57046412       0.89142563       0.40327882       0.36820486
C        9.75618160       4.22402410       7.35545048       3.05183080       4.02972752       0.74617039
C       -3.77193986       6.35427748       7.32247679       2.21147216       1.24582469       0.35070207
C       -1.31519749       6.38052893       7.51018599       2.44342758       1.02176360       0.77879383
C        1.22434501       6.36760954       7.50003345      -0.53652418       1.60329545       1.21065715
C        3.72366563       6.39286119       7.64902485       0.50049994      -1.26896925       0.21540779
C        6.14941468       6.47048437       7.47834186       3.73759338      -4.57552027       0.18700327
C        8.60633800       6.37970658       7.27801311      -2.28418090       1.24862283       1.22582254
C       -4.89540441       8.46564187       7.26293797      -1.31211442       2.20430316      -0.31816193
C       -2.41675387       8.50960728       7.41344717      -1.35404140      -0.29011300      -0.13843462
C        0.02689039       8.55141720       7.63619184      -1.69912818      -3.08246498      -0.91558115
C        2.50786827       8.48792471       7.53902344      -1.16732686      -0.03735376       1.01507024
C        4.88915340       8.54148216       7.52303311       2.14196933      -0.20219618      -0.62640198
C        7.37001962       8.55156782       7.40758978       2.02972062      -0.17320468      -0.72551003
C       -6.10989562      10.63330667       7.43595517       1.48195044       1.46288956      -0.63541884
C       -3.65645617      10.66412784       7.40699337      -0.01696414      -0.88263169      -0.72894811
C       -1.21154792      10.69152830       7.41893926      -0.90074228      -0.68279861       0.24960835
C        1.26127203      10.59194122       7.63510612      -0.20757519       2.20216220       0.23914499
C        3.69141709      10.70043848       7.60275180       1.04575970      -0.64142596       0.33635249
C        6.14352616      10.67371140       7.53997668       3.10623149      -1.27714176      -0.26077697
C        1.22985278       0.62986511       7.57226817       0.82870229       2.43032266      -0.85843272
C        3.66930731       0.75363530       7.49580329       1.17322394      -1.22752178      -1.43532631
C        6.12699875       0.72510937       7.48771721       0.29968804       1.70078680       0.21120147
C        8.50999806       0.70768405       7.57575376       2.72482531       0.58029953       0.19242702
C       10.99724271       0.68675451       7.33562631      -1.19356394       1.16084228       0.72135744
C       13.50364238       0.60641082       7.53439147      -0.77817831       3.73429363      -0.60165305
C        0.06384524       2.85149635       7.53506180      -1.45317799      -1.14981173       0.09456646
C        2.43819058       2.82767532       7.56891028       0.92080794       0.58527513       0.33511296
C        4.90194154       2.82665696       7.68017445      -0.35471042       1.72925868      -1.06300203
C        7.42558474       2.90021316       7.62361247      -2.39125629      -1.02679807      -0.59638332
C        9.82022401       2.88074668       7.44054584       0.35165364      -3.76871761      -0.33079119
C       12.36327050       2.79375198       7.41203831      -4.20360660       1.49486535      -0.06128327
C       -1.24826725       5.00317454       7.63229447       0.30676038      -2.48762458      -1.75621155
C        1.27025306       4.98392743       7.50013543       0.47641359      -0.96845589       0.46631584
C        3.72862758       4.97076250       7.78901448      -0.67665984       0.11296630      -1.71037907
C        6.14924096       4.96566001       7.57153140       0.29683823       2.29384388      -0.04288394
C        8.61230811       5.02664692       7.51532536      -1.32517794      -2.82344717      -1.47345808
C       11.04644578       4.95924693       7.34438768      -1.83997810      -0.83804850       0.20027351
C       -2.51259437       7.09604223       7.43810324      -0.51797701      -0.56085839      -0.35114507
C       -0.04586069       7.08357361       7.56976278       1.04311275       0.97382435      -0.31467192
C        2.47235969       7.04120183       7.63287339       0.70006691       2.29662016      -1.12511474
C        4.99815864       7.09434332       7.50385670      -6.34689594       3.16450837       0.84049054
C        7.39472498       7.13854740       7.39151897      -0.43407420      -0.29034131      -0.34608977
C        9.77504542       7.06155467       7.26281586       2.63865273       1.12700399      -0.34884265
C       -3.66609890       9.16731295       7.31297601       0.45396477       2.65474038       0.60325331
C       -1.20868042       9.24068503       7.49274836       0.16312955       1.06435161       0.16265750
C        1.26809669       9.16508981       7.63260956       0.53547980       2.00625005      -0.35467031
C        3.68320558       9.29304870       7.52791686       0.24245966      -2.06650900       0.42256723
C        6.14940580       9.21762531       7.48587604      -1.50832481       1.97237962       0.35430290
C        8.64085422       9.27677669       7.26677664      -0.35261497      -3.51179473       1.15510795
C       -4.87388307      11.36454686       7.37483552       0.11315399      -0.40757564       0.06269507
C       -2.44826494      11.46728599       7.42507425       0.35947853      -4.82267296      -0.61986006
C        0.01935728      11.36573159       7.46802735       0.20901655      -2.26577823       1.21002491
C        2.47458626      11.38709719       7.77549489      -1.42970819      -0.93008808      -2.21334907
C        4.96492755      11.38935778       7.52746799      -3.48416026      -0.65111928      -0.01145966
C        7.47029793      11.33762336       7.55119325      -4.29644991      -0.47998357      -0.07502325
72
Lattice="14.76 0.0 0.0 -7.38 12.782534959858314 0.0 0.0 0.0 15.0" Properties=species:S:1:pos:R:3:REF_forces:R:3 REF_energy=-11163.451191178681 config_type=fd_force_conv_snapshot_041 split=train degauss_Ry=0.0038001738 kgrid=8 lattice_temperature_K=600.0 pbc="T T T"
C       -0.01584667       0.08408653       7.55702474      -0.17447377      -0.79749527       0.41285103
C        2.43134736       0.01464790       7.58247539       0.90936216      -0.36576848       0.99506372
C        4.96262698      -0.04973644       7.71203896      -3.80386845      -0.66250618      -0.80757990
C        7.38688900      -0.04162930       7.40049030      -2.17201576      -0.78145570       1.09828194
C        9.76603055      -0.07637312       7.60189727       3.22872939       0.72880824       0.59153190
C       12.28351879       0.00865690       7.59177507      -0.59360781      -0.15441660       1.44023198
C       -1.25424176       2.13645006       7.83512677       1.10786213       0.17697932      -0.52154468
C        1.22565015       2.14706595       7.81631153       0.78667503       0.76943939      -0.10925234
C        3.67684252       2.16127777       7.78771282       0.09865117      -3.48249393      -0.29208246
C        6.16671468       2.11254727       7.68049427      -1.42627088       0.33205540      -0.12994921
C        8.59535667       2.10061894       7.79963800      -0.37450586       0.59794758      -1.01570788
C       10.98363070       2.16539161       7.84818661       2.42821513      -2.11398699      -0.59606990
C       -2.39268310       4.21685170       7.54923422      -1.21570114       1.32814010       0.23530402
C        0.02494724       4.27646259       7.60121585       2.88413369      -1.03313713      -0.27172704
C        2.55192256       4.29567782       7.60067894      -3.87236778      -2.92688650       0.71923937
C        4.92772665       4.20557199       7.37972076       0.67597619       0.87670710       2.53355528
C        7.44833384       4.26567277       7.49905189      -0.58285546       1.10238311       1.03108950
C        9.88274038       4.30432952       7.63331208      -1.62762400       0.46417514      -0.09510253
C       -3.63398869       6.38781947       7.19050393      -1.46850897      -1.51759133       2.24842586
C       -1.24689294       6.39605116       7.31920911       2.43149200      -2.13998881       0.20744972
C        1.28848770       6.41260498       7.33161404      -0.25298318      -2.15634231       0.49114755
C        3.76892058       6.40415100       7.46475652      -2.21449604       0.94372342      -0.49632370
C        6.20566183       6.36053244       7.40930432      -0.59656201       1.76806794       1.01407420
C        8.71478389       6.47898438       7.54758618      -0.45257149      -1.05712038      -1.11206357
C       -4.89107943       8.60459459       7.28583463      -2.32872347      -3.46232208       0.10490075
C       -2.47110996       8.47933105       7.30529196      -0.06734233       1.49890455      -1.14564475
C        0.03264464       8.47680792       7.17971432      -3.57303275      -0.76015359      -0.11674480
C        2.41911963       8.57914139       7.21438485       1.16285391      -1.52448368       1.24131318
C        4.85361207       8.59035536       7.42614339       2.38588835      -0.87476951       0.02734445
C        7.37269247       8.47616274       7.55997283       0.44010678       4.11273173      -2.39691118
C       -6.17573111      10.70554599       7.27331495      -4.92602051      -1.91499877       0.55976901
C       -3.78000226      10.59333627       7.42472517       0.26337764       4.59540159       0.82096095
C       -1.30350627      10.57627341       7.28081942       0.15730858       1.28076496      -0.15575666
C        1.19184295      10.62611304       7.21345143      -1.07020858      -0.31469249       0.04432993
C        3.67913356      10.62971876       7.43538846      -0.48064665       3.12509593       0.71864467
C        6.15107156      10.64656168       7.50026370       0.35089259       1.93177393      -1.26289502
C        1.24720201       0.75579243       7.71913317      -1.35573396      -0.85167818      -0.85907267
C        3.70623085       0.68808144       7.70767313      -0.43782570       0.24695574       0.56950475
C        6.12800302       0.67348469       7.62929082       3.10589390       0.42120892      -0.30588954
C        8.59282625       0.63847060       7.65611782      -0.93157701       1.76471316      -0.45305100
C       11.04332822       0.68980589       7.77396493      -1.86077832       0.28265937      -0.89845477
C       13.48423284       0.74081203       7.71594486       1.35393135      -0.32815864      -0.37851909
C        0.02036635       2.85748071       7.76345421      -1.83598157      -0.00996380       0.29120726
C        2.46332421       2.83090108       7.79811640       0.41538460       2.25840688      -0.75750073
C        4.89362743       2.81742212       7.67577055       2.30394857       0.55279104      -0.94171307
C        7.39578179       2.86198960       7.66242712       0.19104402      -1.81616891      -0.08051101
C        9.78049229       2.89024110       7.76348917       1.00669333      -1.31240984       0.51495751
C       12.28664295       2.81050283       7.78520338      -1.01278350       1.65731947      -0.12061405
C       -1.14538494       4.95701964       7.42051236      -3.75940097       0.56032668       0.51461247
C        1.30459942       4.94637503       7.49639632      -0.55863001       2.18760616       0.15401062
C        3.72402287       4.96138943       7.52636599       2.71614398       1.78076585      -1.04983696
C        6.18125872       4.91396546       7.46287988      -0.15815524       1.72834697      -1.23278175
C        8.65928721       5.07466434       7.56903503       0.45863133      -2.61900256      -0.03510276
C       11.11052414       4.97051103       7.49634906       1.37362678      -0.29365161      -0.90638714
C       -2.45576601       7.07501386       7.29789913       0.93850408       1.11087932      -0.83496447
C        0.01223204       7.03439834       7.31202147       0.65338108       2.64327274      -0.81979881
C        2.51281540       7.15783458       7.32031005      -0.59143780      -1.27477866       0.08821198
C        4.92866693       7.18918775       7.46143159       1.86612519      -3.41455098      -0.52092581
C        7.45918418       7.12203906       7.49737632      -1.88739541      -2.32698926       0.37327019
C        9.94998702       7.13849866       7.33239823      -2.16015834       1.05293077       0.01230221
C       -3.71035859       9.26083017       7.28133983       2.04368094      -2.16538720       0.04140659
C       -1.25498572       9.18338405       7.13518217       0.42365789      -1.05802412       1.47754640
C        1.16671813       9.22542753       7.19178290       2.43448554      -0.19819760      -0.43243204
C        3.63704787       9.28234864       7.40787509       0.10209362      -1.93641529      -1.01030496
C        6.13239790       9.23669648       7.39573408       0.22007229      -0.36059053       1.55429717
C        8.59955270       9.25058033       7.33633873      -0.54740303      -0.01974247       0.56349711
C       -5.06645736      11.35779418       7.48665279       6.92859594       1.76706290      -0.59098092
C       -2.54801819      11.28364304       7.55411005       2.10422451       1.07113752      -0.91838597
C       -0.05602652      11.28584936       7.20037097       0.08835982       2.56007596       1.08555935
C        2.39951651      11.29431695       7.42009361       1.35337085       1.60566575      -0.25586282
C        4.92840491      11.35486152       7.56637858      -1.33935757       0.00205791      -0.76859735
C        7.34156220      11.47785184       7.34190825       0.31763100      -2.86096368       0.92115067
72
Lattice="14.76 0.0 0.0 -7.38 12.782534959858314 0.0 0.0 0.0 15.0" Properties=species:S:1:pos:R:3:REF_forces:R:3 REF_energy=-11163.480764102495 config_type=fd_force_conv_snapshot_045 split=train degauss_Ry=0.0038001738 kgrid=8 lattice_temperature_K=600.0 pbc="T T T"
C       -0.07152283       0.05835702       7.85205977       1.58839462      -1.26625519       0.09069232
C        2.44132531      -0.00341354       7.53060312      -0.79312773       3.44344093       1.06181598
C        4.82750338       0.06702873       7.43269331       1.64178847      -2.35473943      -0.69400785
C        7.36853318       0.03100827       7.47272760      -0.62499713      -0.59958177       0.22024610
C        9.85989908      -0.03894657       7.51298811      -0.81211610       0.11294830       0.90171519
C       12.24461681      -0.03808484       7.73004438       1.38821007       0.33107324      -0.41263378
C       -1.25303248       2.15297253       7.87078466      -0.83611581      -0.79803365      -0.16074048
C        1.26169590       2.12987223       7.68486917      -2.84426873       0.29375856       0.73457754
C        3.72957307       2.19214663       7.56532974      -4.51007079      -0.20712730       0.39611727
C        6.15338678       2.07809954       7.72475900      -1.09639655       2.66451468      -0.20140222
C        8.63826231       2.08424660       7.72427269       0.95796038      -0.46509251       0.09614049
C       11.06756717       2.13663070       7.69446344       1.28896575      -1.14506162       0.41261295
C       -2.40193317       4.27770258       7.70566095      -3.30697114       0.28746142       0.49183815
C       -0.04821840       4.27623684       7.52888004       1.91465424      -0.68238801       0.70705671
C        2.44161408       4.26789484       7.48969329       0.58984449      -0.04349098       0.25269085
C        4.94500447       4.25262873       7.61761452       1.22167072       1.44083644       0.15423611
C        7.44802485       4.20560478       7.64562099      -1.88691281      -0.47422404       0.73331616
C        9.85788077       4.30899100       7.77204156       3.37683470      -4.89547504      -0.11593181
C       -3.67946420       6.38835660       7.57202192      -1.32681959       0.26741581      -0.24553752
C       -1.23774878       6.50841188       7.54558624       0.45788365      -3.72657055      -1.64122874
C        1.26947314       6.36558942       7.27355725      -1.93511431       0.65255627      -0.09452121
C        3.76299995       6.31575029       7.17877997      -1.12531066       1.31189305       2.43968662
C        6.24803931       6.38216898       7.38300990      -2.64636629       0.22471930      -0.04920217
C        8.66794015       6.32288832       7.64015942      -1.97613729       1.71530145      -1.32692372
C       -4.95608135       8.47488245       7.36333305       1.89473719       3.86494835       0.27634577
C       -2.41171833       8.48630016       7.19817625      -2.78635772       2.67493099       1.15789014
C        0.02073090       8.47983646       7.22529913       0.86360450       5.11788754      -0.50426018
C        2.44502278       8.47934192       7.20511268       2.02547573       0.98459521      -0.02640214
C        4.96613588       8.57618000       7.09812688      -2.08149441      -2.47119292       0.03540358
C        7.39574963       8.48534070       7.30869185       0.19858224       1.12695437      -0.54563360
C       -6.24714866      10.68430219       7.62411277       2.18341371       0.53282051      -1.58483699
C       -3.74512086      10.64043324       7.39575636       1.68373781       1.30430624      -1.45638673
C       -1.24145228      10.67613613       7.24922367      -0.37601792      -0.62557305      -0.31093636
C        1.19290269      10.66851239       7.28063462       2.01894693      -0.02879018       1.59717237
C        3.67640713      10.64310926       7.39527705      -0.25216171      -0.74478637      -0.22186769
C        6.12973277      10.62810749       7.43630050      -0.58356971       1.96986277       0.32111767
C        1.24373602       0.74137969       7.80173651      -1.66516056      -2.07370191      -1.03945150
C        3.62548724       0.79945664       7.52975410       1.58847741      -2.11108087      -0.53493241
C        6.08439860       0.73703053       7.51841134       1.16337790      -2.31790555       0.17236598
C        8.63199983       0.66781663       7.57572457      -0.52116878       0.83430061      -0.08628417
C       11.06134573       0.70078857       7.61031286      -0.15251835      -0.29834284       0.52080163
C       13.46031561       0.70870912       7.85981780       0.18756120       1.12366438       0.07921312
C       -0.00667071       2.81763316       7.78598583      -0.25280783       2.10929781      -1.16395794
C        2.39729594       2.87202427       7.54825671       4.28876488       0.08968471       0.22705386
C        4.91155694       2.86333421       7.67936244       2.81832219      -0.74221526      -0.03050691
C        7.40261528       2.73009985       7.80047412      -0.05238186       3.36869690      -0.96539370
C        9.89064288       2.79929454       7.76252609      -3.14046521       2.87991296      -0.26503831
C       12.26623375       2.87716243       7.80943750       2.49226851      -0.92011323      -0.50088252
C       -1.25637255       5.02834487       7.60870597       2.48338201       0.79816221      -0.06660957
C        1.23433951       4.96878682       7.36402784      -1.66144121      -0.40996111       0.67141377
C        3.72079556       4.93817337       7.57103561      -0.45918514       0.70552588      -2.24627487
C        6.22314153       5.00137483       7.53975100      -0.41450477      -3.39799616       0.44381714
C        8.66967175       4.90798125       7.67533337      -2.21178070       1.85124596       0.29530405
C       11.10829642       4.97332799       7.69521688      -0.58219674       1.04529305       0.21386513
C       -2.50054413       7.10862829       7.43756507       2.02050939       0.53616911      -0.11744774
C        0.00980852       7.14944762       7.23009084       0.39302988      -4.10405092       1.69629919
C        2.48635542       7.02889196       7.25644230       1.01163731       1.56960963      -1.28449563
C        4.96593150       7.07255601       7.23293695       1.06784779       1.41479862      -0.94409545
C        7.45337986       7.05709502       7.43674825       0.09790118       1.09582062      -0.06296015
C        9.80499263       7.10846237       7.49650338       2.48666222      -2.41127568       0.49389555
C       -3.65033747       9.25717473       7.34034326      -2.20521538      -3.08477795      -0.57103507
C       -1.21380062       9.20958654       7.18148099       0.61756201       0.96454807       0.30261010
C        1.27601634       9.26046931       7.25147985      -2.72377938      -2.23412435      -0.52372317
C        3.67469042       9.25433159       7.15055486       1.09605074      -1.86006767       0.59522324
C        6.17894681       9.27500252       7.10411113       0.52852368      -2.38771486       1.79124952
C        8.59387386       9.24940080       7.36033975      -0.36423122      -0.09240519       1.22419992
C       -4.93556222      11.42448786       7.45410891      -2.40059814      -3.80673883       1.25347244
C       -2.50366258      11.35475281       7.22745672      -0.08310551       1.92295068       1.77597871
C       -0.00585354      11.40952846       7.37476051      -1.21936907      -1.10446030      -1.00287370
C        2.45074368      11.31518070       7.53003172      -0.51300913       1.47594948      -1.82725165
C        4.90193778      11.32484911       7.52650493      -0.55183793       0.63420502      -0.00569885
C        7.25768145      11.40393346       7.74439611       3.33850006      -0.85674659      -1.00606881
72
Lattice="14.76 0.0 0.0 -7.38 12.782534959858314 0.0 0.0 0.0 15.0" Properties=species:S:1:pos:R:3:REF_forces:R:3 REF_energy=-11164.147973084959 config_type=fd_force_conv_snapshot_049 split=train degauss_Ry=0.0038001738 kgrid=8 lattice_temperature_K=600.0 pbc="T T T"
C        0.03815509      -0.02209980       7.36812415      -1.68734327       1.16955600       0.20215376
C        2.44039384       0.05278955       7.41383996       1.05995836      -2.19924194      -1.52510229
C        4.89373450       0.04451481       7.44271899       2.39017720      -0.92673871      -1.05206739
C        7.40367574       0.02203924       7.39437130       1.21566051       0.19576328       1.14229974
C        9.89951403      -0.06502545       7.52395051      -1.33796455       1.90899987       0.76422365
C       12.29977004      -0.00978306       7.52596234      -0.50470524       1.59256032      -0.20301045
C       -1.17855701       2.14376897       7.52319647      -1.06364841      -0.14189121       2.12184736
C        1.28946315       2.14631039       7.32242501      -1.06933723      -0.02920670       1.47068078
C        3.69015854       2.14487214       7.30306831       3.03281595      -0.61989760      -0.15939143
C        6.13787932       2.14905540       7.37638435       5.21263758      -4.84907742      -0.26425001
C        8.60314229       2.11335654       7.64658713       0.59147560      -0.25988197      -0.63010565
C       11.07417376       2.14057419       7.73300646      -1.34935865      -0.20327064      -0.13334281
C       -2.50579863       4.32086253       7.81922417       2.20938031      -2.67563213      -1.58438447
C        0.00502867       4.27219415       7.53903922      -0.86086987       0.28014817       0.14484875
C        2.39612735       4.23950615       7.37858865       3.21987502       2.54941976       0.87702360
C        4.94058730       4.23903660       7.33100195      -1.85408060      -0.77152327       1.19658550
C        7.35066064       4.20619425       7.41993788      -0.04259958       1.06638355       0.33604190
C        9.79641194       4.25099932       7.61396871      -0.22393203       1.22867261       0.61899849
C       -3.79139085       6.34297784       7.56899915       4.01477424       1.95633286      -0.13473583
C       -1.27954107       6.39239584       7.58851589       1.09927927       1.94830716      -1.64950795
C        1.16819992       6.38971417       7.39187061       1.99460424       1.40167443      -0.98756252
C        3.62676039       6.34771622       7.46476270       1.22556980       1.82543285       0.14914892
C        6.07907915       6.36319542       7.61257067       1.80996072      -1.13109513      -0.34069688
C        8.57387697       6.36644184       7.65851734       0.81048654      -1.12764008      -1.21277599
C       -4.89851994       8.50615593       7.51529695      -1.62170455       0.60828161       0.34456279
C       -2.57516235       8.54857204       7.53670916       5.60308428      -2.23988620      -0.79635292
C        0.00277614       8.56967543       7.31782715      -1.00603204      -1.29307643       0.45288620
C        2.43920093       8.54094022       7.37146027       1.56850714      -0.49124140       0.68316242
C        4.96180905       8.46667080       7.54871924      -2.38830133       1.26879724       0.45544264
C        7.41008900       8.52168485       7.67273096      -1.08977802      -1.16522961      -0.47951614
C       -6.13431853      10.67466061       7.56044263       1.06387569      -1.45685904      -0.60562849
C       -3.60314028      10.72670848       7.61301193      -3.44616398      -2.04943610      -1.04386248
C       -1.18536294      10.66925806       7.44426881       0.49717628      -0.10096568       0.53130973
C        1.30581659      10.69416728       7.46118742      -1.37076411       0.14937929       0.05762742
C        3.76631439      10.61851032       7.59497537      -2.31144360      -0.54170907      -0.79521804
C        6.11369121      10.67280125       7.49838524       2.16595747      -1.08792348      -0.87103293
C        1.23808847       0.73226453       7.27128762      -0.53685945      -0.21015066       0.88182616
C        3.66568905       0.72247101       7.21883044       0.60702460       0.83007551       2.28130615
C        6.17967266       0.69463917       7.35934710      -2.11844708       1.68467909       0.48996613
C        8.67424090       0.67743166       7.57489139      -1.36851568       0.63987199      -0.78602429
C       11.05322153       0.70686641       7.58211188       2.16294568       0.51570904       0.40585969
C       13.52876957       0.70364975       7.52201606       1.49469925       0.08654308      -1.11447372
C        0.10018391       2.85101544       7.63592558      -2.63288291      -0.23295506      -2.48276983
C        2.50920751       2.85629902       7.40624693      -1.66776663      -0.39110387      -1.23433881
C        5.02382995       2.78730809       7.36388442      -8.32446430       3.96280659      -0.85925111
C        7.37601084       2.80077766       7.43691940       0.58527975       0.52385044       0.42225176
C        9.79239476       2.89103442       7.74536929       1.53538490      -3.14447305      -0.58073353
C       12.29269973       2.83403675       7.75349692       1.44079890       1.30124842      -0.50171376
C       -1.25084113       5.00389734       7.56287052      -0.48258964      -1.90953466       1.82115351
C        1.19524604       4.99937563       7.39416443       0.19087973      -1.72103526       0.53784033
C        3.69631342       4.97233088       7.47103009      -1.90571478      -2.91822857      -1.34522560
C        6.10897967       4.93005864       7.41089967       1.62477959       1.55842970       0.47395664
C        8.53993852       4.93966615       7.52998008       1.79293668       0.30565326       0.46949321
C       11.04203298       4.96500069       7.68866693      -1.81473706      -0.29241182       0.07523382
C       -2.50624640       7.10018843       7.55371529      -2.00651333      -0.09258080       0.30597053
C       -0.02342164       7.10848040       7.36450760      -0.96082999       1.17228523       0.85649206
C        2.44101933       7.09516782       7.33672046      -1.84674498       0.52683241       0.61433348
C        4.85094724       7.06109459       7.59243091       1.77433372       0.07011655      -0.51107026
C        7.38159566       7.01724741       7.70530297      -2.87219194       3.79226712      -0.30811432
C        9.81248701       7.08026496       7.49987888      -1.25505804       0.45885578       0.96343966
C       -3.70803734       9.25950965       7.50471677      -1.04721855       1.91135243       0.80194713
C       -1.26549478       9.22314711       7.42194985       0.35211284       1.34574959       0.22936169
C        1.24026790       9.30882190       7.34577212      -0.30979942      -2.24766764       0.11935344
C        3.72093085       9.20970736       7.57105984      -0.06186434      -0.87558327      -0.94632743
C        6.14855716       9.23278370       7.53384891       1.16773129      -0.48373918       0.88734272
C        8.63400973       9.22413524       7.61695706      -0.18332300       0.30014184      -0.17561817
C       -4.89681523      11.39429895       7.51301147       0.46659712       0.63118937       0.58694017
C       -2.39243974      11.39723962       7.55418332      -0.82704033       0.72880310      -0.43028414
C        0.06547622      11.42349912       7.46769704      -0.79303106      -2.69765826      -0.82355262
C        2.55386454      11.32142551       7.54432505      -1.01742692       0.44195181      -0.20771865
C        4.89614525      11.37318753       7.44577679       2.60800338      -0.15717642       1.08836160
C        7.40678609      11.34138721       7.40455111      -1.32771793       0.79760094       0.91448740
72
Lattice="14.76 0.0 0.0 -7.38 12.782534959858314 0.0 0.0 0.0 15.0" Properties=species:S:1:pos:R:3:REF_forces:R:3 REF_energy=-11162.677488404606 config_type=fd_force_conv_snapshot_053 split=train degauss_Ry=0.0038001738 kgrid=8 lattice_temperature_K=600.0 pbc="T T T"
C        0.16453819      -0.03249113       7.48884510      -4.34768994      -0.53836201      -0.71583703
C        2.47540825       0.04804121       7.29396783       3.29324171      -3.84335854      -0.59196256
C        4.98062006      -0.01688205       7.32325618      -0.57104355       0.44620801      -0.65375260
C        7.49068170      -0.03927865       7.31483934      -1.45910002       0.84612383       0.65339779
C        9.93318351      -0.01951633       7.40525053      -1.48244280      -0.45646877      -0.11471080
C       12.45080798       0.01476895       7.43941040      -3.41136513      -1.48056873       0.97125942
C       -1.24836370       2.11721102       7.25612606       1.58289426       1.04398230       0.24948802
C        1.25302682       2.12602974       7.21327706      -0.84332209       1.09132968       1.01888473
C        3.62584492       2.12549991       7.31794915       2.64589167       0.52494470      -0.73653698
C        6.13162584       2.09488295       7.42322040      -0.21335734       2.64848977      -0.75827052
C        8.58624241       2.17809412       7.49046404      -0.23918356      -1.66729689      -0.53147068
C       11.09539944       2.05038321       7.23490951      -3.05762324       1.86211735       1.53985091
C       -2.60298592       4.31323929       7.26218592       3.07655582      -0.74975836      -0.06246289
C       -0.03776097       4.20809573       7.29696810      -1.16572378       5.68986467       0.71701228
C        2.42656469       4.29179432       7.31962221      -2.65196847      -0.19990147       1.32198925
C        4.83091718       4.20163043       7.35865697       1.94727383       2.22596033      -0.43363172
C        7.33443039       4.31991687       7.46859174       0.43590226      -1.05742557       0.00702888
C        9.86349064       4.27479099       7.53908220      -2.74794004      -0.17395801      -0.93807830
C       -3.68742619       6.44742082       7.74384500      -3.00897154      -1.84991515      -2.00029846
C       -1.24210028       6.32455469       7.75162231      -2.02995974       3.60339851      -1.55839139
C        1.18893667       6.43030971       7.67839252      -0.16645605      -1.46995547      -0.68990360
C        3.60578775       6.37514708       7.61465329       0.48712043       2.08088223      -0.52125697
C        6.01685043       6.37530619       7.58472399       3.32173519       1.30724115       0.20513007
C        8.59143749       6.41632850       7.69584038      -0.34257224      -0.02089381       0.01534306
C       -4.94994579       8.53509182       7.52240817       1.25888641      -2.09114505       0.89545584
C       -2.47613086       8.49991484       7.75122157      -0.52375634       2.07023195      -1.05867075
C        0.01000812       8.51697576       7.88163247      -0.04723914      -1.12074361      -1.14565760
C        2.50710986       8.55985566       7.83280184      -1.70283031       0.59612544      -0.66395602
C        4.91661349       8.54855718       7.68819183       1.05600272      -0.63607704       0.36462254
C        7.37998884       8.51115073       7.75482775      -1.26932741      -0.49663737      -0.42356636
C       -6.10437319      10.58425243       7.62004506      -0.78719723       1.05179048      -2.20128751
C       -3.71840699      10.66831339       7.50190020       4.00133046      -1.57479580      -0.88049459
C       -1.20235089      10.60115613       7.48710408       1.92198009       0.16590866       0.38542096
C        1.29388849      10.61645200       7.46340858      -0.91430845      -1.23379990       1.05357508
C        3.72993346      10.67096244       7.72366476      -0.25722550       0.45324435      -1.35382208
C        6.18955580      10.74026092       7.54867943      -0.37657020      -5.52218323       1.28019443
C        1.29108175       0.68739729       7.27826585       0.01124035       2.76099893       0.33418325
C        3.73367189       0.73208110       7.16810218      -1.36757517      -1.78009145       1.79875174
C        6.17974604       0.72559324       7.37014947       1.97821834      -3.06070394      -0.29372437
C        8.71437957       0.72983194       7.37036516      -2.17751483      -0.84784775       0.19767824
C       11.14792430       0.65791317       7.39590056       1.79434719       0.73825088      -0.67669558
C       13.65888531       0.69496790       7.46702710      -0.31778784       1.00231217      -1.11842473
C        0.02071050       2.87145557       7.23107041      -1.51075322      -4.21130191      -0.40529508
C        2.43908036       2.88390765       7.37632626      -0.76946176      -1.69266391      -1.78156726
C        4.87552497       2.80815623       7.29620014      -0.03084784      -0.29563547       0.98572624
C        7.32409806       2.87389687       7.48018697       0.89678330       0.04123304      -0.08820272
C        9.79942945       2.81915528       7.44673122       3.16315006       1.40054108      -0.67102424
C       12.23121533       2.82792172       7.20414850       2.14091518       0.84675683      -0.03270597
C       -1.34664717       5.02456735       7.37005781       1.95081552      -4.43924126       0.25343904
C        1.14657691       4.99562575       7.44858727       1.96761588      -0.50356649      -0.48767476
C        3.62085580       4.95524059       7.40502636       1.05931687       1.41457185       0.37786089
C        6.07076642       4.98965557       7.36260828      -0.31150843      -1.22099375       1.35095916
C        8.62201191       5.00299562       7.56960591      -1.57517452      -0.82037885       0.41332155
C       11.00097937       5.07423460       7.39477792       0.98753064      -2.35215727       1.71092569
C       -2.53675632       7.12072700       7.70207489       5.17563992      -0.51899003       1.41288315
C       -0.02248627       7.06930406       7.73631461      -1.08733701       1.33398885       1.54017307
C        2.37812407       7.18999708       7.73483880       3.07002290      -4.12729986      -0.16631952
C        4.85761654       7.13149427       7.61116196      -1.78372904      -1.29279798       0.37267935
C        7.30268118       7.10853207       7.78834237       0.99969993      -1.84225275      -1.41437953
C        9.85522226       7.11608439       7.68691257      -2.40569510       1.08648623      -0.00489178
C       -3.73473121       9.22717003       7.52585679       2.04617517       0.83442788       0.99363341
C       -1.20404945       9.20242333       7.74755923      -1.55685799       0.36321460      -0.21368618
C        1.24385987       9.21212751       7.76650232       0.87982482       1.06135113      -0.15655704
C        3.73729389       9.27237161       7.73037134      -1.14600213      -0.30233782       0.60850838
C        6.16698999       9.20804323       7.71396927      -0.30966829       3.17382656      -0.70882486
C        8.59760903       9.18182956       7.56177443       0.07966435       1.29862127       1.04155312
C       -4.89790701      11.32589083       7.40429199      -1.52874606       2.73813308       0.85232404
C       -2.37075962      11.33765462       7.40860645      -3.50513892       0.53529699       0.13550459
C        0.08638184      11.28606584       7.38022381      -1.93223211       2.29363794      -0.20069980
C        2.48400979      11.33184781       7.47300943       1.93343178       1.00983548       0.84892504
C        4.96099996      11.37449553       7.61540174       0.65683330       1.51644616      -0.58105055
C        7.44257252      11.31224584       7.48605524       1.11316400       2.33373172       1.12806020
72
Lattice="14.76 0.0 0.0 -7.38 12.782534959858314 0.0 0.0 0.0 15.0" Properties=species:S:1:pos:R:3:REF_forces:R:3 REF_energy=-11164.593757594632 config_type=fd_force_conv_snapshot_058 split=validation degauss_Ry=0.0038001738 kgrid=8 lattice_temperature_K=600.0 pbc="T T T"
C        0.04985475       0.03225503       7.29936981      -0.11268811      -1.29256015       0.03610626
C        2.56131754       0.00318053       7.25069007      -1.90369466      -1.34933988       1.10434306
C        4.94361280       0.04080701       7.56312738      -0.21559060      -2.87924268      -1.05525813
C        7.38826203       0.00314440       7.47852539       0.65563002      -1.18093956       0.09716790
C        9.90017929       0.03557075       7.56430472      -0.92477670       1.59797687      -2.38256622
C       12.31840318       0.04418766       7.35313387       2.06130251      -0.62627856      -0.46728643
C       -1.25067440       2.10707682       7.43942557       1.75414285       0.78835397      -0.44354229
C        1.24845074       2.10767678       7.39532429       0.63116829       0.21654936      -0.69177947
C        3.73435720       2.18620618       7.33386462      -1.17904363      -1.03714908       0.63527614
C        6.17490318       2.07174509       7.23232810      -1.25695886       2.12918324       2.21594665
C        8.57328267       2.10467137       7.33528850       1.34247092       0.96343555      -0.09609395
C       11.06453161       2.21826626       7.26431520      -0.77732728      -1.60441542       0.84067900
C       -2.45517450       4.18277864       7.46298379      -0.54533895       4.66746601       0.80589789
C       -0.05404358       4.21326782       7.55110340       1.38303881       1.59575261      -0.21330309
C        2.38486020       4.28782508       7.61600993       2.41365215      -0.99185035       0.03604327
C        4.89388009       4.25759279       7.59727912       0.77070360       0.00602795      -0.04634336
C        7.29121356       4.24529774       7.34437023       2.76904982      -0.25755075       1.21536046
C        9.79585212       4.24306780       7.48907449       0.19670302       2.45215107      -0.70081690
C       -3.76698005       6.39042320       7.43255193      -0.11372041      -0.60154224       1.69729858
C       -1.26613775       6.38282277       7.60565000      -1.18266452       0.07073979      -0.14077895
C        1.17547839       6.44451480       7.78519106       1.21837405      -2.13060146      -0.22202041
C        3.64612911       6.37471505       7.79613593      -0.33686028      -1.60630081       0.63010051
C        6.06087740       6.35478699       7.58796368       1.50726783       0.91049911      -0.05110890
C        8.51641711       6.36240408       7.48034880       0.39996441       2.06410476      -0.32700833
C       -4.94629709       8.57231421       7.46034767       2.64013600      -3.14766045       1.34261464
C       -2.41087764       8.51932397       7.57157319      -3.01422971      -0.85893358       0.34683925
C       -0.00902913       8.58067261       7.67460253       1.85659745      -1.92182017      -0.07943423
C        2.47118672       8.52425653       7.79419715      -0.42809073       1.66135713       0.37857694
C        4.93513156       8.48416610       7.68994940      -0.81725034      -1.38773185      -0.15714325
C        7.38328139       8.50187096       7.58273141       1.33765833      -1.57763738      -1.24942295
C       -6.15168637      10.63160984       7.31163305       1.44665408       2.12467095       1.12198597
C       -3.67478706      10.64698587       7.46080235       0.92391049      -1.34676775       1.28669546
C       -1.17607973      10.61638147       7.52008307      -1.70392149       2.27337301       0.19111190
C        1.27533142      10.71204006       7.59793385       0.34121624      -0.59853713       0.44852715
C        3.79593686      10.67169685       7.47000974      -1.78219332      -0.11733075       0.78300324
C        6.22566275      10.59668649       7.42234330      -0.63752457       1.00523963      -0.12572900
C        1.30653051       0.67362013       7.28313872      -0.60745115       1.77502200      -0.03300114
C        3.74065863       0.73396097       7.39750323       0.02615712       1.00818354      -0.47304544
C        6.16967928       0.68680633       7.45295698       0.03309113       0.72357502      -0.62159016
C        8.60707651       0.70949119       7.41398111       1.13582287      -0.51824415       0.73771249
C       11.11733306       0.80134946       7.33287671      -1.35392698      -1.92133037       0.81586014
C       13.57736054       0.73304741       7.35256838      -1.16958017      -1.01136631      -0.03979785
C       -0.00968582       2.79737682       7.42610199       0.33948692       0.48247471       0.69474858
C        2.47902830       2.87171546       7.39155828      -1.34241718      -0.27237084       0.60813635
C        4.94729491       2.87143890       7.39836302       0.29718224      -1.61693927      -0.61599467
C        7.36942368       2.79029911       7.36146763      -1.16878930       1.55366905      -1.30016290
C        9.77144045       2.88623710       7.29148330       1.80391272      -2.14712054       0.72527812
C       12.31224709       2.83663399       7.43217682      -0.98668449      -1.51489501      -0.80013810
C       -1.26839120       4.94894360       7.54003593       0.86318952       0.12533382       0.06767272
C        1.16595931       4.98791543       7.65774569      -0.34922343       0.14234167       0.18151011
C        3.67902356       4.93148571       7.77220447      -2.15800093       1.14914273      -0.92933372
C        6.12703890       4.97286941       7.55867177      -1.55991348      -1.30180250      -0.68212421
C        8.53360609       4.98514823       7.44924839       0.60070611      -2.33461361      -0.21173729
C       11.09658527       4.93298244       7.53939903      -2.99226503       0.29458569      -1.18601441
C       -2.57398999       7.09766119       7.59347920       4.30525671      -0.04686427      -0.83693187
C       -0.02457631       7.12149970       7.66532059      -1.04822256       0.96205538       0.61095916
C        2.45652048       7.11209447       7.87410236      -1.75543560       0.23714339      -0.62306906
C        4.84400156       7.02522038       7.71687650       1.65660290       2.98598228       0.03506265
C        7.28109048       7.07519753       7.47317727       1.49648874       0.29382567       1.18459670
C        9.74579437       7.12631866       7.47805696       0.75999753      -0.98904117      -0.37271534
C       -3.65649212       9.19687754       7.65089332      -0.64637816       1.94921604      -2.48169665
C       -1.19460120       9.22486047       7.50758316      -1.20126876       0.54486535       0.77081698
C        1.20946967       9.31840131       7.77258973       2.14534365      -2.54607579      -0.90992884
C        3.73498613       9.22229382       7.70665011      -0.55061511       1.29006078      -0.82331428
C        6.17839824       9.12547186       7.55752189      -0.96872816       4.14101001       0.04071290
C        8.63768121       9.24863056       7.46868837      -3.11521775      -0.08052232      -0.22511834
C       -4.88007731      11.33828027       7.38183259      -0.75399451       1.02436812      -1.15040489
C       -2.45114029      11.35330648       7.52452253       1.39005073       0.79524144       0.11517205
C        0.04427265      11.35222195       7.56042483      -1.15643541       1.28478436      -0.25802229
C        2.50802660      11.43285197       7.51510986       2.03414266      -2.11783876       0.58395229
C        5.04687390      11.37678967       7.35040041      -3.18128636      -0.54495457       0.85248036
C        7.40493673      11.38953429       7.33671219       0.46063576      -1.81159389      -0.21446934
