18
Lattice="7.38 0.0 0.0 -3.69 6.391267479929157 0.0 0.0 -0.0 15.0" Properties=species:S:1:pos:R:3:momenta:R:3:mace_forces:R:3:forces:R:3:REF_forces:R:3 T=300.0 mace_forces_rms=1.2105231434849497 energy=-2791.6218326464295 REF_energy=-2791.6218326464295 pbc="T T T"
C       -0.02787471      -0.02190799       7.47762105      -0.35899008      -0.59064487       0.18082993       0.36088637       0.34910946      -0.39005582       0.35330017       0.30197504      -0.43505508       0.35330017       0.30197504      -0.43505508
C        1.20490380       0.65864968       7.50454173       0.41958387       0.52161528       0.01339615       0.21562748       2.97144884       0.25285500       0.17905857       2.60411304       0.20106104       0.17905857       2.60411304       0.20106104
C       -1.21177731       2.14792918       7.47106552       0.67933764       0.26285171       0.41966947       0.27576608       0.06977249       0.11522182       0.15831748      -0.08251673       0.21086825       0.15831748      -0.08251673       0.21086825
C        0.06870924       2.82686782       7.57440233       0.07166542       0.75498297       0.36608891      -3.47653729       0.57520867      -0.86083807      -3.67725988       0.88854343      -0.74435185      -3.67725988       0.88854343      -0.74435185
C       -2.45176653       4.25726800       7.54910202      -0.40281574       0.22744883       0.39773607      -1.60486696       0.13022252       0.22037432      -1.73173491       0.12752800       0.22077549      -1.73173491       0.12752800       0.22077549
C       -1.27036198       4.96658822       7.59763233       0.29088589      -0.93170220      -0.55013645       2.62523936       0.32638221      -0.23242494       2.57700873       0.50180760      -0.29191431       2.57700873       0.50180760      -0.29191431
C        2.43353662       0.01976222       7.58685812       0.32199671      -0.37454762      -0.32964637       1.40187415      -1.36627743      -0.47369596       1.24435222      -1.43570221      -0.43248989       1.24435222      -1.43570221      -0.43248989
C        3.69560341       0.74501774       7.51509959       0.72593763       0.27772794       0.22775977      -0.83039231      -2.02569169      -0.26695267      -0.63157092      -1.91585238      -0.16265827      -0.63157092      -1.91585238      -0.16265827
C        1.22739344       2.13126645       7.50025992      -0.61865844       0.95093173       0.48194408       2.04389263      -1.50765397      -0.04804193       2.31991924      -1.45579023      -0.16216822       2.31991924      -1.45579023      -0.16216822
C        2.47384666       2.87402233       7.44375813      -1.64320783       0.10060186      -0.53226093      -0.83350280      -3.04189759       0.35368356      -0.80900789      -3.21419365       0.26977094      -0.80900789      -3.21419365       0.26977094
C       -0.00817358       4.23429755       7.54508545       0.53216400      -0.41203917      -0.19073569       0.51604724       1.97284580       0.20986601       0.69041345       1.85522731       0.14223420       0.69041345       1.85522731       0.14223420
C        1.22771879       4.97525771       7.45498622      -0.05617297       0.70481559       0.53553979      -0.13882278      -0.48226876       0.93834810      -0.21522473      -0.55977852       0.98074344      -0.21522473      -0.55977852       0.98074344
C        4.93044958       0.01028675       7.48635384      -0.65022552       0.25893901      -0.11035238      -0.68069766       0.38027863      -0.84874445      -0.58112074       0.53436625      -0.88268363      -0.58112074       0.53436625      -0.88268363
C        6.15284342       0.74819044       7.35137214       0.35433280      -0.64416972      -0.42975747      -0.23494122      -1.51637866       1.48182762      -0.34298413      -1.45495925       1.49305786      -0.34298413      -1.45495925       1.49305786
C        3.68990886       2.12888400       7.41011746      -0.60671074      -0.07039420       0.04015939       0.54966869       1.35208522       0.88182166       0.64730067       1.31424586       0.87324845       0.64730067       1.31424586       0.87324845
C        4.92779475       2.84603840       7.50804514       0.35945276      -0.89231274       0.06808170       0.35025811      -0.39021043      -0.57443894       0.31806860      -0.51593684      -0.63144082       0.31806860      -0.51593684      -0.63144082
C        2.47261882       4.23462014       7.50205975       0.55589882      -0.10530766      -0.42438014      -1.18448002       2.09973728      -0.64437529      -1.28366156       2.26903916      -0.59040473      -1.28366156       2.26903916      -0.59040473
C        3.67462672       4.95583370       7.52163927       0.02552578      -0.03879675      -0.16393584       0.64498092       0.10328742      -0.11443003       0.78482615       0.23788464      -0.05859261       0.78482615       0.23788464      -0.05859261
18
Lattice="7.38 0.0 0.0 -3.69 6.391267479929157 0.0 0.0 -0.0 15.0" Properties=species:S:1:pos:R:3:momenta:R:3:mace_forces:R:3:forces:R:3:REF_forces:R:3 T=600.0 mace_forces_rms=1.8482968510863065 energy=-2790.710949394986 REF_energy=-2790.710949394986 pbc="T T T"
C        0.07027282      -0.02613859       7.35535675      -0.21055676      -0.11719375      -1.27807599      -3.48065720      -0.83481054       0.97557734      -3.15692902      -0.94828918       1.01145861      -3.15692902      -0.94828918       1.01145861
C        1.25462836       0.67502322       7.45250265       0.36327614      -0.85880814       0.44261780      -0.83972052       0.53320819       0.55387765      -0.99816961       0.83473692       0.60074288      -0.99816961       0.83473692       0.60074288
C       -1.24968902       2.20694720       7.45315664      -0.07610923      -1.47959848      -0.21829770       0.66214753      -4.52532207       0.19876797       0.66317827      -4.19647076       0.10177712       0.66317827      -4.19647076       0.10177712
C        0.01548552       2.79792991       7.56718939      -1.76133255       0.45707573       0.44861090      -1.29537031       3.26528325       0.69686492      -1.36672542       3.17037100       0.62658658      -1.36672542       3.17037100       0.62658658
C       -2.44997824       4.22720146       7.54782894      -0.21346896      -0.56256413       0.14226101       0.57394902       1.99833841      -0.36322383       0.51921680       2.41861515      -0.26137758       0.51921680       2.41861515      -0.26137758
C       -1.22171360       5.00196825       7.52067384       0.30171507       1.65957298       0.54803335       1.56555415      -2.87342144       0.47278997       1.29710303      -2.53083891       0.54858728       1.29710303      -2.53083891       0.54858728
C        2.47162106       0.00064051       7.47632826       0.74919662      -0.69475484       0.50682794       0.70600998       0.78000687      -0.27068913       0.77115277       0.58697540      -0.29905349       0.77115277       0.58697540      -0.29905349
C        3.68367249       0.77783279       7.40343468       0.70290520       0.43172345       1.15405860      -0.26371265      -2.64489805       0.23211235      -0.12567012      -3.01095309       0.20659045      -0.12567012      -3.01095309       0.20659045
C        1.15923207       2.07390281       7.65993559      -0.74993098       0.26130149       0.36325460       4.85650515       0.69028656      -1.30885626       4.55497973       0.07209116      -1.23234851       4.55497973       0.07209116      -1.23234851
C        2.46676436       2.79982370       7.63151307      -0.46876939      -0.36841266      -0.96419417      -3.60207944       1.64104687      -0.58845672      -3.12798894       1.92782369      -0.57328890      -3.12798894       1.92782369      -0.57328890
C        0.06314648       4.25862585       7.62923707       1.07706893       0.64721937       0.28623999      -4.05734371       0.09419611      -0.74788159      -3.92638589      -0.14423143      -0.80691733      -3.92638589      -0.14423143      -0.80691733
C        1.19588682       5.00857664       7.56299550      -0.20796377       0.23582167       0.65771329       1.38991588      -0.04647607      -0.69201398       1.50096323       0.29464894      -0.78226714       1.50096323       0.29464894      -0.78226714
C        4.87080858       0.04895533       7.36649419      -0.20924924       0.38183564      -0.83912549       3.03435723      -0.29620313       0.87553168       2.78665545      -0.42269630       1.01105829       2.78665545      -0.42269630       1.01105829
C        6.17413052       0.72239677       7.39864032      -0.26460737       0.19254260       0.37562002      -0.60869377       0.49793853      -0.62146909      -0.71121984       0.50944687      -0.56750829      -0.71121984       0.50944687      -0.56750829
C        3.69283192       2.14413594       7.45440185      -1.22384552      -1.17824398       0.10566521      -0.79762684       0.85484346       0.73913798      -0.79018202       1.28946557       0.70759870      -0.79018202       1.28946557       0.70759870
C        4.89279291       2.86231697       7.50706897       1.04309557       0.93145854      -0.09356039       1.48572320      -0.86668689      -0.36662020       1.39669883      -1.33859832      -0.35042542       1.39669883      -1.33859832      -0.35042542
C        2.38871200       4.25608132       7.52952777       0.91455733      -0.33855618      -1.04893819       4.09226778      -0.54545527       0.69081332       3.81951773      -0.90994066       0.66590261       3.81951773      -0.90994066       0.66590261
C        3.73139498       4.90265228       7.48371454       0.23401891       0.39958070      -0.58871078      -3.42122548       2.27812522      -0.47626235      -3.10619498       2.39784398      -0.60711613      -3.10619498       2.39784398      -0.60711613
18
Lattice="7.38 0.0 0.0 -3.69 6.391267479929157 0.0 0.0 -0.0 15.0" Properties=species:S:1:pos:R:3:momenta:R:3:mace_forces:R:3:forces:R:3:REF_forces:R:3 T=100.0 mace_forces_rms=0.8113199586127291 energy=-2792.058418483844 REF_energy=-2792.058418483844 pbc="T T T"
C       -0.03013005       0.01802966       7.54123637       0.22128995       0.21722486       0.23822124       1.67051751       0.22749072      -0.10781558       1.67450087       0.19088513      -0.10907082       1.67450087       0.19088513      -0.10907082
C        1.22933976       0.70335701       7.54510287       0.50775442       0.59142801      -0.04377316       0.07836979       0.03985634      -0.02299814       0.10521905       0.14301556      -0.05160898       0.10521905       0.14301556      -0.05160898
C       -1.25996204       2.12483823       7.47312780      -0.63075436       0.22960325       0.15594649       1.26515686       0.09859007      -0.30922575       1.27211577       0.04173826      -0.27484527       1.27211577       0.04173826      -0.27484527
C       -0.01021812       2.80791265       7.48345611       0.44570464      -0.02754707      -0.23811194       0.21066559       1.01647988       0.10977926       0.23240150       1.06232969       0.12643503       0.23240150       1.06232969       0.12643503
C       -2.44575972       4.27755460       7.48289858      -0.17025159       0.24855776       0.22918999      -0.37014557       0.33797384      -0.07711771      -0.34541177       0.24351047      -0.07056753      -0.34541177       0.24351047      -0.07056753
C       -1.20147068       4.97429453       7.45229164      -0.29831030       0.10740565       0.16324468      -0.51531728      -0.79828630       0.27919039      -0.48763234      -0.77303276       0.27968203      -0.48763234      -0.77303276       0.27968203
C        2.46773853      -0.01544214       7.51327671       0.47861429      -0.03600053       0.10329761      -0.71919034       0.74933705      -0.04885823      -0.72887252       0.68585874      -0.01386853      -0.72887252       0.68585874      -0.01386853
C        3.67114401       0.71206686       7.50161057      -0.16691627       0.25770848      -0.25941312       1.08105315      -0.70629764      -0.33924072       1.05456496      -0.63130430      -0.34283167       1.05456496      -0.63130430      -0.34283167
C        1.23207485       2.12161545       7.54242658       0.21466656      -0.68651543       0.46445888      -0.06150831       0.29404605       0.00059585      -0.09485494       0.22370937      -0.01372198      -0.09485494       0.22370937      -0.01372198
C        2.45700640       2.87574778       7.56447536      -0.19840573      -0.31574635      -0.27526405       0.29763217      -2.43659772      -0.37045917       0.33190885      -2.58205915      -0.38284420       0.33190885      -2.58205915      -0.38284420
C        0.01849499       4.24335247       7.45309071      -0.37787928       0.21062711       0.31439333      -0.25244583      -0.15833436       0.10916280      -0.29567481      -0.20954336       0.11611873      -0.29567481      -0.20954336       0.11611873
C        1.24361349       4.96680502       7.48475959      -0.08290021       0.47641209      -0.39800935      -0.18444300      -0.70276836      -0.04619641      -0.13099385      -0.64332138      -0.04357788      -0.13099385      -0.64332138      -0.04357788
C        4.91631433      -0.02261345       7.44858174      -0.05091351       0.23877584      -0.59566165      -0.13681140       1.26151145       0.43215089      -0.11768376       1.18387396       0.44205671      -0.11768376       1.18387396       0.44205671
C        6.14576278       0.71156200       7.48331921       0.01547558      -0.08853379      -0.12256331      -1.44684595      -0.08541026       0.06846434      -1.48296962      -0.00481053       0.04009713      -1.48296962      -0.00481053       0.04009713
C        3.67539544       2.11471024       7.49795312      -0.22159574      -0.39778269      -0.31517062       0.62126024       1.73025003       0.11541159       0.50679066       1.65105909       0.10914024       0.50679066       1.65105909       0.10914024
C        4.92772090       2.85430060       7.43342597       0.29121818       0.00710594       0.63202686      -1.60334927      -0.44109161       0.56674499      -1.53637863      -0.28741488       0.57165059      -1.53637863      -0.28741488       0.57165059
C        2.47917162       4.25319980       7.54608718      -0.06316504      -0.64408781       0.10708354      -0.15525877       1.81890609      -0.05538909      -0.17565931       1.96318562      -0.06771489      -0.17565931       1.96318562      -0.06771489
C        3.69376349       5.01758105       7.55287990       0.08636841      -0.38863534      -0.15989541       0.22066040      -2.24565529      -0.30419930       0.21863016      -2.25767977      -0.31452948       0.21863016      -2.25767977      -0.31452948
18
Lattice="7.38 0.0 0.0 -3.69 6.391267479929157 0.0 0.0 -0.0 15.0" Properties=species:S:1:pos:R:3:momenta:R:3:mace_forces:R:3:forces:R:3:REF_forces:R:3 T=100.0 mace_forces_rms=0.5645344532682097 energy=-2792.187412144262 REF_energy=-2792.187412144262 pbc="T T T"
C       -0.02150205       0.00042589       7.44047111      -0.43558433       0.30013691       0.08837772       0.67188199       0.92150185       0.43740416       0.58079009       0.92526855       0.44236370       0.58079009       0.92526855       0.44236370
C        1.22232948       0.71501028       7.45523814       0.23234515      -0.23486079       0.47243147       0.32446938      -1.20935045       0.09407981       0.35836859      -1.18909356       0.11528621       0.35836859      -1.18909356       0.11528621
C       -1.24671447       2.14214183       7.51677251       0.48707061       0.57705456       0.17225076       0.78937357      -0.24430203      -0.21907637       0.81419689      -0.25167089      -0.22899582       0.81419689      -0.25167089      -0.22899582
C        0.00873758       2.81415705       7.47335215       0.01342925      -0.19093524      -0.23182831      -0.62024813       1.04968689       0.19683535      -0.66933837       1.07931620       0.22175739      -0.66933837       1.07931620       0.22175739
C       -2.47229482       4.27177820       7.53289743      -0.17121336       0.52856558      -0.12347475       0.77978288       0.15030806      -0.50147588       0.75718345       0.12984045      -0.49113367       0.75718345       0.12984045      -0.49113367
C       -1.22380371       4.94755212       7.52524854       0.13997139      -0.13032188      -0.27427082      -0.02067121       0.90829933       0.11982672       0.02745810       0.90234331       0.11386593       0.02745810       0.90234331       0.11386593
C        2.46658346      -0.01405535       7.51996828      -0.01379075       0.16353908       0.37406449      -0.42910371       0.43869502      -0.08190693      -0.40361203       0.43895647      -0.10000589      -0.40361203       0.43895647      -0.10000589
C        3.69027607       0.71316659       7.55390575       0.17610990       0.12000867       0.20774045       0.24183064      -0.38548718      -0.27184853       0.20355809      -0.35746510      -0.28700350       0.20355809      -0.35746510      -0.28700350
C        1.22418854       2.11373036       7.45020314      -0.00872591      -0.59553037      -0.29949051       0.99124280       0.74904235       0.13701110       0.95005476       0.69874228       0.15502775       0.95005476       0.69874228       0.15502775
C        2.47063709       2.85097573       7.47391355      -0.40169197      -0.16836629       0.16173116      -0.74378099      -0.74835511       0.00673117      -0.63466216      -0.73827530       0.00647121      -0.63466216      -0.73827530       0.00647121
C        0.00858984       4.24754554       7.51601458       0.12897825      -0.62606746      -0.12268163       0.12866507      -0.32056688      -0.03751563       0.06938276      -0.34187959      -0.05354991       0.06938276      -0.34187959      -0.05354991
C        1.24383324       4.96629255       7.52319642      -0.15126221      -0.05724307      -0.27211755      -0.66860751      -0.18449064      -0.29983269      -0.62203727      -0.13721926      -0.30116823      -0.62203727      -0.13721926      -0.30116823
C        4.93277200      -0.01317444       7.53611867       0.14427255      -0.02586567      -0.41656054      -1.08558078       0.76568228       0.13076167      -1.09960092       0.69645014       0.14754378      -1.09960092       0.69645014       0.14754378
C        6.12858561       0.72280667       7.51059016       0.04558958       0.03824585       0.17270918       0.61976786      -0.39847515      -0.27467879       0.69343886      -0.40224009      -0.29506288       0.69343886      -0.40224009      -0.29506288
C        3.69252410       2.14005505       7.51756947      -0.48893170      -0.02538679       0.59961464       0.33740248      -0.07214024      -0.04393326       0.25480069      -0.08817855      -0.05161592       0.25480069      -0.08817855      -0.05161592
C        4.93066741       2.86886662       7.51338091       0.10638111      -0.17836202      -0.52494984      -1.13707242      -0.90456261       0.30786846      -1.10125105      -0.85922257       0.30036578      -1.10125105      -0.85922257       0.30036578
C        2.46069213       4.26210989       7.46799998      -0.19552658       0.82467253       0.13129019       0.57599124       0.13434664       0.24158699       0.55435170       0.14014492       0.24011430       0.55435170       0.14014492       0.24011430
C        3.69389851       4.98948777       7.47315918       0.39257901      -0.31928364      -0.11483610      -0.75534319      -0.64983215       0.05816264      -0.73308193      -0.64581741       0.06573977      -0.73308193      -0.64581741       0.06573977
18
Lattice="7.38 0.0 0.0 -3.69 6.391267479929157 0.0 0.0 -0.0 15.0" Properties=species:S:1:pos:R:3:momenta:R:3:mace_forces:R:3:forces:R:3:REF_forces:R:3 T=600.0 mace_forces_rms=1.7584908507203318 energy=-2790.757530930343 REF_energy=-2790.757530930343 pbc="T T T"
C        0.03548664       0.01615819       7.40792079       0.45545346       1.37501706       0.89948799      -0.25058031      -1.32984046       0.76667503      -0.29540690      -1.31788603       0.92096504      -0.29540690      -1.31788603       0.92096504
C        1.30699110       0.68709884       7.31579426      -1.27961255       0.66472004      -0.25034013      -2.68687768       2.74529100       0.81617648      -2.72024977       2.61761365       0.82959369      -2.72024977       2.61761365       0.82959369
C       -1.28878355       2.12738089       7.47877607      -0.77356636      -1.04534849       0.47559048       1.59846353       1.16710897      -0.62911970       1.37038410       1.15391521      -0.63738624       1.37038410       1.15391521      -0.63738624
C       -0.03200782       2.87356409       7.46744420       0.34840813      -0.29018109       1.04207814       0.57558201      -1.67755228       0.50370248       0.47269269      -1.47426952       0.55549301       0.47269269      -1.47426952       0.55549301
C       -2.50848490       4.29449438       7.63283808      -0.34072553       0.12516172      -0.87635234       3.05670962      -1.30559277      -1.52455583       3.71891432      -1.81793834      -1.65624552       3.71891432      -1.81793834      -1.65624552
C       -1.23686542       4.98492204       7.45625049      -2.01974106      -0.75509272      -0.51545076       0.15341996       1.15036712       0.54670848       0.14719386       0.92103780       0.60932831       0.14719386       0.92103780       0.60932831
C        2.53604005       0.06353726       7.35507651       0.13745109       0.07957824       0.71278162      -2.16496572      -4.76004515       0.41053023      -2.67275455      -4.78860970       0.42910195      -2.67275455      -4.78860970       0.42910195
C        3.73159766       0.67681528       7.42766631       0.89668530       0.31470066       1.12983207       0.51422571       1.75773409      -0.08736905       1.09589004       1.96162059       0.02232566       1.09589004       1.96162059       0.02232566
C        1.23790653       2.14105945       7.47725288       0.10272605       0.21638156      -0.58000824      -2.51533137      -1.39147059      -0.13719149      -2.54239937      -1.53247981      -0.33312575      -2.54239937      -1.53247981      -0.33312575
C        2.41825406       2.79995706       7.65506626       0.11480716       0.75939018       0.25384502       1.13335931       0.87572494      -1.23297314       1.43722687       0.79151976      -1.12906010       1.43722687       0.79151976      -1.12906010
C       -0.01115461       4.28860860       7.52027312       0.10603682       0.70060983      -0.39128089       0.64131608      -0.02230063      -0.30576589       0.35271473      -0.22860809      -0.30602555       0.35271473      -0.22860809      -0.30602555
C        1.28893914       5.00157848       7.57018274       1.02246320      -0.35879819      -0.82884778      -3.93840255      -3.31533365       0.05943955      -3.53965186      -3.81937760      -0.03781527      -3.53965186      -3.81937760      -0.03781527
C        4.94352903      -0.05183155       7.50917783       0.98936507      -0.24865865      -1.00573897       1.05090005       2.96316168      -0.18478821       0.98368247       3.75052963      -0.23571668       0.98368247       3.75052963      -0.23571668
C        6.14951684       0.70614072       7.47999017      -0.60621790      -0.38759287       1.37305357       0.81807130      -0.01539440      -0.30175683       0.85748013      -0.02344589      -0.28867549       0.85748013      -0.02344589      -0.28867549
C        3.65321578       2.09618169       7.47601806      -0.26894073       0.22041213       0.03746605       1.61058995       1.08685590       0.58732557       1.45496054       1.23141006       0.62942045       1.45496054       1.23141006       0.62942045
C        4.87249933       2.86141522       7.46497301       0.54753879      -1.47083002      -1.12272396      -0.27368742      -1.01110920       1.25133485      -0.11632056      -0.87101725       1.27773208      -0.11632056      -0.87101725       1.27773208
C        2.40401199       4.21543786       7.67372007      -0.07276134      -0.43266623       0.41234580       4.45343278       1.80184812      -0.06291486       3.95781197       1.42368281      -0.00725411       3.95781197       1.42368281      -0.00725411
C        3.70930818       4.95635386       7.63157917       0.64063039       0.53319685      -0.76573766      -3.77622525       1.28054730      -0.47545767      -3.96216896       2.02230273      -0.64265546      -3.96216896       2.02230273      -0.64265546
18
Lattice="7.38 0.0 0.0 -3.69 6.391267479929157 0.0 0.0 -0.0 15.0" Properties=species:S:1:pos:R:3:momenta:R:3:mace_forces:R:3:forces:R:3:REF_forces:R:3 T=100.0 mace_forces_rms=0.6845844277972621 energy=-2792.1213215433 REF_energy=-2792.1213215433 pbc="T T T"
C       -0.01291905       0.00174699       7.47269341      -0.51139137       0.12540663       0.04492170       0.60178561       0.02038122       0.16195785       0.55668703      -0.01896754       0.15762585       0.55668703      -0.01896754       0.15762585
C        1.23073043       0.71019816       7.44785400      -0.05866266       0.31299212      -0.20963343      -0.25649584      -0.02775582      -0.06256536      -0.19595791      -0.06232483      -0.04716560      -0.19595791      -0.06232483      -0.04716560
C       -1.22757951       2.13660859       7.57016701       0.31235194      -0.27016014       0.33834021      -0.20874171       0.63985321      -0.05656972      -0.26788761       0.69683349      -0.05808328      -0.26788761       0.69683349      -0.05808328
C        0.00408427       2.85879388       7.55528048       0.14659775      -0.14041255       0.02063483      -0.29521748      -0.53849521      -0.79383052      -0.22146428      -0.50051408      -0.78119216      -0.22146428      -0.50051408      -0.78119216
C       -2.44533945       4.25478026       7.48661050      -0.15942979      -0.36773840       0.20473013      -0.92751443       0.28443100      -0.00543642      -0.88974465       0.27464498      -0.02163609      -0.88974465       0.27464498      -0.02163609
C       -1.22795626       4.97281915       7.46265212       0.20413262      -0.47309811      -0.34956649       0.15471965      -0.58636902       0.17714507       0.13371716      -0.64070142       0.17861042       0.13371716      -0.64070142       0.17861042
C        2.45837866      -0.01775254       7.45517553      -0.56282246      -0.18325260       0.36965140       0.21993921       1.01534385       0.10408907       0.16604467       1.07712947       0.13131164       0.16604467       1.07712947       0.13131164
C        3.70539445       0.69178387       7.52326081       0.46416853      -0.14264716      -0.03440155      -1.26774381       0.59825094      -0.21248905      -1.30291655       0.68736977      -0.22591178      -1.30291655       0.68736977      -0.22591178
C        1.23152569       2.14577252       7.44459226      -0.18022442       0.03671427      -0.24477652      -0.94698837      -1.40354568       0.69083265      -1.18430925      -1.44860014       0.69282540      -1.18430925      -1.44860014       0.69282540
C        2.43280783       2.81272334       7.47231296      -0.36267181       0.16987122       0.30347286       1.26740306       1.51250239      -0.13086438       1.45792014       1.56933349      -0.11126320       1.45792014       1.56933349      -0.11126320
C       -0.00210904       4.26048992       7.48855382      -0.01306443       0.03091630      -0.45074019       1.16208328       1.05508156       0.38116839       1.00165783       0.91365256       0.35626260       1.00165783       0.91365256       0.35626260
C        1.26577589       4.99002506       7.50945992       0.39825766      -0.03406468       0.11217951      -2.03121604      -1.08743049      -0.04112879      -1.84643954      -1.00025503      -0.06054691      -1.84643954      -1.00025503      -0.06054691
C        4.92427417       0.00645493       7.55640169       0.12470670      -0.37792396       0.10428618       0.72754362       0.17692005      -0.27774460       0.78023082       0.16290690      -0.27076493       0.78023082       0.16290690      -0.27076493
C        6.14844350       0.73708924       7.54780532      -0.84270327       0.06034507       0.06505454       0.12510453      -1.05091678      -0.05426473       0.13312684      -1.11852321      -0.07741360       0.13312684      -1.11852321      -0.07741360
C        3.66806392       2.12043011       7.50222838       0.00596274       0.09070191       0.41275545       0.91886327      -0.15325405       0.19533534       0.88137853      -0.22875053       0.19139986       0.88137853      -0.22875053       0.19139986
C        4.91122929       2.84341239       7.54447173       0.14637285       0.66907090      -0.45930882      -0.05338892      -0.45367189      -0.16368359       0.02199579      -0.43925266      -0.16977303       0.02199579      -0.43925266      -0.16977303
C        2.45321128       4.25149813       7.48884809       0.06390588      -0.11126161      -0.40433515       0.89998134      -0.14591075       0.00188164       0.84299582      -0.13092289      -0.00022240       0.84299582      -0.13092289      -0.00022240
C        3.69198392       4.96199836       7.47163197       0.82451354       0.60454078       0.17673533      -0.09011697       0.14458546       0.08616716      -0.06703483       0.20694141       0.11593721      -0.06703483       0.20694141       0.11593721
18
Lattice="7.38 0.0 0.0 -3.69 6.391267479929157 0.0 0.0 -0.0 15.0" Properties=species:S:1:pos:R:3:momenta:R:3:mace_forces:R:3:forces:R:3:REF_forces:R:3 T=600.0 mace_forces_rms=1.7264334289134358 energy=-2790.9634797449016 REF_energy=-2790.9634797449016 pbc="T T T"
C        0.03084420       0.02074669       7.44914076       0.33164519       0.30967200       0.26398227       0.37095866      -0.63523728      -0.89224812       0.26839129      -0.56800554      -0.83970815       0.26839129      -0.56800554      -0.83970815
C        1.23753284       0.74409422       7.45061946       0.30812447       1.24094511       0.03899825       0.61662069       0.74960503       0.81584362       0.71053104       0.75920768       0.82187627       0.71053104       0.75920768       0.82187627
C       -1.28561135       2.16875574       7.51488673       0.27061242       1.12244734      -0.43091531      -0.11391519      -4.83527443      -1.32442852      -0.19194699      -4.00756693      -1.39680501      -0.19194699      -4.00756693      -1.39680501
C       -0.05700905       2.79515302       7.54059275       0.16077462       0.52768472       0.56238285       1.28452896       2.48346154       0.12649615       1.20702675       2.52767903       0.16068058       1.20702675       2.52767903       0.16068058
C       -2.43193328       4.25735754       7.42031335      -1.80665897      -2.24306741      -0.40994441      -1.98553409       0.05640775       0.73312898      -2.17447322      -0.18183330       0.73127188      -2.17447322      -0.18183330       0.73127188
C       -1.24687786       4.94100709       7.43147786      -0.11339476      -0.24762605      -0.33451543       3.45663747       1.69824934       0.89995215       3.49758656       1.52396278       0.98753347       3.49758656       1.52396278       0.98753347
C        2.47265774       0.03931039       7.53646196      -0.06387876       0.61256276       0.07230784      -0.86374625      -2.97982208      -1.21722154      -0.99297444      -2.49446063      -1.20973129      -0.99297444      -2.49446063      -1.20973129
C        3.68958745       0.68406395       7.48359435       0.25531912      -0.23240421       0.58832970       1.78617343       1.28130870       0.72043254       1.47269987       1.16711474       0.72556506       1.47269987       1.16711474       0.72556506
C        1.19363734       2.17420403       7.53662096       0.47600362       0.30989086       0.56453495       1.67736631      -1.76542541      -0.01160773       1.75853300      -1.88195855      -0.05476321       1.75853300      -1.88195855      -0.05476321
C        2.46371181       2.88096682       7.60911098       0.70864492      -0.26185500      -0.31673550      -2.02677031      -0.06069729      -0.13825018      -1.96182705      -0.12255986      -0.21237466      -1.96182705      -0.12255986      -0.21237466
C        0.03675106       4.21148199       7.55495818       0.24673619      -0.91089901       1.30916804      -2.98551867       1.53750035      -0.67282198      -2.88378864       1.38397341      -0.69050318      -2.88378864       1.38397341      -0.69050318
C        1.25554662       4.93769054       7.52319732      -0.04665861      -0.27711687       0.45012103      -1.15304561      -0.18537660       0.68991242      -1.38229705      -0.31391010       0.61560771      -1.38229705      -0.31391010       0.61560771
C        4.96311166      -0.08389546       7.47272894      -0.29143876      -0.12174171      -0.70260064      -2.03461320       3.60582456      -0.93472954      -1.46956749       3.77487001      -1.02137922      -1.46956749       3.77487001      -1.02137922
C        6.18033679       0.65369247       7.31404844       0.44703111      -0.28311518      -1.42794975      -1.89870772       3.58507849       2.30085153      -1.97968619       2.57307828       2.41518350      -1.97968619       2.57307828       2.41518350
C        3.64975581       2.15814949       7.55631785      -2.09614908      -1.32704853      -0.20203419       0.59222279      -2.51168356      -0.41027348       0.42091041      -2.25729796      -0.41288600       0.42091041      -2.25729796      -0.41288600
C        4.85288345       2.84106672       7.49685167       1.20991154       1.27614792      -0.42579668       2.11522332       0.43876431       0.07785462       2.27786139       0.61952968      -0.00535921       2.27786139       0.61952968      -0.00535921
C        2.46638757       4.31415137       7.62141349       0.14384721       0.99978191       0.02222535       2.58589668      -1.89326194      -0.94263934       2.93913755      -1.89289088      -0.86655201       2.93913755      -1.89289088      -0.86655201
C        3.73868720       5.00087575       7.48766495      -0.14047147      -0.49425866       0.37844165      -1.42377727      -0.56942148       0.17974841      -1.51611680      -0.60893159       0.25234298      -1.51611680      -0.60893159       0.25234298
18
Lattice="7.38 0.0 0.0 -3.69 6.391267479929157 0.0 0.0 -0.0 15.0" Properties=species:S:1:pos:R:3:momenta:R:3:mace_forces:R:3:forces:R:3:REF_forces:R:3 T=100.0 mace_forces_rms=0.6000956222861534 energy=-2792.1687822784693 REF_energy=-2792.1687822784693 pbc="T T T"
C        0.00473496      -0.01387164       7.51987596      -0.17393338       0.27396257      -0.12867593      -0.20116684       1.26837609      -0.05633587      -0.17224977       1.30697813      -0.06840214      -0.17224977       1.30697813      -0.06840214
C        1.20719529       0.73038708       7.54464760       0.13952717       0.14454774       0.30778509       0.96477657      -0.26163207       0.01588776       0.95196843      -0.27312700       0.01622160       0.95196843      -0.27312700       0.01622160
C       -1.21170926       2.11321078       7.47971620      -0.04559773      -0.12606734       0.20237845      -0.23927486       0.96285397       0.09366419      -0.28420203       0.94275385       0.07156177      -0.28420203       0.94275385       0.07156177
C        0.01008369       2.85401353       7.46879411       0.36713727      -0.27566344       0.15892453      -1.11238677      -0.20117538       0.38315407      -1.03357164      -0.18598975       0.37699571      -1.03357164      -0.18598975       0.37699571
C       -2.45086603       4.24930133       7.50780973       0.07493207       0.66877468       0.87146701      -0.37251860       0.59846388      -0.26024422      -0.38158668       0.57924897      -0.23546806      -0.38158668       0.57924897      -0.23546806
C       -1.23032384       4.99278996       7.46388867       0.48827703       0.11005840      -0.33359162      -0.82947598      -0.59532563       0.27374422      -0.86584342      -0.49736705       0.28223668      -0.86584342      -0.49736705       0.28223668
C        2.44455356       0.01846055       7.50982463       0.02166414      -0.05939097      -0.42975987       0.15109742      -0.11136997       0.08959410       0.12404647      -0.18813327       0.06752822       0.12404647      -0.18813327       0.06752822
C        3.69592987       0.69536012       7.52566743      -0.54892346       0.09192327      -0.42295783      -0.37461363       0.29473833      -0.28349785      -0.30618291       0.31900988      -0.29290187      -0.30618291       0.31900988      -0.29290187
C        1.22119169       2.15747804       7.56364206      -0.15897166      -0.22980929       0.33196369       0.39518519      -0.65471476      -0.68539372       0.35355317      -0.63604104      -0.64850652       0.35355317      -0.63604104      -0.64850652
C        2.45620718       2.85192215       7.51503304       0.57266880      -0.14133266      -0.13357155       0.84360938      -0.80255607       0.01603861       0.79069367      -0.70247192       0.00878006       0.79069367      -0.70247192       0.00878006
C       -0.02702765       4.26593406       7.44951567      -0.16036400       0.27569586      -0.06720949       1.15265773       0.06383427       0.09663600       1.20135926       0.02677444       0.08554112       1.20135926       0.02677444       0.08554112
C        1.22173942       4.94717044       7.47267313      -0.16456843      -0.60573992       0.24686445       0.08285672       0.75293397      -0.06308353       0.05342341       0.76773680      -0.04844061       0.05342341       0.76773680      -0.04844061
C        4.91754058      -0.02341830       7.49861457       0.36082633      -0.21042727      -0.09837709       0.70204049       0.74195970      -0.01805392       0.57283998       0.68315239       0.01492371       0.57283998       0.68315239       0.01492371
C        6.16639148       0.72004056       7.49831748      -0.42344711       0.30087311      -0.03358597      -1.00126047      -1.68417877       0.04303423      -0.91345356      -1.60754651       0.04016629      -0.91345356      -1.60754651       0.04016629
C        3.69667976       2.11349487       7.50416754      -0.46736470      -0.14495344      -0.08286940      -0.25780355       0.66116107       0.29005566      -0.18441700       0.59957123       0.28406679      -0.18441700       0.59957123       0.28406679
C        4.93078329       2.82395182       7.50102746       0.01964893      -0.15724155      -0.53817113      -0.10395785       0.20811198      -0.17042349      -0.12427633       0.19547635      -0.16271175      -0.12427633       0.19547635      -0.16271175
C        2.46235609       4.25851337       7.47069832      -0.30835182      -0.19507172       0.06947323       0.04647552       0.25937565       0.32313378       0.01949050       0.18817698       0.30464127       0.01949050       0.18817698       0.30464127
C        3.69453992       4.98413363       7.50608640       0.40684056       0.27986195       0.07991343       0.15375953      -1.50085627      -0.08791000       0.19840843      -1.51820299      -0.09623253       0.19840843      -1.51820299      -0.09623253
18
Lattice="7.38 0.0 0.0 -3.69 6.391267479929157 0.0 0.0 -0.0 15.0" Properties=species:S:1:pos:R:3:momenta:R:3:mace_forces:R:3:forces:R:3:REF_forces:R:3 T=100.0 mace_forces_rms=0.6004501396612164 energy=-2792.159978715504 REF_energy=-2792.159978715504 pbc="T T T"
C        0.01217492      -0.00171083       7.53180068       0.27429867      -0.44480179       0.08693946      -0.22084351      -0.62299009      -0.13204800      -0.21149869      -0.63374608      -0.13831172      -0.21149869      -0.63374608      -0.13831172
C        1.22409292       0.69891355       7.55543986      -0.06402615      -0.76534490       0.35110752       1.27389924       0.08702251      -0.51440204       1.25661407       0.13756019      -0.52183933       1.25661407       0.13756019      -0.52183933
C       -1.21935886       2.14222726       7.46339025       0.08159313      -0.10089488      -0.06200209       0.31935422      -1.13967848       0.51170032       0.37261404      -1.15073142       0.50737687       0.37261404      -1.15073142       0.50737687
C        0.00584501       2.85369052       7.47891442      -0.38399826       0.79605488       0.30214044      -0.50426664      -0.59139391      -0.11993814      -0.47790020      -0.66948441      -0.12162578      -0.47790020      -0.66948441      -0.12162578
C       -2.47711850       4.25591758       7.49648121      -0.32543709      -0.30784253       0.41031954       0.12562638      -0.02818470       0.02654695       0.07975819      -0.03162765       0.02984639       0.07975819      -0.03162765       0.02984639
C       -1.24353835       4.96738683       7.48504463       0.13725819       0.30479961      -0.28234694       0.27500647       0.05849613      -0.20912450       0.30314772       0.08140035      -0.21049210       0.30314772       0.08140035      -0.21049210
C        2.48622669      -0.00630580       7.49107849      -0.26788551      -0.07839482       0.49354199      -0.90444636       0.70226168       0.44467297      -0.85924339       0.65819264       0.45912472      -0.85924339       0.65819264       0.45912472
C        3.71764069       0.72602937       7.50903213       0.05514940       0.13493112      -0.45604724      -0.79063860      -0.41312632      -0.20151054      -0.75363996      -0.46680126      -0.21558160      -0.75363996      -0.46680126      -0.21558160
C        1.20664430       2.11646313       7.51768527      -0.21369217      -0.05314647      -0.08718785       1.39797625       0.60660165       0.10003316       1.31004622       0.58145832       0.10153801       1.31004622       0.58145832       0.10153801
C        2.45132931       2.84804746       7.51927084      -0.09604488      -0.28546622       0.35419483      -0.18980648      -0.34879043      -0.03173326      -0.12702407      -0.30873035      -0.02914063      -0.12702407      -0.30873035      -0.02914063
C       -0.00878539       4.25943217       7.45209724      -0.02791619      -0.45271718      -0.27444604      -0.28106779       0.21626213       0.25925108      -0.29975206       0.28774552       0.26050160      -0.29975206       0.28774552       0.26050160
C        1.20472020       4.96780866       7.47138915       0.72888942       0.11340513       0.23875081       0.55386667       0.39523700       0.15729634       0.54414724       0.40413114       0.18047987       0.54414724       0.40413114       0.18047987
C        4.93009248      -0.00856145       7.49307575      -0.07413797      -0.05951080      -0.03307618       0.50730656       0.81704278      -0.01203064       0.42235717       0.78286003      -0.00973960       0.42235717       0.78286003      -0.00973960
C        6.18750214       0.70313106       7.50707927       0.91018367       0.57281199      -0.68029247      -1.58654425       0.56258359      -0.12635791      -1.57454949       0.62139193      -0.14409028      -1.57454949       0.62139193      -0.14409028
C        3.69791349       2.15442448       7.51537534      -0.18989893       0.09057700       0.11993556      -0.33988058      -0.97551606       0.09034082      -0.34744217      -0.91652757       0.08658216      -0.34744217      -0.91652757       0.08658216
C        4.93678926       2.82341321       7.50703656      -0.09085109      -0.05550811      -0.49381417      -0.68133802       1.40858453      -0.31041456      -0.72006469       1.40505183      -0.28767816      -0.72006469       1.40505183      -0.28767816
C        2.43673695       4.27224543       7.50912509      -0.02154087       0.41060435      -0.16939738      -0.00597036      -0.71979956      -0.24910883       0.00583872      -0.74107344      -0.26161849       0.00583872      -0.74107344      -0.26161849
C        3.66109275       4.96631972       7.49668380      -0.43194338       0.18044362       0.18168021       1.05176681      -0.01461245       0.31682681       1.07659186      -0.04106977       0.31466806       1.07659186      -0.04106977       0.31466806
18
Lattice="7.38 0.0 0.0 -3.69 6.391267479929157 0.0 0.0 -0.0 15.0" Properties=species:S:1:pos:R:3:momenta:R:3:mace_forces:R:3:forces:R:3:REF_forces:R:3 T=600.0 mace_forces_rms=1.541913298734688 energy=-2791.0518870820565 REF_energy=-2791.0518870820565 pbc="T T T"
C        0.03417910       0.01699363       7.40410483      -0.65045132       0.42228633       0.19100044       0.30322712       1.15532287      -0.28160312       0.16006454       1.50872308      -0.31714378       0.16006454       1.50872308      -0.31714378
C        1.28110130       0.71293598       7.44992510       0.14558307       0.03940920       0.14485900      -1.24544032       1.95690294       0.47948809      -1.14851153       1.89790968       0.54085623      -1.14851153       1.89790968       0.54085623
C       -1.24346213       2.09253724       7.34932012       0.98618442       0.51405202       0.04185508      -2.09965479      -0.11453186       0.24510481      -2.12390116      -0.12503403       0.26285416      -2.12390116      -0.12503403       0.26285416
C       -0.07477275       2.80010345       7.50789729      -0.59079760      -0.51310560       0.44942202       2.93945231       0.37260563      -0.05770912       2.82038627       0.42310562      -0.01057520       2.82038627       0.42310562      -0.01057520
C       -2.46275697       4.22374938       7.49958451      -0.88666234       0.53765373       0.02057774       0.00002372       2.46361295       0.01662114       0.21228725       2.45306793      -0.00723868       0.21228725       2.45306793      -0.00723868
C       -1.24449607       4.95384608       7.56427728      -1.26644588      -1.67533141      -1.86497790       1.66343233      -0.68023254      -0.06251770       1.56919414      -0.83787881      -0.14453996       1.56919414      -0.83787881      -0.14453996
C        2.49449203       0.00994406       7.55068121       0.14053477       0.49113459       0.61877688      -1.59242304      -1.23371962      -0.19118635      -1.80163832      -1.24048657      -0.19386992      -1.80163832      -1.24048657      -0.19386992
C        3.67198551       0.71943463       7.52531549      -1.52179505      -1.52653987      -0.38765830       1.66538382      -0.50879146      -0.08359910       1.75438864      -0.20244969      -0.10503779       1.75438864      -0.20244969      -0.10503779
C        1.21680020       2.17248871       7.52609734       0.19634727       1.89344123       0.30386579       0.32141403      -1.96728454      -0.64501004       0.48084437      -1.89899597      -0.73591220       0.48084437      -1.89899597      -0.73591220
C        2.44121510       2.88842990       7.50425872       1.00954899       1.72929827      -0.04397031       0.82901094       0.56353544       1.27029065       0.79717285       0.37540909       1.24504976       0.79717285       0.37540909       1.24504976
C       -0.02004029       4.17911979       7.62441195       0.28295987      -0.43847157       0.10188962       0.86479746       3.87568211       0.18729376       0.12414289       3.48251424       0.28986694       0.12414289       3.48251424       0.28986694
C        1.27171793       4.98359014       7.69955899      -0.07709106      -0.90082465      -0.43669806      -3.61489234      -2.85169623      -1.64790946      -2.75570348      -2.18037133      -1.50957874      -2.75570348      -2.18037133      -1.50957874
C        4.88858385      -0.06585861       7.43500954       1.54931042       0.29195705       0.55977043       1.56077107       3.98305187       0.71943016       1.46191872       3.60017872       0.54487590       1.46191872       3.60017872       0.54487590
C        6.15734627       0.67616697       7.27302169       0.14287773      -0.30794386       0.17085229      -1.29799990      -0.20574404       1.14741343      -1.08038706      -0.19609958       1.22734823      -1.08038706      -0.19609958       1.22734823
C        3.67743331       2.14566174       7.55674970      -0.50515735       0.86459807      -0.02280095      -1.16758471      -0.37928841      -1.24462867      -1.27173859      -0.52332748      -1.18648415      -1.27173859      -0.52332748      -1.18648415
C        4.88682398       2.82967244       7.45079572      -0.23871155      -1.21913942       0.04378023       1.40314272      -0.64253900       0.19800483       1.44894879      -0.59200524       0.13449775       1.44894879      -0.59200524       0.13449775
C        2.50109818       4.34950525       7.58704794       0.11519535      -0.40156346      -0.15028666      -0.08552841      -2.38548533      -0.15165350      -0.00548725      -2.23064411      -0.24756021      -0.00548725      -2.23064411      -0.24756021
C        3.73275143       5.05055157       7.49194257       1.16857025       0.19908937       0.25974266      -0.44713199      -3.40140078       0.10217018      -0.64198132      -3.71361527       0.21259166      -0.64198132      -3.71361527       0.21259166
18
Lattice="7.38 0.0 0.0 -3.69 6.391267479929157 0.0 0.0 -0.0 15.0" Properties=species:S:1:pos:R:3:momenta:R:3:mace_forces:R:3:forces:R:3:REF_forces:R:3 T=300.0 mace_forces_rms=1.103653058567727 energy=-2791.6485883756727 REF_energy=-2791.6485883756727 pbc="T T T"
C        0.01341693      -0.03134716       7.57382549       0.38805334      -0.53345424      -0.12337927      -1.24534204      -0.95471155      -0.66809083      -1.49569530      -1.03477569      -0.67967215      -1.49569530      -1.03477569      -0.67967215
C        1.18069970       0.68827145       7.59097376      -1.48924711       0.10074328      -0.22694735       2.25871273       1.70910490      -0.51556658       2.51578279       1.67104299      -0.50455303       2.51578279       1.67104299      -0.50455303
C       -1.21373373       2.09717285       7.45140696       0.00436903      -0.04348366       0.97725526       0.39438920       1.26672373       0.37560028       0.40504594       1.29349732       0.37091788       0.40504594       1.29349732       0.37091788
C        0.01018366       2.85967749       7.52760928       0.21451534      -0.87012506      -0.55445491       0.06775963      -1.56748732       0.03512462       0.13254885      -1.65443315       0.02506748       0.13254885      -1.65443315       0.02506748
C       -2.41216945       4.23805278       7.60667034       0.75503507      -0.54122378      -0.53488034      -2.28660488      -0.27900261      -0.64172928      -2.48565923      -0.37994400      -0.63647299      -2.48565923      -0.37994400      -0.63647299
C       -1.23142156       4.93899036       7.58751689      -0.69299253      -0.40513404       0.37205928       0.37685574       2.44780329      -0.42321630       0.49142960       2.51390769      -0.49379167       0.49142960       2.51390769      -0.49379167
C        2.41045517       0.00337443       7.48874346      -0.12748251       0.54914526       0.40360016       2.00013897      -0.67979074       0.90509150       1.79670103      -0.68060675       0.89427133       1.79670103      -0.68060675       0.89427133
C        3.67001370       0.74685726       7.43888032      -0.46663584       0.46800282      -0.04261853      -1.11299207      -0.31062389      -0.63198188      -0.92573161      -0.27547725      -0.61603349      -0.92573161      -0.27547725      -0.61603349
C        1.24543906       2.14267015       7.54905652       0.98767343       0.00044475       0.06263811      -0.99396108      -0.68842853      -0.15030277      -1.02308051      -0.50629366      -0.13791346      -1.02308051      -0.50629366      -0.13791346
C        2.47369376       2.85769792       7.48772246       0.50333331       0.58927350      -0.16848188      -0.99751758      -0.59658354      -0.25527072      -1.06681164      -0.63095643      -0.21768733      -1.06681164      -0.63095643      -0.21768733
C       -0.00453751       4.25955529       7.53630136      -0.25357718       0.21582534       0.07808840       0.30810361       0.70637192       0.03783817       0.42654190       0.74697360       0.03467467       0.42654190       0.74697360       0.03467467
C        1.19206881       5.00354131       7.48516068       0.77705123       0.44762495      -0.93119814       2.04086207       0.07310257      -0.58136206       1.73803514       0.03901083      -0.60674024       1.73803514       0.03901083      -0.60674024
C        4.89979797       0.07328913       7.37379380       0.34170611      -0.01489628      -0.06167243       0.59481836      -3.21387395       0.83019864       0.61001659      -2.98865340       0.92294247       0.61001659      -2.98865340       0.92294247
C        6.18917217       0.68523550       7.41866673      -0.50289998      -0.70680031       0.28171562      -1.61114681       0.87202053       0.33777376      -1.63206970       0.80970543       0.32067570      -1.63206970       0.80970543       0.32067570
C        3.68665287       2.16512251       7.40727516       0.30020228       0.25418724      -0.11833255       0.35646332      -0.73411080       0.79916952       0.49876547      -0.69477558       0.79067696       0.49876547      -0.69477558       0.79067696
C        4.93245559       2.83307739       7.49265110      -0.39231210      -0.14054978      -0.73718096       0.67559171      -0.75986400      -0.27541600       0.58049004      -0.81331449      -0.27588554       0.58049004      -0.81331449      -0.27588554
C        2.46315696       4.25259837       7.45386454      -0.02981568       0.67885084       0.72213442      -1.23606827       1.63811468       0.55226880      -0.99281169       1.55154197       0.50871899      -0.99281169       1.55154197       0.50871899
C        3.70465591       4.92503531       7.52988114      -0.31697620      -0.04843083       0.60165510       0.40993739       1.07123530       0.26987112       0.42650231       1.03355107       0.30080467       0.42650231       1.03355107       0.30080467
18
Lattice="7.38 0.0 0.0 -3.69 6.391267479929157 0.0 0.0 -0.0 15.0" Properties=species:S:1:pos:R:3:momenta:R:3:mace_forces:R:3:forces:R:3:REF_forces:R:3 T=100.0 mace_forces_rms=0.5958611752582185 energy=-2792.1297841476253 REF_energy=-2792.1297841476253 pbc="T T T"
C       -0.00211092       0.02171494       7.51871551       0.03863200       0.43373789      -0.09712334      -0.41074354      -0.50087923      -0.02998714      -0.46102399      -0.52448036      -0.04853343      -0.46102399      -0.52448036      -0.04853343
C        1.24897808       0.70696009       7.52329064       0.10048066      -0.74284009       0.08419362      -1.54872538       0.27934762       0.22684252      -1.56160399       0.34298799       0.22277786      -1.56160399       0.34298799       0.22277786
C       -1.25016241       2.14621541       7.46714390       0.42131761       0.47727696      -0.06828293       0.37066935      -0.77871591       0.36809682       0.34372641      -0.72018296       0.39710071       0.34372641      -0.72018296       0.39710071
C        0.01203556       2.82304627       7.49953109      -0.43928407      -0.08474064       0.14937048      -1.09373726       0.27995906       0.23480460      -1.08363565       0.27689393       0.23138771      -1.08363565       0.27689393       0.23138771
C       -2.44714466       4.26411024       7.48749349      -0.20412675       0.48771622       0.17742719      -0.16359266       0.61942405       0.57828538      -0.16240553       0.63754540       0.58446471      -0.16240553       0.63754540       0.58446471
C       -1.20012588       4.96271364       7.49603388      -0.04644961      -0.35702268       0.51013195      -1.29814039       0.38586888      -0.23381115      -1.30054497       0.33725700      -0.22645557      -1.30054497       0.33725700      -0.22645557
C        2.44820118       0.00603385       7.50067094       0.10241081      -0.15751103       0.33923718       1.22024108      -0.67997418       0.07004558       1.25875426      -0.65985229       0.07136405       1.25875426      -0.65985229       0.07136405
C        3.67574052       0.72506544       7.48938329      -0.57156289       0.25503621      -0.56195617       0.12455537      -0.89705323      -0.45118647       0.14766951      -0.92591313      -0.44358703       0.14766951      -0.92591313      -0.44358703
C        1.23122516       2.12317377       7.56989891      -0.49799998       0.32789270       0.19454299       0.60385424      -0.00816154      -0.72508983       0.61240643      -0.00717209      -0.73483440       0.61240643      -0.00717209      -0.73483440
C        2.46837367       2.82328222       7.53175759       0.26141944       0.44986172      -0.20422248      -0.31934470       1.09045014       0.22345276      -0.32766524       1.02214258       0.23634634      -0.32766524       1.02214258       0.23634634
C        0.00185107       4.24264298       7.48476904       0.24807569       0.46280135       0.18773636       1.01514978       0.12680167      -0.13416811       0.98651686       0.10100322      -0.14451914       0.98651686       0.10100322      -0.14451914
C        1.23937250       4.95503895       7.45028069      -0.40069386      -0.28813198      -0.31123002      -0.21332024       0.27471651       0.46160236      -0.10696432       0.24234678       0.48318485      -0.10696432       0.24234678       0.48318485
C        4.89186983      -0.00834457       7.42146857       0.97612911       0.05098881      -0.18226890       0.56360318      -0.05408435       0.58107939       0.56869665      -0.03280291       0.59187540       0.56869665      -0.03280291       0.59187540
C        6.11385016       0.71117954       7.47688067       0.09867057      -0.53896318      -0.15641160       1.08540334       0.39178037      -0.18795510       1.06850856       0.32875205      -0.16698389       1.06850856       0.32875205      -0.16698389
C        3.69052275       2.13086874       7.48638700       0.06676889       0.32117142       0.02707637      -0.25264461       0.09443644       0.44742810      -0.30213573       0.10544711       0.41977090      -0.30213573       0.10544711       0.41977090
C        4.89959013       2.85797109       7.50798707       0.24441808      -0.79034369       0.44550797       0.95302602      -0.35762123      -0.59215253       1.02270385      -0.36536816      -0.60622190       1.02270385      -0.36536816      -0.60622190
C        2.48587169       4.26146317       7.54315710       0.03566398       0.06290339      -0.06523853      -0.76637107      -0.35073113      -0.44670870      -0.83882395      -0.24841690      -0.46982077      -0.83882395      -0.24841690      -0.46982077
C        3.70206155       4.98573659       7.54515062      -0.43386965      -0.36983340      -0.46849016       0.13011750       0.08443605      -0.39057849       0.13582084       0.08981249      -0.39731669       0.13582084       0.08981249      -0.39731669
18
Lattice="7.38 0.0 0.0 -3.69 6.391267479929157 0.0 0.0 -0.0 15.0" Properties=species:S:1:pos:R:3:momenta:R:3:mace_forces:R:3:forces:R:3:REF_forces:R:3 T=100.0 mace_forces_rms=0.7672352877190287 energy=-2792.0753741692442 REF_energy=-2792.0753741692442 pbc="T T T"
C       -0.02373007       0.01581543       7.53778274       0.21411701      -0.38851997      -0.22219150       0.04074702      -0.42118194      -0.07651710       0.05651233      -0.40650067      -0.09387740       0.05651233      -0.40650067      -0.09387740
C        1.21075411       0.70020874       7.54993937      -0.28985932       0.04442402       0.08908085       0.83268387       0.91306849      -0.10253222       0.85065848       0.83785387      -0.12184072       0.85065848       0.83785387      -0.12184072
C       -1.22494653       2.10529865       7.46149900      -0.03201651       0.07008773      -0.04040094      -1.14008727       1.13580861       0.60626079      -1.10904046       1.24189373       0.60491244      -1.10904046       1.24189373       0.60491244
C       -0.01315556       2.81264870       7.53299807       0.52945323      -0.45643905       0.40179166       1.32643121       0.73575234      -0.53212036       1.30930935       0.73274717      -0.52355785       1.30930935       0.73274717      -0.52355785
C       -2.43454682       4.28367613       7.49664679      -0.05191679      -0.50618932       0.49933608      -1.18485047      -0.63103656       0.25560804      -1.25876171      -0.63124388       0.25716457      -1.25876171      -0.63124388       0.25716457
C       -1.22419770       4.95360759       7.48710321      -0.17740210      -0.16743860       0.43037483       0.95645212       1.25095874       0.05901706       1.03398019       1.24948620       0.06323140       1.03398019       1.24948620       0.06323140
C        2.44941616      -0.00381180       7.51901168       0.10521894       0.05635987       0.31539641       0.36068569      -0.21610002      -0.25774309       0.36917339      -0.14430522      -0.26845788       0.36917339      -0.14430522      -0.26845788
C        3.69731197       0.69691284       7.46468708       0.50087215       0.04365433      -0.21393040      -1.19352052       1.47534623       0.10639288      -1.28546622       1.31053473       0.15226356      -1.28546622       1.31053473       0.15226356
C        1.24958445       2.13907602       7.53905594      -0.06221426      -0.12939347      -0.61422676      -1.30298793      -1.04873392       0.04714771      -1.30853853      -1.00139377       0.03836292      -1.30853853      -1.00139377       0.03836292
C        2.45630264       2.84231732       7.52069593      -0.51880777      -0.01036838       0.32840727       0.83935175       1.14208865       0.02738776       0.83797574       1.03256480       0.02912494       0.83797574       1.03256480       0.02912494
C        0.01409523       4.24248816       7.47778606       0.02311800       0.17334633       0.07337759      -0.55017661      -0.35735321       0.10783588      -0.51655674      -0.35034752       0.12450079      -0.51655674      -0.35034752       0.12450079
C        1.24629570       4.94803961       7.45544491      -0.29214518       0.47902535       0.18041776      -0.97356585       0.88761923       0.31347841      -1.04088515       0.85271151       0.29196728      -1.04088515       0.85271151       0.29196728
C        4.89826718      -0.01705545       7.43792913       0.03841448      -0.12102798      -0.01798100       0.39455591      -0.08526069       0.21966476       0.48095544      -0.06310156       0.20263995       0.48095544      -0.06310156       0.20263995
C        6.10641431       0.70579809       7.48582202      -0.00185819       0.17668491      -0.10424868       1.21824706      -0.41643063      -0.16949815       1.17483062      -0.50556167      -0.14803204       1.17483062      -0.50556167      -0.14803204
C        3.69736968       2.16306472       7.48604950      -0.08050405      -0.46008544       0.10691839       0.24062390      -1.62698383       0.10472492       0.28134811      -1.41472895       0.10257699       0.28134811      -1.41472895       0.10257699
C        4.93698518       2.86964185       7.49136699       0.10256314       0.92838694      -0.18576231      -0.32907680      -0.93934499      -0.33920861      -0.36449835      -1.02168903      -0.35442760      -0.36449835      -1.02168903      -0.35442760
C        2.47110956       4.29180598       7.52087619      -0.08881972       0.12396023      -0.54284570       0.25902243      -1.82564897      -0.20691753       0.30930988      -1.73049615      -0.19323254       0.30930988      -1.73049615      -0.19323254
C        3.69667049       4.98933977       7.53530539       0.08178694       0.14353250      -0.48351353       0.20546449       0.02743247      -0.16298114       0.17969337       0.01157639      -0.16331853       0.17969337       0.01157639      -0.16331853
18
Lattice="7.38 0.0 0.0 -3.69 6.391267479929157 0.0 0.0 -0.0 15.0" Properties=species:S:1:pos:R:3:momenta:R:3:mace_forces:R:3:forces:R:3:REF_forces:R:3 T=600.0 mace_forces_rms=1.7915885005947414 energy=-2790.9638700922033 REF_energy=-2790.9638700922033 pbc="T T T"
C       -0.06139440       0.06485359       7.47765243      -0.69361652      -0.38380115      -0.04079099       3.82524275      -1.81169727       0.01479076       3.80206097      -2.27953878       0.02569972       3.80206097      -2.27953878       0.02569972
C        1.27368446       0.72883042       7.51807025      -0.86218449      -0.88666706       0.38799955      -3.09696850       0.31918478       0.33889888      -2.59518977       0.48394178       0.30048637      -2.59518977       0.48394178       0.30048637
C       -1.18400357       2.09282710       7.50535301       0.66048452      -0.48328191      -0.27065446      -1.66788426       1.34142278       0.13880359      -1.67830096       1.63735023       0.14793408      -1.67830096       1.63735023       0.14793408
C        0.02310369       2.83388005       7.49912808       0.39230954      -0.21819211      -1.20172610      -0.26178245       0.54402152       0.10289500      -0.35874345       0.63567980       0.14111011      -0.35874345       0.63567980       0.14111011
C       -2.44775353       4.31276740       7.48959275      -1.02903053       0.00794705       0.38586230      -3.04468584      -4.51632756       0.44914738      -3.41525804      -3.66766195       0.34609311      -3.41525804      -3.66766195       0.34609311
C       -1.25933330       4.93880998       7.59733318      -0.43254298       0.28437332      -0.53503163       0.30483991       2.17868917       0.08656094       0.36839666       2.49441641       0.24217838       0.36839666       2.49441641       0.24217838
C        2.45453907      -0.01786115       7.64827733       0.01277430      -1.71958564      -0.20247614      -1.08672751       0.04533049      -0.84014533      -1.35102447       0.05406361      -0.81739663      -1.35102447       0.05406361      -0.81739663
C        3.62885959       0.68808371       7.59681897       0.94592459       1.00425558       0.36383867       3.01604809      -0.11124527      -0.42927319       3.18960440       0.15473362      -0.50207011       3.18960440       0.15473362      -0.50207011
C        1.28922911       2.17221797       7.46720948      -0.66981713      -0.19420210       0.00071799      -0.42335600      -1.69286471       0.24222935      -0.37212527      -1.67536759       0.23871664      -0.37212527      -1.67536759       0.23871664
C        2.52923088       2.83661599       7.44707135       0.41538077       0.71999188      -0.30998338      -1.47469353       0.76429587      -0.65899564      -1.49277504       0.73008377      -0.65876240      -1.49277504       0.73008377      -0.65876240
C       -0.08649715       4.25776405       7.57262635       2.02627954       0.42541687      -1.10345725       5.73554817      -0.32790911      -0.78369376       5.32513954      -1.15562911      -0.88383368       5.32513954      -1.15562911      -0.88383368
C        1.26179595       4.97267910       7.44048791      -0.04776279       0.61007018       0.64782504      -4.55215518      -1.05797242       0.29330819      -3.64567644      -0.54991140       0.39891103      -3.64567644      -0.54991140       0.39891103
C        4.89463848      -0.00355929       7.49608955       0.88560751      -0.47290730      -0.33896755      -0.12216892      -0.33261585       0.22335180      -0.07096939      -0.41157217       0.20327604      -0.07096939      -0.41157217       0.20327604
C        6.12032287       0.70454191       7.47696540       0.05709996      -0.63598227       2.22304914      -0.23106261       0.60987765      -0.06238055      -0.64933467       0.55069764      -0.05405204      -0.64933467       0.55069764      -0.05405204
C        3.72139600       2.10185224       7.47746682      -1.15061467       0.38889365      -0.01329447      -0.56831558      -0.10228580       0.69081332      -0.74692269      -0.26278834       0.71157028      -0.74692269      -0.26278834       0.71157028
C        4.94245918       2.77208717       7.52278005       0.57433540       0.46143486       0.01663877       0.71750538       4.58782860      -0.65107119       1.00148453       3.45124937      -0.67812923       1.00148453       3.45124937      -0.67812923
C        2.45086516       4.25144755       7.31685793      -1.30581479       0.56991126      -0.85525252       1.66353084       0.92598486       1.43241561       1.71520709       1.04805287       1.46266614       1.71520709       1.04805287       1.46266614
C        3.65885752       5.03103456       7.45021915       0.22118779       0.52232489       0.84570302       1.26708524      -1.36371772      -0.58765518       0.97442702      -1.23780002      -0.62439832       0.97442702      -1.23780002      -0.62439832
18
Lattice="7.38 0.0 0.0 -3.69 6.391267479929157 0.0 0.0 -0.0 15.0" Properties=species:S:1:pos:R:3:momenta:R:3:mace_forces:R:3:forces:R:3:REF_forces:R:3 T=300.0 mace_forces_rms=1.189870448555009 energy=-2791.658445291307 REF_energy=-2791.658445291307 pbc="T T T"
C        0.02075817       0.05427666       7.50001101       0.26470115      -0.28566687      -0.50940497      -1.68990013      -1.89270124       0.44438512      -1.73343698      -1.88394036       0.40412265      -1.73343698      -1.88394036       0.40412265
C        1.22962757       0.70427810       7.53104822       1.01533262       0.58751077       0.39364493       2.30385270       0.46234485      -0.95689847       2.12915727       0.62346115      -0.94981410       2.12915727       0.62346115      -0.94981410
C       -1.22349030       2.16203373       7.48239477       0.21893267      -0.15534513      -0.61232433      -1.99485199      -1.33165949       0.06994961      -1.92813814      -1.34962656       0.13088689      -1.92813814      -1.34962656       0.13088689
C       -0.01846276       2.85578546       7.40273525      -0.02575174      -0.33052263      -0.12761598       0.94567161       0.56492566       0.54382165       0.96051015       0.49794169       0.53534919       0.96051015       0.49794169       0.53534919
C       -2.46225663       4.29857445       7.44199417       0.23013310      -0.45434361      -0.63804836      -1.67020094      -1.10336954       0.62586322      -1.59615010      -0.98013435       0.67155543      -1.59615010      -0.98013435       0.67155543
C       -1.21991769       4.96713612       7.49060949       0.30808992       0.76666518      -0.32796424      -0.18265354       0.24732468      -0.55418674      -0.32585904       0.19836138      -0.53255697      -0.32585904       0.19836138      -0.53255697
C        2.50811598      -0.03644793       7.47624928      -0.82893449      -0.96446628      -0.96671267      -2.00274667       2.30223531       1.11572963      -1.61380149       2.28241353       1.13522278      -1.61380149       2.28241353       1.13522278
C        3.73349446       0.68938176       7.59763210      -0.40767362       0.37140070      -0.15172595      -0.83024134      -0.23713564      -0.58033679      -0.89269704      -0.28601980      -0.62614358      -0.89269704      -0.28601980      -0.62614358
C        1.21826459       2.13439281       7.45226322      -0.74028670       0.34088948       0.27093385      -0.93977690      -1.00876154       0.14383811      -1.13323789      -1.03718302       0.16583024      -1.13323789      -1.03718302       0.16583024
C        2.41738195       2.80249301       7.46039080      -0.41277702      -0.44515596      -0.21332511       2.56315388       0.66650491      -0.02591509       2.58275154       0.83149682       0.00687307       2.58275154       0.83149682       0.00687307
C        0.00707435       4.29752711       7.45724753       0.49995595      -0.07922843       0.39971229      -0.53093113      -2.52852960       0.14017597      -0.40319526      -2.52164953       0.06749069      -0.40319526      -2.52164953       0.06749069
C        1.23023148       4.93792521       7.53723587      -0.82747568       0.83156745       0.19507710       0.58439660       0.91546773      -0.12185479       0.55684130       0.88106100      -0.05254744       0.55684130       0.88106100      -0.05254744
C        4.94920361      -0.03341400       7.63940622      -0.64668003      -0.15442064       0.95699289      -0.04048705       0.70245170      -0.70999060       0.00604235       0.77084141      -0.70950594       0.00604235       0.77084141      -0.70950594
C        6.14698610       0.71096246       7.55033688       0.16685677       0.44585189       0.16555518       0.71430276       1.50229994       0.06981002       0.56851976       1.44914342       0.03018295       0.56851976       1.44914342       0.03018295
C        3.69461547       2.10985128       7.51361824       0.53215760       0.13549034       1.23375779      -1.29390659       0.02084506       0.28491109      -1.12800775      -0.07683922       0.25737025      -1.12800775      -0.07683922       0.25737025
C        4.87576789       2.84262112       7.50327370       0.53692301       0.10167816       0.25094564       2.02879381       1.35722753      -0.38618877       1.93527552       1.28449460      -0.38464397       1.93527552       1.28449460      -0.38464397
C        2.44296354       4.21561098       7.46661648      -0.40377983      -0.17290093      -0.32168842       0.90845424       1.75433747       0.33942232       0.83605693       1.66750490       0.32974424       0.83605693       1.66750490       0.32974424
C        3.65964221       5.02588402       7.49693676       0.52027629      -0.53900349       0.00219037       1.12707068      -2.39380778      -0.44253549       1.17936888      -2.35132758      -0.47941664       1.17936888      -2.35132758      -0.47941664
18
Lattice="7.38 0.0 0.0 -3.69 6.391267479929157 0.0 0.0 -0.0 15.0" Properties=species:S:1:pos:R:3:momenta:R:3:mace_forces:R:3:forces:R:3:REF_forces:R:3 T=600.0 mace_forces_rms=1.4449160957466365 energy=-2791.0691161058076 REF_energy=-2791.0691161058076 pbc="T T T"
C       -0.05196229      -0.03274037       7.62709863       0.63911520      -0.86269185      -0.30035951       1.13431555       0.91703750      -0.74255807       1.06491288       0.70405521      -0.84197175       1.06491288       0.70405521      -0.84197175
C        1.19030453       0.67946865       7.70230855       1.26932728      -0.04144445      -0.30124612       1.07963306      -1.77924596      -1.09556035       1.04468961      -1.72743294      -1.10712576       1.04468961      -1.72743294      -1.10712576
C       -1.19411447       2.19935324       7.50945688      -1.16911187       0.50594367      -0.80445823      -0.84953096      -3.13913205       0.01454680      -0.85333551      -3.05056685       0.10784492      -0.85333551      -3.05056685       0.10784492
C        0.05062360       2.78442080       7.41518966      -0.14141331       0.58029647       0.62202355      -0.75590258       2.96129521       0.86236189      -0.71730513       2.76902797       0.68509821      -0.71730513       2.76902797       0.68509821
C       -2.40594121       4.27284847       7.42937095       1.89612670       0.90139537       0.75236903      -3.22182835       0.37677045      -0.82573123      -3.39001494       0.35477341      -0.81503096      -3.39001494       0.35477341      -0.81503096
C       -1.21085451       4.93081152       7.38005651       0.70564332       0.38442894       0.57963570       1.35948761       0.76704054       1.01037852       1.75527953       1.11358772       0.91711378       1.75527953       1.11358772       0.91711378
C        2.42663093      -0.07142111       7.54747877       0.76994917      -0.48677019       0.45090498       1.41509235       3.14447600       0.40287672       1.16442768       2.93429205       0.48051398       1.16442768       2.93429205       0.48051398
C        3.67729738       0.72350246       7.60175876       0.16181331       0.74245186       0.18437225      -2.02834992       0.12221139      -0.58854948      -1.93078895       0.25061700      -0.71912341      -1.93078895       0.25061700      -0.71912341
C        1.21941738       2.07264923       7.58722262       1.36463095      -0.57077752       0.47869729       2.01426010       1.22916781      -0.64155492       1.91273543       1.04230080      -0.63683783       1.91273543       1.04230080      -0.63683783
C        2.45453797       2.84729308       7.43384618      -1.40888152      -1.71796842      -0.41041835      -0.96021704      -0.14007996       0.34569579      -0.79479741      -0.20988815       0.34604452      -0.79479741      -0.20988815       0.34604452
C        0.04958404       4.23513170       7.39044526      -1.24391049       0.63597716      -0.82646881      -1.27678135      -0.44064128       0.03247710      -1.33911177      -0.33266450      -0.00932076      -1.33911177      -0.33266450      -0.00932076
C        1.21341021       4.97938585       7.48384129       0.05172411       0.06475732      -0.82922574       0.73752110       1.71611654      -0.47208644       0.79378928       1.64663345      -0.25250496       0.79378928       1.64663345      -0.25250496
C        4.88285806       0.05174226       7.59416718       0.46453518       0.90764544       0.38125174       1.69208056      -1.58905576      -0.31701560       1.70214897      -1.61088458      -0.37621847       1.70214897      -1.61088458      -0.37621847
C        6.15407975       0.73999027       7.60132296      -1.00666243      -0.39521576      -0.15113548      -1.72364546       0.32375049       0.04883334      -1.54449535       0.25059617      -0.03878072      -1.54449535       0.25059617      -0.03878072
C        3.66738513       2.16656354       7.48751138       0.25666786      -0.25625710      -0.19114674       2.41247944      -0.01328065       0.40551450       1.89642281      -0.21602563       0.47875098       1.89642281      -0.21602563       0.47875098
C        4.97167538       2.91353910       7.46998632      -1.93225578       0.23085662       0.79673921      -2.52398656      -3.13339738      -0.17312375      -2.05356966      -3.13168747      -0.06122799      -2.05356966      -3.13168747      -0.06122799
C        2.44541514       4.29643739       7.36539920       0.34165930      -0.33212501      -0.44149164      -0.01161378      -2.12474574       0.41920640      -0.09455772      -1.99849278       0.44776224      -0.09455772      -1.99849278       0.44776224
C        3.66965297       4.94989627       7.37353892      -1.01895701      -0.29050255       0.00995686       1.50698624       0.80171285       1.31428877       1.38357052       1.21175861       1.39501450       1.38357052       1.21175861       1.39501450
18
Lattice="7.38 0.0 0.0 -3.69 6.391267479929157 0.0 0.0 -0.0 15.0" Properties=species:S:1:pos:R:3:momenta:R:3:mace_forces:R:3:forces:R:3:REF_forces:R:3 T=600.0 mace_forces_rms=1.6189980591730717 energy=-2790.916758479089 REF_energy=-2790.916758479089 pbc="T T T"
C        0.00708671      -0.00234835       7.66218892      -1.10549468      -0.20478711      -0.51659933      -0.13246196      -1.05675179      -0.27266750       0.00566851      -0.92449054      -0.29328188       0.00566851      -0.92449054      -0.29328188
C        1.20012464       0.73218685       7.53181938      -0.24624263       0.64152863      -0.75225292       0.87673185      -0.21971868      -0.04087773       0.74701834      -0.15190283      -0.06299357       0.74701834      -0.15190283      -0.06299357
C       -1.25665273       2.09287833       7.52135559       0.58021289       0.17470783       0.25440939       0.78904296       0.03134260      -0.09120316       0.90434851       0.24186882      -0.14806366       0.90434851       0.24186882      -0.14806366
C       -0.01864631       2.84477845       7.35094136       0.03138531      -0.12803820      -0.17944395      -1.92414428       0.33835197       0.34768325      -2.14517087       0.31584948       0.43864151      -2.14517087       0.31584948       0.43864151
C       -2.46640674       4.26869800       7.43023853      -0.14118118       0.73073649      -0.30046047       0.78809501       0.01746955       1.11855888       0.54585111       0.07950545       1.17951723       0.54585111       0.07950545       1.17951723
C       -1.20261459       4.97446966       7.37834803      -0.92589458      -1.02609607      -0.75766504      -1.42781230       2.32240942       0.58859955      -1.32878699       1.88918284       0.74909013      -1.32878699       1.88918284       0.74909013
C        2.46038394       0.07544466       7.51542892      -0.87456534       0.37956212      -0.18054612       0.47661297      -3.13600413      -0.63949391       0.63132487      -2.66735189      -0.72241828       0.63132487      -2.66735189      -0.72241828
C        3.74486459       0.69925837       7.51534847      -0.59399896      -0.49429974      -0.07137014      -2.09447065       1.17035281       0.36170908      -2.12581098       1.02254495       0.34449311      -2.12581098       1.02254495       0.34449311
C        1.15124502       2.13325249       7.38009273      -0.05094261       1.21584224       0.36622843       3.51842744       0.72856681       0.85555948       3.47787314       0.38603520       0.92292473       3.47787314       0.38603520       0.92292473
C        2.42533579       2.84657155       7.48259625       1.13823368       1.04342842       0.77958089       1.88483839      -0.34370812      -0.89490502       1.56106637      -0.15863038      -0.92853231       1.56106637      -0.15863038      -0.92853231
C        0.02590077       4.29596837       7.32574108      -0.47380243      -0.85940979       0.51717927      -0.36814579      -1.80296129       0.43842436      -0.38392844      -1.57650250       0.45556940      -0.38392844      -1.57650250       0.45556940
C        1.27777452       4.97249871       7.48073524       1.36966866       0.14225630       1.14648557      -2.59056490      -1.07481004      -0.32773484      -2.86462338      -1.47832673      -0.46126748      -2.86462338      -1.47832673      -0.46126748
C        4.90665143      -0.07481944       7.60500244       0.66469768      -2.23704960      -1.34788194       1.67509491       2.56091646      -0.30480874       1.53498073       3.07109017      -0.17875003       1.53498073       3.07109017      -0.17875003
C        6.15301246       0.62444356       7.65970067       0.42382758       0.17466800       0.01853169      -0.87556287       3.59617861      -0.40895734      -0.89631407       3.36978730      -0.49682326      -0.89631407       3.36978730      -0.49682326
C        3.75361055       2.14638160       7.50503836       0.74854793      -0.01224680       0.04834209      -5.11364424      -0.95122796       0.43776179      -5.25558812      -1.56531383       0.40383212      -5.25558812      -1.56531383       0.40383212
C        4.89672792       2.83762509       7.52892970      -0.45335245      -0.79749248      -0.37261338       2.61437237       0.77504129      -0.78258671       3.18472058       1.30429492      -0.76086990       3.18472058       1.30429492      -0.76086990
C        2.47533943       4.30439296       7.48081964      -0.63498946       0.99150580       0.19508791      -0.34568919      -3.52597168       0.95686323      -0.04570702      -3.51240665       0.91341191      -0.04570702      -3.51240665       0.91341191
C        3.67626259       4.96719150       7.64567469       0.54389057       0.26518395       1.15298806       2.24928029       0.57052416      -1.34192466       2.45307744       0.35476596      -1.35447977       2.45307744       0.35476596      -1.35447977
18
Lattice="7.38 0.0 0.0 -3.69 6.391267479929157 0.0 0.0 -0.0 15.0" Properties=species:S:1:pos:R:3:momenta:R:3:mace_forces:R:3:forces:R:3:REF_forces:R:3 T=300.0 mace_forces_rms=1.1931080233184765 energy=-2791.585889945823 REF_energy=-2791.585889945823 pbc="T T T"
C       -0.02243798      -0.03933214       7.34726539      -0.60441794       0.56368558      -0.74619515       2.15750288       2.93641514       1.73201003       1.77648470       2.84038302       1.72979810       1.77648470       2.84038302       1.72979810
C        1.22860237       0.72202859       7.44662772       0.95811967      -0.06469965       0.24899972      -0.75991064      -0.30202250      -0.50437808      -0.54354586      -0.13823999      -0.58014192      -0.54354586      -0.13823999      -0.58014192
C       -1.26694754       2.12133416       7.55531340      -0.38486489      -0.54085081      -0.45733157       1.97456612       0.62517690      -0.56742812       1.75951851       0.62780271      -0.52674448       1.75951851       0.62780271      -0.52674448
C        0.01287953       2.83043666       7.53596806       0.67470433       0.41574623       0.38644813      -1.21661179       0.25930389      -0.02863359      -1.14074114       0.42783362      -0.02404521      -1.14074114       0.42783362      -0.02404521
C       -2.47210046       4.25183945       7.41477227      -1.35212368       0.38402712       0.96396851       0.06928996       0.19981251       1.32574523       0.24900594       0.13323302       1.30254940       0.24900594       0.13323302       1.30254940
C       -1.26295419       4.98293316       7.55008526      -0.05782106       0.22730071      -0.08183895       0.78408949      -0.80068997      -1.07159262       0.68141690      -0.89265874      -1.05898546       0.68141690      -0.89265874      -1.05898546
C        2.43826249       0.01485970       7.49056509       0.46489494       0.48230022       0.65271725       1.21126532      -0.29639237       0.18393798       1.15574275      -0.24484255       0.25909624       1.15574275      -0.24484255       0.25909624
C        3.69273888       0.71236420       7.50486798       0.99959865      -1.09705190      -0.75344897       0.82767768      -1.17692095       0.14122323       0.47977659      -0.92371046       0.14861619       0.47977659      -0.92371046       0.14861619
C        1.27379117       2.14966898       7.48512788      -0.79135636      -0.89863724       0.12676125      -1.17919504      -0.50163339       0.26084878      -1.07517441      -0.54926811       0.22078346      -1.07517441      -0.54926811       0.22078346
C        2.51973101       2.85009080       7.53207564      -0.14465670       0.47063270       0.25232497      -2.91256848       0.84039613       0.18769199      -3.16452740       0.91600384       0.24695369      -3.16452740       0.91600384       0.24695369
C       -0.03622557       4.25095595       7.55209937      -0.13858989      -0.02023884      -0.29632943       1.40114528       0.95204513      -0.13139529       1.17752874       0.74809460      -0.18987520       1.17752874       0.74809460      -0.18987520
C        1.23086769       4.98417184       7.50179466       0.49702664      -0.51865132       0.60368109      -0.37672055      -1.77616887       0.70977532      -0.15254689      -1.77926355       0.71252751      -0.15254689      -1.77926355       0.71252751
C        4.97823166      -0.02869577       7.49736565       0.00723132      -1.03141894      -0.65071200      -3.61687977       2.15564987       0.13883516      -3.24957512       2.03557554       0.09564632      -3.24957512       2.03557554       0.09564632
C        6.16495545       0.70921360       7.50653687      -0.32447813       0.90442072      -0.24604181      -0.36669424      -0.53825384      -0.62114793      -0.14846527      -0.64355535      -0.60598639      -0.14846527      -0.64355535      -0.60598639
C        3.68070065       2.12771420       7.52268603      -0.50987243      -0.26439460      -0.53998810       0.97120467      -0.70119440      -0.25998081       1.04617519      -0.99427130      -0.29323946       1.04617519      -0.99427130      -0.29323946
C        4.88158354       2.83809326       7.48987298       0.25317635       0.82355551       0.49295704       1.84098825      -0.03093098       0.26496800       2.04601422       0.08473070       0.22844817       2.04601422       0.08473070       0.22844817
C        2.47037384       4.28969404       7.58335937      -0.05309690       0.08203920      -0.09530865      -0.10620136      -1.51847138      -0.96255816      -0.12685052      -1.40767847      -0.91556881      -0.12685052      -1.40767847      -0.91556881
C        3.69794745       4.97150169       7.48361637       0.50652607       0.08223530       0.13933666      -0.70294779      -0.32612091      -0.79792113      -0.77023720      -0.24016880      -0.74983216      -0.77023720      -0.24016880      -0.74983216
18
Lattice="7.38 0.0 0.0 -3.69 6.391267479929157 0.0 0.0 -0.0 15.0" Properties=species:S:1:pos:R:3:momenta:R:3:mace_forces:R:3:forces:R:3:REF_forces:R:3 T=100.0 mace_forces_rms=0.7542623414561349 energy=-2792.091614739477 REF_energy=-2792.091614739477 pbc="T T T"
C       -0.00967355       0.02297599       7.53286050       0.40581669      -0.38414959      -0.19770355      -0.18684634      -1.10429936      -0.23872972      -0.14061697      -1.01742409      -0.22694073      -0.14061697      -1.01742409      -0.22694073
C        1.20860361       0.72068508       7.49613702      -0.34276525      -0.23423421      -0.04719892       1.20833085      -0.35173857       0.12444488       1.11314832      -0.37913950       0.12072306       1.11314832      -0.37913950       0.12072306
C       -1.21026371       2.12364066       7.49490214       0.44426109       0.21711145      -0.04075537      -1.60696710       0.82295136      -0.17109196      -1.49373509       0.74156914      -0.21464135      -1.49373509       0.74156914      -0.21464135
C        0.01345088       2.82484022       7.51169225       0.06243512      -0.67978721      -0.26261370      -0.57811177       0.81624389      -0.00301532      -0.57280810       0.78873140       0.00156066      -0.57280810       0.78873140       0.00156066
C       -2.44964387       4.26524118       7.50216243      -0.23486596      -0.24426176      -0.29441665      -0.34994608       0.08317206      -0.18501991      -0.39672122       0.14985443      -0.17916501      -0.39672122       0.14985443      -0.17916501
C       -1.22871597       4.95521412       7.49560744      -0.46550264      -0.35117309       0.09090079       0.29955946       0.77623666       0.05792495       0.34122473       0.82593321       0.05523604       0.34122473       0.82593321       0.05523604
C        2.44974284      -0.01365866       7.47360606       0.16912162       0.50817861      -0.47482803       0.03448843       0.54206705       0.21867942       0.08492251       0.48205099       0.20882063       0.08492251       0.48205099       0.20882063
C        3.69843684       0.68802806       7.47381196       0.25181068       0.30410971       0.25725873      -1.02622997       1.22880400      -0.03866282      -1.03062953       1.10932251      -0.02247067      -1.03062953       1.10932251      -0.02247067
C        1.23495755       2.14007599       7.50423761      -0.16359768      -0.02252807       0.12364996      -0.28609331      -0.70323221       0.09358627      -0.35851822      -0.70781082       0.08441009      -0.35851822      -0.70781082       0.08441009
C        2.43734043       2.84238843       7.51060963      -0.27170223       0.32031008      -0.09141617       1.88352652       0.29856718      -0.35697171       1.93379431       0.40744580      -0.36701392       1.93379431       0.40744580      -0.36701392
C       -0.00558956       4.25162447       7.51994225       0.06090222       0.50815263       0.27604330       0.89080288      -0.17264601       0.10675008       0.92073313      -0.14296696       0.13816131       0.92073313      -0.14296696       0.13816131
C        1.24638119       4.95727379       7.55779923      -0.33616481      -0.17966848      -0.05448695      -1.30624699       0.49311917      -0.98715552      -1.37014910       0.51803306      -0.98560026      -1.37014910       0.51803306      -0.98560026
C        4.90724955      -0.01443460       7.47421966      -0.03563876      -0.02607542       0.18914759       0.58284370       0.13426510       0.57716387       0.57004520       0.10244843       0.58360365       0.57004520       0.10244843       0.58360365
C        6.12388429       0.71953455       7.50427771      -0.09147997      -0.47733926       0.46323995       0.80832524      -0.58920392      -0.06414325       0.80567292      -0.55182816      -0.05288836       0.80567292      -0.55182816      -0.05288836
C        3.70090829       2.14209924       7.48883305       0.87070997       0.10081102      -0.24753841      -0.85946450      -0.69348840      -0.20387177      -0.75539911      -0.55590541      -0.18844875      -0.75539911      -0.55590541      -0.18844875
C        4.91660006       2.86866864       7.46030706      -0.02041357      -0.00497888       0.76721160       0.91657517      -1.64561079       0.44714150       0.73169122      -1.70711325       0.45979552       0.73169122      -1.70711325       0.45979552
C        2.46039592       4.27367038       7.47746573      -0.16177826       0.13048306      -0.09281522       0.91560558      -0.81281975       0.89563779       0.94444152      -0.86565367       0.86699707       0.94444152      -0.86565367       0.86699707
C        3.71593519       4.97100482       7.52152827      -0.14114824       0.51503941      -0.36367894      -1.34015178       0.87761253      -0.27266678      -1.32709624       0.80245312      -0.28213898      -1.32709624       0.80245312      -0.28213898
18
Lattice="7.38 0.0 0.0 -3.69 6.391267479929157 0.0 0.0 -0.0 15.0" Properties=species:S:1:pos:R:3:momenta:R:3:mace_forces:R:3:forces:R:3:REF_forces:R:3 T=300.0 mace_forces_rms=1.118906795105133 energy=-2791.6799096309 REF_energy=-2791.6799096309 pbc="T T T"
C        0.03027785      -0.02706454       7.53724875      -0.20439465      -0.05978007       0.37066977      -1.50275117       2.15736838       0.42033480      -1.26433304       2.12036564       0.42335682      -1.26433304       2.12036564       0.42335682
C        1.21449659       0.72436814       7.53909354       0.49069539       0.68535880       0.04065923       1.77887329      -0.92122982      -0.32550401       1.74172493      -1.03037088      -0.34953119       1.74172493      -1.03037088      -0.34953119
C       -1.23246817       2.14447198       7.50011317       0.03814171      -0.49779518      -0.38987349      -0.17166832      -1.19071213       0.53200562      -0.28350809      -1.21511132       0.49353328      -0.28350809      -1.21511132       0.49353328
C        0.00382658       2.81962101       7.45702034       0.35808147       0.27175373      -0.86828468      -0.52488362       0.93709354       0.01558369      -0.44508804       0.95932050      -0.01487049      -0.44508804       0.95932050      -0.01487049
C       -2.47327056       4.24523183       7.47316819       0.10993076      -0.00018465       0.08839756       1.82269368      -0.68553311      -0.29024862       2.18824045      -0.72565736      -0.30224835       2.18824045      -0.72565736      -0.30224835
C       -1.22694846       4.93288669       7.34571386       0.96965083      -0.43230225       0.82299734      -0.41387384       1.35574295       0.67240054      -0.52660255       1.23730534       0.73934771      -0.52660255       1.23730534       0.73934771
C        2.46722221      -0.01101687       7.42315416       0.25462853       0.62543571       0.31635397      -0.50258862       0.04191054       0.38683271      -0.50618876       0.10964624       0.37185659      -0.50618876       0.10964624       0.37185659
C        3.69500526       0.71660608       7.51495765      -0.88269404       0.03686878      -0.64948368      -1.05874100       0.56515767       0.35276275      -1.02632962       0.51890158       0.34713724      -1.02632962       0.51890158       0.34713724
C        1.22952314       2.15100363       7.56209610      -0.12953232       0.43436824      -0.52859935      -0.49134784      -1.44374900      -0.66857136      -0.54741357      -1.33987539      -0.56540718      -0.54741357      -1.33987539      -0.56540718
C        2.43618156       2.83229077       7.50757209      -0.53871090      -0.86103508       0.07989705       0.94499717       2.73515379       0.11884421       0.96192734       2.49214561       0.00198206       0.96192734       2.49214561       0.00198206
C       -0.01125599       4.22596695       7.36173735      -0.35690169       0.97438111       0.38478430       1.21341138       1.00227593       0.65953060       1.24909539       0.99086459       0.73159712       1.24909539       0.99086459       0.73159712
C        1.22843629       4.96641012       7.50504129       0.09707054      -0.27914491      -0.02335529      -0.23242983       1.37170944      -0.68937571      -0.20239647       1.05437701      -0.65973376      -0.20239647       1.05437701      -0.65973376
C        4.91441802       0.04033082       7.59853098       0.31450793      -2.44190767       0.33310439       0.32115640      -2.13465979      -0.63073665       0.30774922      -1.87525055      -0.61264889       0.30774922      -1.87525055      -0.61264889
C        6.14726097       0.72567339       7.60503534      -0.73012332       0.63658062       0.07027180       1.10291888      -0.94522520      -0.45427858       0.87366497      -0.80592103      -0.51773610       0.87366497      -0.80592103      -0.51773610
C        3.66544093       2.15754364       7.57221790       0.13659828       0.16956000      -0.51576120       0.28153977      -1.82793453      -0.44790380       0.29966876      -1.79444669      -0.45287308       0.29966876      -1.79444669      -0.45287308
C        4.90018015       2.82017521       7.53513326       0.63941526      -0.16100834       0.36691726       0.39120797       1.22098720      -0.29240078       0.43516821       1.11994914      -0.28994382       0.43516821       1.11994914      -0.28994382
C        2.47052751       4.30615765       7.44028841       0.38247435       0.63992917      -0.10976526       0.05018128      -2.32001916       1.14160451      -0.06785038      -2.02348827       1.14439185      -0.06785038      -2.02348827       1.14439185
C        3.75114613       4.96821586       7.52187760      -0.94883816       0.25892198       0.21107026      -3.00869558       0.08166331      -0.50087993      -3.18752900       0.20724531      -0.48821007      -3.18752900       0.20724531      -0.48821007
18
Lattice="7.38 0.0 0.0 -3.69 6.391267479929157 0.0 0.0 -0.0 15.0" Properties=species:S:1:pos:R:3:momenta:R:3:mace_forces:R:3:forces:R:3:REF_forces:R:3 T=300.0 mace_forces_rms=0.9596270263231415 energy=-2791.7960614229305 REF_energy=-2791.7960614229305 pbc="T T T"
C       -0.00592496       0.04321483       7.44081405       0.36170573       0.03636607       0.32364795       0.47295805      -1.26888349       0.25410840       0.54750845      -1.20838300       0.26328456       0.54750845      -1.20838300       0.26328456
C        1.25555974       0.71435516       7.45582936       1.34784254       0.76135677      -0.14434677      -1.51965468      -0.34772864       0.18697064      -1.57459757      -0.36253480       0.18087582      -1.57459757      -0.36253480       0.18087582
C       -1.24281745       2.15812717       7.45491965       0.78150767       0.32902620      -0.42303624       0.31717046      -0.69401744       1.31436967       0.36523446      -0.67358403       1.33727266       0.36523446      -0.67358403       1.33727266
C        0.00738588       2.87027209       7.62874995      -0.77244737       0.16813734       0.84242943      -1.12577135      -0.60434796      -1.64341018      -1.10395919      -0.66885655      -1.71489444      -1.10395919      -0.66885655      -1.71489444
C       -2.48415243       4.27030045       7.44436123       0.76872066       0.16694631      -0.28877903       1.76204304      -0.25435594       0.26918009       1.51448903      -0.23419150       0.31018740       1.51448903      -0.23419150       0.31018740
C       -1.20966674       4.99780663       7.44232369      -0.75655035       0.33156608       0.59119667      -1.69003348      -2.13886685       0.29395121      -1.46903193      -2.27447859       0.29392851      -1.46903193      -2.27447859       0.29392851
C        2.46996348      -0.02743573       7.44967404       0.31206209       0.03888228       0.54471295       0.44636120       2.17934086       0.18335483       0.41609577       2.40466331       0.15951433       0.41609577       2.40466331       0.15951433
C        3.71511079       0.69595545       7.52990207      -1.26416738       0.32185034       0.29755445      -0.85607922      -0.77167503       0.10198098      -0.74385074      -0.80697672       0.12712691      -0.74385074      -0.80697672       0.12712691
C        1.20846295       2.12333080       7.55340208       0.37127893       0.50137994      -0.31512755       0.74837260       0.24307452       0.10928760       0.61047065       0.28158696       0.14208790       0.61047065       0.28158696       0.14208790
C        2.44242693       2.79780335       7.53393413      -1.66948287      -0.93441148       1.09251967       0.85492363       1.48034035      -0.24086074       0.87023229       1.59133365      -0.29364389       0.87023229       1.59133365      -0.29364389
C        0.01693294       4.29878814       7.53696529       1.52948650      -0.03680167       0.80936457      -0.86113171      -1.71793799       0.22255788      -1.02095627      -1.83463226       0.25489994      -1.02095627      -1.83463226       0.25489994
C        1.22737824       4.94664553       7.52685676      -1.13536258      -1.13421179      -0.63864112       1.76406351       0.97597422      -0.15812788       1.95285390       1.00796526      -0.20493389       1.95285390       1.00796526      -0.20493389
C        4.93647726      -0.01903692       7.55987356       0.58943113       0.43369355      -0.12436879      -0.56988852       0.22748745      -0.65846351      -0.63796706       0.28193689      -0.63603513      -0.63796706       0.28193689      -0.63603513
C        6.12619467       0.71993866       7.48919393      -0.00438910      -0.08344488      -0.63402050       1.43339141       0.69588539      -0.08023707       1.39794221       0.74445752      -0.11254078       1.39794221       0.74445752      -0.11254078
C        3.68165863       2.09971780       7.54779446      -0.14288576       0.30700417       0.04714963      -0.08016444       0.20976551      -0.34407423      -0.01199471       0.26864094      -0.34528501      -0.01199471       0.26864094      -0.34528501
C        4.89446204       2.82024583       7.50351882       0.87632507       0.09473430      -0.47303454       0.33600922       1.87111590      -0.36158368       0.28596092       1.68436388      -0.37325425       0.28596092       1.68436388      -0.37325425
C        2.47147489       4.23324758       7.44347221      -0.72553039      -0.26222528      -0.82531716      -0.31953717       0.36839967       1.01513811      -0.43016176       0.23764629       1.02656847      -0.43016176       0.23764629       1.02656847
C        3.69907313       4.99559553       7.45841473      -0.46754452      -1.03984826      -0.68190362      -1.11303254      -0.45357053      -0.46414215      -0.96826871      -0.43895647      -0.41515860      -0.96826871      -0.43895647      -0.41515860
18
Lattice="7.38 0.0 0.0 -3.69 6.391267479929157 0.0 0.0 -0.0 15.0" Properties=species:S:1:pos:R:3:momenta:R:3:mace_forces:R:3:forces:R:3:REF_forces:R:3 T=100.0 mace_forces_rms=0.7049381539166362 energy=-2792.0688722811838 REF_energy=-2792.0688722811838 pbc="T T T"
C        0.02293618      -0.00278615       7.44388317      -0.42571040      -0.10870029      -0.07025851      -0.60984834       0.03616157      -0.05071037      -0.58767396       0.02377062      -0.04754895      -0.58767396       0.02377062      -0.04754895
C        1.23850327       0.74281642       7.44809012      -0.01134345       0.68075703      -0.20330477      -0.09509521      -1.87521119       0.05066196      -0.07802861      -1.98061204       0.10229494      -0.07802861      -1.98061204       0.10229494
C       -1.25537457       2.14721010       7.52800838      -0.17400355      -0.05178129       0.29658034       1.65369303      -0.77982617      -0.12384065       1.65444395      -0.83175624      -0.14323924       1.65444395      -0.83175624      -0.14323924
C        0.00251715       2.85415021       7.54242286       0.09916927       0.44277075       0.04905401      -0.67285559       0.16541622      -0.73138444      -0.57544734       0.16668488      -0.76695622      -0.57544734       0.16668488      -0.76695622
C       -2.45360396       4.25446933       7.53639681       0.05670582      -0.14536945      -0.00471848      -0.25545590      -0.65727945      -0.46526943      -0.27337409      -0.68291920      -0.44932625      -0.27337409      -0.68291920      -0.44932625
C       -1.24756050       4.96114444       7.54003355       0.09502504       0.12382936      -0.33349138       0.95537073       0.79203191       0.15487011       1.00952232       0.81669395       0.13609235       1.00952232       0.81669395       0.13609235
C        2.45639090      -0.00710334       7.52614259      -0.10389080      -0.30273602      -0.24843831      -0.40124864       0.25964543      -0.29680151      -0.46195756       0.26531779      -0.31559751      -0.46195756       0.26531779      -0.31559751
C        3.67682582       0.69961429       7.53051957       0.17036860       0.01814270       0.35413423       0.76807422      -0.30162092      -0.04385491       0.77019401      -0.26455597      -0.03283942       0.77019401      -0.26455597      -0.03283942
C        1.22929441       2.13440634       7.41986799      -0.20922737      -0.35394138      -0.53028626      -0.67393751       0.76286305       0.82946708      -0.74472492       0.87328444       0.85166147      -0.74472492       0.87328444       0.85166147
C        2.44208932       2.84262438       7.45784656      -0.11929275       0.12860310       0.16834488       0.97142157      -0.86930399      -0.13288553       0.95478173      -0.91489286      -0.13506391       0.95478173      -0.91489286      -0.13506391
C        0.00451680       4.28979725       7.53968924       0.16819976      -0.89704284      -0.43474612      -0.16655877      -1.09578824       0.38745130      -0.16045304      -1.10945467       0.37522705      -0.16045304      -1.10945467       0.37522705
C        1.23584909       4.99055727       7.55192159       0.39306723      -0.06736172       0.43861096       0.52485846      -0.82135524      -0.58092409       0.52239237      -0.84521443      -0.60479314       0.52239237      -0.84521443      -0.60479314
C        4.93486179       0.00679272       7.53576669      -0.67059943      -0.56449095       0.15602393      -0.50622382       0.01493285      -0.17181953      -0.45024619       0.02793606      -0.17666770      -0.45024619       0.02793606      -0.17666770
C        6.15756362       0.70799008       7.46373497      -0.43845880      -0.37345164       0.02472185       0.23616484       0.46915446       0.41349869       0.19175159       0.47049902       0.41432890       0.19175159       0.47049902       0.41432890
C        3.67247133       2.10085150       7.49361652       0.74416242       0.24991549       0.22738089       0.17929456       1.40371039       0.05206213       0.18067245       1.37998640       0.03047863       0.18067245       1.37998640       0.03047863
C        4.90833971       2.83376512       7.53169582       0.16625605       0.31828518      -0.20594572      -0.57942393      -0.21845688       0.01781112      -0.59073923      -0.19187449       0.02326848      -0.59073923      -0.19187449       0.02326848
C        2.46569683       4.23461236       7.46486606       0.07878961       0.32724640      -0.03843010       0.00620424       1.75734132       0.23165478      -0.02191685       1.81014327       0.27801467      -0.02191685       1.81014327       0.27801467
C        3.71868281       4.94796006       7.44549752       0.18078275       0.57532556       0.35476856      -1.33443394       0.95758488       0.46001327      -1.33919688       0.98696346       0.46066635      -1.33919688       0.98696346       0.46066635
18
Lattice="7.38 0.0 0.0 -3.69 6.391267479929157 0.0 0.0 -0.0 15.0" Properties=species:S:1:pos:R:3:momenta:R:3:mace_forces:R:3:forces:R:3:REF_forces:R:3 T=300.0 mace_forces_rms=1.205385535717335 energy=-2791.570611570124 REF_energy=-2791.570611570124 pbc="T T T"
C        0.01127691      -0.02076180       7.61151534       0.89288702       0.32129492      -0.45314156      -0.63125097       0.04521560      -0.93749274      -0.36926286      -0.05123052      -1.00501594      -0.36926286      -0.05123052      -1.00501594
C        1.25890378       0.68333327       7.45395921       0.22882341       0.35793068      -0.28054102      -2.27612894       1.10749070       1.00154401      -2.46871926       1.03031020       0.96598300      -2.46871926       1.03031020       0.96598300
C       -1.19141081       2.08323681       7.50976273      -0.36811620      -0.00546795       0.62181356      -1.33144629       3.08786596      -0.36541244      -1.30463302       3.38435672      -0.44785455      -1.30463302       3.38435672      -0.44785455
C        0.02189575       2.87598890       7.40020742      -0.19492023       0.33841694      -0.76113515      -1.17861007      -2.35811360       1.00994862      -1.20815598      -2.25536167       1.06676227      -1.20815598      -2.25536167       1.06676227
C       -2.42258865       4.24839475       7.57600767       0.01099471      -0.36894815      -0.16974559      -1.30234226      -0.29394880      -0.09668846      -1.22308997      -0.31307089      -0.11266883      -1.22308997      -0.31307089      -0.11266883
C       -1.23402443       4.97777180       7.54776789       1.06401855      -0.58609860      -0.35913441       1.21554741       0.81305956      -0.34224647       1.17572562       0.66733960      -0.33119434       1.17572562       0.66733960      -0.33119434
C        2.47786093       0.03852810       7.48912562      -0.16763529       0.34889552       0.04976477      -1.01037120      -2.56526588       0.26909082      -1.18064440      -2.62931191       0.27291720      -1.18064440      -2.62931191       0.27291720
C        3.65249332       0.73352728       7.51897275      -1.10450864       0.93848383      -0.51447757       2.42278903       0.53306709      -0.37513859       2.64376639       0.79214968      -0.35772967       2.64376639       0.79214968      -0.35772967
C        1.21366252       2.11006072       7.44087244      -0.35108172      -0.43895608      -0.00563222       0.19091641       0.45703272      -0.33796964       0.24732907       0.46982925      -0.35538816       0.24732907       0.46982925      -0.35538816
C        2.40530546       2.82714159       7.48673010       0.00406884       0.41522958      -0.48318926       1.85237770       1.79355924      -0.23938657       1.79148169       1.64064767      -0.19733551       1.79148169       1.64064767      -0.19733551
C        0.00486852       4.28025439       7.46886923      -0.41453742      -0.54308258      -0.26820582      -0.26408649      -0.30487069      -0.79014543      -0.17316611      -0.34510632      -0.73935260      -0.17316611      -0.34510632      -0.73935260
C        1.24144182       4.96636984       7.36316914       0.40483727       0.08911934       0.50190626      -0.88499952       1.65636828       1.17687767      -0.95749219       1.65903311       1.11787426      -0.95749219       1.65903311       1.11787426
C        4.90443332       0.00402011       7.47436671      -1.60807704       0.19260904       0.05285786      -0.63513254       0.36154491       0.12357323      -0.44806692       0.35559282       0.12549683      -0.44806692       0.35559282       0.12549683
C        6.12095155       0.71358463       7.55240776       0.46014041      -0.02644795       1.09770821       2.42747880      -1.94867521      -0.17841977       2.06505247      -2.21082527      -0.08012946       2.06505247      -2.21082527      -0.08012946
C        3.66097776       2.17387484       7.53847896      -0.67852056      -0.39930451      -0.18281537       0.88128095      -1.54875806      -0.23809290       0.86109767      -1.56890438      -0.21592561       0.86109767      -1.56890438      -0.21592561
C        4.94658842       2.81847684       7.51095753       1.55878627       0.05015615      -0.41432518      -0.39247996       0.44334481       0.50813468      -0.37540472       0.41873886       0.44582183      -0.37540472       0.41873886       0.44582183
C        2.44210908       4.28134676       7.44871351      -0.28322684      -0.42133681       1.08742380       0.70084258      -1.98468397       0.39282567       0.86462034      -1.77071926       0.46374602       0.86462034      -1.77071926       0.46374602
C        3.69525476       4.94372354       7.60811598       0.54606746      -0.26249337       0.48086868       0.21561535       0.70576735      -0.58100170       0.05956218       0.72653230      -0.61600675       0.05956218       0.72653230      -0.61600675
18
Lattice="7.38 0.0 0.0 -3.69 6.391267479929157 0.0 0.0 -0.0 15.0" Properties=species:S:1:pos:R:3:momenta:R:3:mace_forces:R:3:forces:R:3:REF_forces:R:3 T=100.0 mace_forces_rms=0.6597290895695341 energy=-2792.150191733126 REF_energy=-2792.150191733126 pbc="T T T"
C        0.01368505      -0.01594461       7.51619697      -0.47339941       0.04083321      -0.28052186      -0.53979194       0.52795408      -0.02692440      -0.48580891       0.52608756      -0.04406948      -0.48580891       0.52608756      -0.04406948
C        1.23853972       0.70036515       7.54095781      -0.19111929       0.15576979       0.23381280       0.09995003       0.71516647      -0.06830512       0.07671041       0.65559814      -0.06104519       0.07671041       0.65559814      -0.06104519
C       -1.21080901       2.14306815       7.46899634       0.08177673       0.39925300      -0.36498891      -0.58856337      -1.41977208      -0.10811795      -0.66726426      -1.41258722      -0.10459402      -0.66726426      -1.41258722      -0.10459402
C       -0.00185798       2.83409474       7.46438256      -0.17662832      -0.09101937       0.33980556       0.55707184       0.91460992       0.40341860       0.63083327       0.92471936       0.40243472       0.63083327       0.92471936       0.40243472
C       -2.45569026       4.25713848       7.53719366       0.56040476       0.23083024      -0.27541872      -1.12717694      -0.05054344      -0.34138039      -1.01099864      -0.03804281      -0.35675316      -1.01099864      -0.03804281      -0.35675316
C       -1.23596002       4.97170586       7.52094807      -0.45913544      -0.26276339       0.23253211      -0.09526911       0.60635152      -0.02981472      -0.19095635       0.57830949      -0.01920228      -0.19095635       0.57830949      -0.01920228
C        2.47458706       0.01634664       7.52973119       0.06323724      -0.39401841      -0.09424594      -0.68113945      -0.77592235      -0.04100964      -0.68770196      -0.73896822      -0.04560803      -0.68770196      -0.73896822      -0.04560803
C        3.68630258       0.73110750       7.48304443      -0.17865092      -0.09936880       0.23559201       0.92279226      -0.93883594      -0.08807162       0.90129790      -0.98363414      -0.11376874       0.90129790      -0.98363414      -0.11376874
C        1.23618391       2.13726811       7.52753820      -0.28823338      -0.14737999       0.20876564      -0.02485836      -0.53788628      -0.23700614       0.00487661      -0.46099931      -0.23710970       0.00487661      -0.46099931      -0.23710970
C        2.46546092       2.85625554       7.52280735      -0.41155380       0.11161034      -0.17821869       0.10606789      -1.21390222      -0.27780829       0.00276111      -1.25510509      -0.27850627       0.00276111      -1.25510509      -0.27850627
C       -0.01913156       4.27000591       7.48096731       0.08489004       0.23945246      -0.05890298       0.07910634      -1.03666472       0.24542891       0.10437419      -1.05839642       0.21659050       0.10437419      -1.05839642       0.21659050
C        1.19682587       4.95382546       7.51550571      -0.25187902       0.14714152      -0.31311673       0.79973020       1.45552369      -0.66188125       0.83892705       1.39781237      -0.65862330       0.83892705       1.39781237      -0.65862330
C        4.92192972       0.00693404       7.45039281       0.82136317      -0.04680809      -0.09411221      -0.06039000      -0.46280945       0.51531871      -0.00106161      -0.38813450       0.56107873      -0.00106161      -0.38813450       0.56107873
C        6.16737623       0.70537082       7.47041140       0.27666728      -0.19944658       0.06682228      -0.42502581       0.23932352      -0.02236640      -0.49322809       0.19460783      -0.01011292      -0.49322809       0.19460783      -0.01011292
C        3.71348104       2.12616703       7.47744388      -0.59230668       0.18939047      -0.84356571      -1.30101152       0.93241323       0.26826263      -1.23239377       0.94427337       0.27286578      -1.23239377       0.94427337       0.27286578
C        4.92828091       2.82261525       7.48160818       0.80491971      -0.16349712       0.16967707       0.42895983       1.17238590       0.07584062       0.45930444       1.13470881       0.10637425       0.45930444       1.13470881       0.10637425
C        2.42756846       4.25256313       7.49175953       0.50034243      -0.24343360       0.67860710       0.78407228       0.66137637       0.41419055       0.75560505       0.73004752       0.40440804       0.75560505       0.73004752       0.40440804
C        3.66322736       4.96998515       7.52011459      -0.17069510       0.13345433       0.33747717       1.06547583      -0.78876822      -0.01977409       0.99472407      -0.75029650      -0.03435945       0.99472407      -0.75029650      -0.03435945
18
Lattice="7.38 0.0 0.0 -3.69 6.391267479929157 0.0 0.0 -0.0 15.0" Properties=species:S:1:pos:R:3:momenta:R:3:mace_forces:R:3:forces:R:3:REF_forces:R:3 T=300.0 mace_forces_rms=1.1321774492857317 energy=-2791.5599994025306 REF_energy=-2791.5599994025306 pbc="T T T"
C       -0.00773195      -0.07802507       7.65674559      -0.79470655       0.37207336      -0.17983948      -0.53835465       2.76732515      -2.06902526      -0.42435158       2.88316258      -2.03001990      -0.42435158       2.88316258      -2.03001990
C        1.16189649       0.69368377       7.46853524       0.20694645       0.15888709      -0.52193423       3.45053283       0.24594604       1.12011097       3.28483497       0.16984425       1.10369745       3.28483497       0.16984425       1.10369745
C       -1.24784239       2.13122252       7.48368014       1.04819188       0.27137481       0.74151599       1.76375225      -1.54459536       0.34222876       1.76480598      -1.35178191       0.33196001       1.76480598      -1.35178191       0.33196001
C        0.00193638       2.83364873       7.50159694      -0.00827862      -0.02412056      -0.72979872       0.41973739       0.11951052      -0.56102714       0.30323128       0.23675849      -0.57967295       0.30323128       0.23675849      -0.57967295
C       -2.43166730       4.24740654       7.56791174       0.51783259      -0.13011932       0.09506051      -1.58545560      -0.02930436      -0.63223094      -1.39103829      -0.08190352      -0.65231098      -1.39103829      -0.08190352      -0.65231098
C       -1.23733411       4.98021554       7.50685966      -0.12358767       0.55097259       0.01721040       0.88154024       0.00628188       0.18404392       0.78610656      -0.07170781       0.20049540       0.78610656      -0.07170781       0.20049540
C        2.44548668       0.02800441       7.49202770       0.05217591      -0.43869502      -0.13640704      -0.18868467      -0.50653027      -0.24486340      -0.21174834      -0.41503519      -0.28222588      -0.21174834      -0.41503519      -0.28222588
C        3.68715910       0.75021460       7.47936780      -0.88364523       0.66117830       0.12456624       0.13213405      -1.43616499       0.08153408      -0.00396181      -1.34127818       0.07119976      -0.00396181      -1.34127818       0.07119976
C        1.26612512       2.12389153       7.45143396       0.46707595       0.00508531      -0.40539417      -2.17901792       0.08507056       0.69878744      -1.93744707       0.07933987       0.74585697      -1.93744707       0.07933987       0.74585697
C        2.48557183       2.85768213       7.54478747      -0.55433943      -0.20313691       0.19295039      -1.14475597       0.13390796      -1.19837270      -1.29215057       0.04948011      -1.23144683      -1.29215057       0.04948011      -1.23144683
C       -0.00396581       4.24833052       7.46304082       0.34421641       0.65406185      -0.56700054       0.33468731       1.41660410      -0.10730044       0.27900377       1.24801450      -0.06532993       0.27900377       1.24801450      -0.06532993
C        1.22714233       5.02028120       7.38957757      -0.75468412       0.36699885      -0.64483117      -0.60961629      -2.21134066       0.80646587      -0.48488126      -2.21259702       0.77230360      -0.48488126      -2.21259702       0.77230360
C        4.94336315       0.01568608       7.47605720       1.03062341      -0.67288252       0.21346675      -1.95324237       0.68719815      -0.39902645      -1.79583714       0.65831014      -0.38195152      -1.79583714       0.65831014      -0.38195152
C        6.16511298       0.67589562       7.51663722      -0.73874956      -1.31990908       0.77635349      -0.18225835       1.36307334       0.48394462      -0.12957820       1.17505739       0.54581229      -0.12957820       1.17505739       0.54581229
C        3.70784024       2.14790988       7.52175729      -0.69131160      -0.03942667      -0.73019917      -0.91468467      -0.01816828      -0.04402398      -1.03490348      -0.15903790       0.01674662      -1.03490348      -0.15903790       0.01674662
C        4.91901172       2.82455979       7.50202513      -0.31057030      -0.89917889       0.15290349       1.02531881       1.08276891       0.29234851       1.16179204       1.17151236       0.24600392       1.16179204       1.17151236       0.24600392
C        2.44436511       4.30087666       7.44380919       0.76568932       0.90191348       0.73902659       0.21928413      -1.91957654       0.57961513       0.17337180      -1.86643475       0.55173251       0.17337180      -1.86643475       0.55173251
C        3.68353043       4.93738791       7.53414934       0.42712114      -0.21507667       0.86235066       1.06908348      -0.24200616       0.66679098       0.95275082      -0.17170315       0.63714945       0.95275082      -0.17170315       0.63714945
18
Lattice="7.38 0.0 0.0 -3.69 6.391267479929157 0.0 0.0 -0.0 15.0" Properties=species:S:1:pos:R:3:momenta:R:3:mace_forces:R:3:forces:R:3:REF_forces:R:3 T=600.0 mace_forces_rms=1.4941739968023118 energy=-2790.982834385904 REF_energy=-2790.982834385904 pbc="T T T"
C       -0.06060160      -0.06087989       7.55769948       0.16894656       1.45575405       0.28606577       0.68304362      -0.43997876       0.20311372       0.75817616      -0.24264066       0.17082898       0.75817616      -0.24264066       0.17082898
C        1.18185574       0.62327405       7.49815031       1.06233593      -0.28922904       0.43899339      -0.27586469       3.76020349       0.17653244      -0.34731413       3.35708220       0.20418827      -0.34731413       3.35708220       0.20418827
C       -1.19747703       2.16383299       7.59438340      -0.08947715      -1.47375721       0.09425923      -1.48890511      -1.08217946       0.11031624      -1.49959438      -1.09941374       0.20286544      -1.49959438      -1.09941374       0.20286544
C       -0.00990614       2.86926474       7.49696609      -1.15740765      -0.06866911      -0.67822065       1.80547203      -0.52785217       0.18216221       1.82594347      -0.49320649       0.07690735       1.82594347      -0.49320649       0.07690735
C       -2.41667638       4.30276554       7.47022728       0.84253549       0.05149707       0.26526511       0.59772433      -0.30816567      -0.39733658       0.38845152      -0.35182024      -0.41612302       0.38845152      -0.35182024      -0.41612302
C       -1.17364804       5.09255453       7.35286440       1.20239090      -0.02675250      -0.80171534      -0.61772320      -4.85735077       0.78754890      -0.71683102      -5.01493620       0.87909822      -0.71683102      -5.01493620       0.87909822
C        2.48082011       0.06266444       7.41267314      -0.14105492       0.42971093      -0.21437906      -1.97130451      -1.44551746      -0.44343469      -2.37807451      -1.33272232      -0.38154014      -2.37807451      -1.33272232      -0.38154014
C        3.66781815       0.72728936       7.41330824       1.25332410       0.35023646      -0.25528676       1.92545973       1.41483553       0.89630200       2.33672680       1.52538306       0.78478245       2.33672680       1.52538306       0.78478245
C        1.19336936       2.10243322       7.52697615       0.15667004       0.14742657      -1.21013406       0.17130494      -1.83647054      -0.02423563       0.15012774      -1.43783365      -0.05124877       0.15012774      -1.43783365      -0.05124877
C        2.44817082       2.75838138       7.53938370      -1.14919584      -1.55046955      -0.12337257      -0.12846845       1.70637197      -0.46430327      -0.16859340       1.72215626      -0.42238803      -0.16859340       1.72215626      -0.42238803
C        0.07048714       4.28642107       7.39604272      -1.47708150       0.25667814       1.54665353      -3.98921941       0.91384619       0.10001269      -4.07754336       0.48056001       0.02093804      -4.07754336       0.48056001       0.02093804
C        1.22280192       4.97892367       7.46222761       0.23577688      -0.61659419      -0.27459530       2.73424779       0.80895800       0.14230893       2.95363446       0.90118271       0.27924083       2.95363446       0.90118271       0.27924083
C        4.89257954       0.06018174       7.52670265      -0.39232330       0.72116698       0.14564997       0.21591344      -3.21266527       0.00817089       0.32570015      -2.79144902      -0.06875027       0.32570015      -2.79144902      -0.06875027
C        6.10907641       0.71450977       7.70553413      -0.32083628      -0.38965339       0.04855217       1.65122000       0.75824641      -1.57303306       1.57372571       0.68483621      -1.58317657       1.57372571       0.68483621      -1.58317657
C        3.71449184       2.11543908       7.50728408      -1.25911435      -0.14530360      -0.11626177       0.15919518       1.58323912       0.10156895       0.08246942       1.65559683       0.13253574       0.08246942       1.65559683       0.13253574
C        4.96548450       2.87702007       7.54663523       0.58585526       0.18461603       0.57021894      -1.03931876      -0.67531978      -0.26660982      -0.97866779      -0.63330205      -0.29443014      -0.97866779      -0.63330205      -0.29443014
C        2.44823148       4.18999512       7.51213875       1.16694980       1.56315260       0.03252843      -0.46721401       0.56913058      -0.00213715      -0.29042847       0.41865658       0.03879949      -0.29042847       0.41865658       0.03879949
C        3.67312216       4.87480149       7.48080263      -0.68829397      -0.59981022       0.24577896       0.03443706       2.87066858       0.46305323       0.06209163       2.65187051       0.42747187       0.06209163       2.65187051       0.42747187
18
Lattice="7.38 0.0 0.0 -3.69 6.391267479929157 0.0 0.0 -0.0 15.0" Properties=species:S:1:pos:R:3:momenta:R:3:mace_forces:R:3:forces:R:3:REF_forces:R:3 T=100.0 mace_forces_rms=0.71383295865872 energy=-2792.1144514852153 REF_energy=-2792.1144514852153 pbc="T T T"
C        0.00464587      -0.00854673       7.55516380       0.64196985      -0.30644474       0.22161672      -0.25762841       0.07031573      -0.30514774      -0.25993596       0.03259259      -0.31863347      -0.25993596       0.03259259      -0.31863347
C        1.22703024       0.70895824       7.50748693       0.24922842      -0.37185321       0.60854468       0.27778480      -0.54997154       0.10465369       0.25243399      -0.53269324       0.11379034       0.25243399      -0.53269324       0.11379034
C       -1.21105008       2.12326343       7.51916731      -0.02987673       0.71988788      -0.11918360      -0.73692605       1.01425151      -0.46226792      -0.62802974       0.93357707      -0.51050462      -0.62802974       0.93357707      -0.51050462
C        0.02306917       2.84407615       7.45184467      -0.00744592      -0.01378317      -0.48216917      -1.33587670      -0.12647392       0.46990685      -1.34295069      -0.10642644       0.45776152      -1.34295069      -0.10642644       0.45776152
C       -2.46554477       4.23441872       7.50610629      -0.20862009      -0.33885939      -0.10251050      -0.49690640       2.10630395      -0.42135792      -0.47152206       2.21744047      -0.40623507      -0.47152206       2.21744047      -0.40623507
C       -1.24557678       4.98267959       7.44337013      -0.00569583       0.25891876      -0.00027413       0.30735726      -1.06078687       0.18905183       0.32576160      -1.02053384       0.22257294       0.32576160      -1.02053384       0.22257294
C        2.46091525      -0.00184362       7.45954072      -0.18824573       0.46865345       0.08037185       0.56494241       0.59431200       0.07443389       0.52072887       0.50870047       0.08447899       0.52072887       0.50870047       0.08447899
C        3.72574768       0.70522285       7.46314933      -0.25293457       0.08281876      -0.04800863      -1.79023670       0.43931383       0.37598160      -1.75455191       0.54633757       0.35004104      -1.75455191       0.54633757       0.35004104
C        1.22130325       2.11407876       7.50995189      -0.42005976       0.03624002       0.68063096       0.68946720       0.59854989      -0.08313871       0.66469573       0.55502353      -0.06295063       0.66469573       0.55502353      -0.06295063
C        2.44330656       2.83254365       7.54185345       0.28090567      -0.05179533      -0.26946392       0.46473341       0.04062049      -0.45324134       0.51242446       0.10626369      -0.45700690       0.51242446       0.10626369      -0.45700690
C       -0.01375594       4.26253782       7.43152203       0.05178627       0.29711805       0.04900795       0.90602148       0.84371183       0.30536348       0.83939679       0.78626032       0.34490783       0.83939679       0.78626032       0.34490783
C        1.23456268       4.99979787       7.50967789      -0.39264745       0.20565710      -0.07730275      -1.18360669      -1.46212864      -0.41576839      -1.15586642      -1.42030387      -0.45131577      -1.15586642      -1.42030387      -0.45131577
C        4.93837558       0.00685651       7.51512378       0.36723969       0.32293178      -0.38344030      -0.10127824       0.22527625      -0.07923791      -0.10731682       0.20161151      -0.05929221      -0.10731682       0.20161151      -0.05929221
C        6.15738560       0.71726466       7.55330299       0.20859661       0.12816628      -0.15298398       0.52088085      -0.22450608      -0.08159961       0.56276923      -0.16230526      -0.05710420       0.56276923      -0.16230526      -0.05710420
C        3.69291308       2.13462030       7.51509305      -0.34685136      -0.69900462      -0.36782888      -0.22746363      -0.18066707      -0.19726384      -0.24260955      -0.22077446      -0.19037888      -0.24260955      -0.22077446      -0.19037888
C        4.91439621       2.85741459       7.48226857      -0.49408543      -0.29742727      -0.12385489       0.93190806      -1.75905976       0.48005530       0.82907407      -1.84304131       0.48108631       0.82907407      -1.84304131       0.48108631
C        2.43056721       4.26122040       7.51280666       0.26968851      -0.24294599       0.17306458       0.94518503      -0.14309505       0.33657445       0.96983760      -0.21657893       0.33636509       0.96983760      -0.21657893       0.33636509
C        3.67170920       4.96430918       7.52257052       0.27704784      -0.19827837       0.31378403       0.52164234      -0.42596657       0.16300229       0.48566108      -0.36514987       0.12241793       0.48566108      -0.36514987       0.12241793
18
Lattice="7.38 0.0 0.0 -3.69 6.391267479929157 0.0 0.0 -0.0 15.0" Properties=species:S:1:pos:R:3:momenta:R:3:mace_forces:R:3:forces:R:3:REF_forces:R:3 T=600.0 mace_forces_rms=1.5532101156944078 energy=-2790.9938069682767 REF_energy=-2790.9938069682767 pbc="T T T"
C       -0.00547400      -0.05312902       7.49540293      -0.64142899      -0.95324453      -0.61023332      -2.05110289       1.50522508       0.07829701      -1.90283797       1.59621849       0.21301590      -1.90283797       1.59621849       0.21301590
C        1.20386403       0.64621412       7.44038647       0.42232307       0.64195926       0.15347490       0.53675700       1.00070887      -0.07939404       0.55544621       1.08859634      -0.06928814       0.55544621       1.08859634      -0.06928814
C       -1.20465748       2.13157765       7.57389200      -0.76732779       1.36352711      -1.13505310      -1.49627980       0.80985196       0.52569290      -1.49671063       0.93992307       0.56767232      -1.49671063       0.93992307       0.56767232
C       -0.03274085       2.84235132       7.45834590       0.40418839      -0.87790312       0.18038557       2.37371506       0.48146366       0.71353108       2.24677701       0.30654029       0.67186114       2.24677701       0.30654029       0.67186114
C       -2.40153342       4.26560015       7.60457816      -0.80756934       0.60781896       0.50123363      -1.99121546       1.28629955      -0.21654410      -1.83421651       1.02235109      -0.29702412      -1.83421651       1.02235109      -0.29702412
C       -1.17954631       4.99990696       7.48130936       0.13641300      -1.59145813      -0.13882981      -2.33882115       0.45310578      -0.27212745      -2.66366905       0.81207008      -0.30102476      -2.66366905       0.81207008      -0.30102476
C        2.48026634       0.03428306       7.33757192       0.26315894       1.14013218       0.30069050      -1.46563655      -1.63575853       0.96542677      -1.60628153      -1.76285451       0.92990271      -1.60628153      -1.76285451       0.92990271
C        3.66797550       0.71537515       7.40837474      -0.59840672       0.26558568      -0.80209088       0.97279517       1.65149183       0.72511524       0.87634123       2.08414702       0.84788940       0.87634123       2.08414702       0.84788940
C        1.19202973       2.04999306       7.47481916      -0.78654497       0.12436585      -1.27203587       0.57357728       2.75483093      -0.37127620       0.56320555       2.48064481      -0.39693488       0.56320555       2.48064481      -0.39693488
C        2.44702204       2.77141890       7.51371905       0.20270117       0.39197850      -0.78559303       0.45262608       2.69831549       0.42208586       0.74118142       2.05043420       0.50141885       0.74118142       2.05043420       0.50141885
C       -0.02221987       4.30954972       7.47594301      -0.37930045      -0.35930009       2.58586842       2.74158646      -2.44285034      -0.64671967       3.16487553      -2.37676916      -0.62535580       3.16487553      -2.37676916      -0.62535580
C        1.22577133       5.02215860       7.38890613      -0.02907829      -0.08722404      -0.03693171       0.66300740      -1.88162227       0.40952851       0.41290528      -1.54988361       0.45209892       0.41290528      -1.54988361       0.45209892
C        4.86666148       0.03258489       7.41922126       0.29668400      -0.06459873      -0.46020276       2.65482805      -0.28020247       0.56681107       2.90200080      -0.55917894       0.63290044       2.90200080      -0.55917894       0.63290044
C        6.12970844       0.74019118       7.58332012       0.49264667      -1.79442335      -0.27753230       0.88975217      -2.41248265      -1.14476121       0.72130165      -2.49491520      -1.21231114       0.72130165      -2.49491520      -1.21231114
C        3.73145839       2.13089878       7.66041490      -0.06148721       1.35766026      -0.24688743      -1.79721051       0.67338045      -1.16605400      -2.06583382       0.48378443      -1.32447063      -2.06583382       0.48378443      -1.32447063
C        4.95414765       2.88800037       7.71668565       1.32064555      -1.22873406       1.26239464      -0.27664616      -2.06832608      -0.86963799      -0.17974531      -1.96717211      -0.91152420      -0.17974531      -1.96717211      -0.91152420
C        2.49136328       4.27684630       7.46476225       0.07830327       0.28080670       0.78049152      -3.58474831      -3.04348387       0.06238548      -3.70326298      -2.76525539       0.00172830      -3.70326298      -2.76525539       0.00172830
C        3.66590373       4.93505117       7.50234700       0.45407970       0.78305155       0.00085104       3.14301617       0.45005261       0.29764074       3.26852312       0.61131911       0.31944517       3.26852312       0.61131911       0.31944517
18
Lattice="7.38 0.0 0.0 -3.69 6.391267479929157 0.0 0.0 -0.0 15.0" Properties=species:S:1:pos:R:3:momenta:R:3:mace_forces:R:3:forces:R:3:REF_forces:R:3 T=100.0 mace_forces_rms=0.685831756560063 energy=-2792.1165392786424 REF_energy=-2792.1165392786424 pbc="T T T"
C        0.00605739      -0.00821856       7.47015543       0.56272890      -0.21383660       0.03342990       0.17599920      -0.28592560       0.04028636       0.14946337      -0.25789579       0.04499996       0.14946337      -0.25789579       0.04499996
C        1.23344509       0.70065288       7.47974340       0.57740747       0.38050047       0.23613851       0.10683231       0.23557567      -0.21464491       0.11606500       0.19350611      -0.21814036       0.11606500       0.19350611      -0.21814036
C       -1.20567489       2.12477253       7.53670290       0.49868197      -0.23724703      -0.68655564      -1.29724666       0.32471015       0.07027825      -1.23620311       0.33413645       0.07285221      -1.23620311       0.33413645       0.07285221
C        0.00429866       2.82939977       7.51860577       0.19681403      -0.18978394      -0.04694476       0.03620263       1.23890490      -0.39846563       0.07364514       1.13048424      -0.42745464       0.07364514       1.13048424      -0.42745464
C       -2.46003454       4.25711059       7.48017102       0.12445768      -0.16314327       0.03393976      -0.58352693       0.02295222      -0.15159224      -0.58295856       0.06948818      -0.17989623      -0.58295856       0.06948818      -0.17989623
C       -1.24131025       4.97520790       7.51033313      -0.40419400      -0.16254545       0.02168795       0.35630104       0.14820692       0.07791907       0.34182817       0.09276026       0.08770830       0.34182817       0.09276026       0.08770830
C        2.46348768       0.00985619       7.51503201      -0.54437906       0.38343429      -0.38584707       0.46908395      -0.52849470      -0.20462821       0.46889723      -0.47225509      -0.19275458       0.46889723      -0.47225509      -0.19275458
C        3.72155052       0.69944172       7.52949451      -0.17470739       0.22692161       0.01114893      -1.54736787       1.24213130       0.32713181      -1.63043447       1.23795583       0.28884750      -1.63043447       1.23795583       0.28884750
C        1.23163622       2.12331391       7.43522701      -0.10513467       0.11657836      -0.10832669      -0.84467500      -0.51302730       0.69614561      -1.01096522      -0.55571927       0.68799918      -1.01096522      -0.55571927       0.68799918
C        2.42066063       2.81919969       7.45561171       0.31983802      -0.45717955       0.56958225       1.97778382       1.68861841       0.16363745       2.14399176       1.60809956       0.21147041       2.14399176       1.60809956       0.21147041
C       -0.00947965       4.27487062       7.52600433      -0.09756339       0.56586903      -0.58540739       0.35309434      -0.75306558      -0.08748793       0.34400203      -0.65875083      -0.08367630       0.34400203      -0.65875083      -0.08367630
C        1.22820333       4.98748877       7.50866227      -0.48850173       0.19882989       0.57997654      -0.60994360       0.01475950       0.13454572      -0.62949193      -0.00001131       0.15748650      -0.62949193      -0.00001131       0.15748650
C        4.93214822       0.01745562       7.56146227      -0.03819707       0.44750927       0.59829033       0.57803896      -0.64819361      -0.38866234       0.66774634      -0.65489006      -0.39747789       0.66774634      -0.65489006      -0.39747789
C        6.17662881       0.71028522       7.54026277      -0.22767421      -0.20606920       0.08767485      -0.65827181       0.07169212      -0.18196968      -0.64281101       0.00230191      -0.17934447      -0.64281101       0.00230191      -0.17934447
C        3.68644881       2.13871459       7.53358933       0.17395003      -0.10802249       0.12188780      -0.34706077      -0.62205472      -0.50461665      -0.35341099      -0.56036962      -0.52036454      -0.35341099      -0.56036962      -0.52036454
C        4.91160947       2.84252203       7.51953228      -0.52264090       0.00281012      -0.31672162       0.92114037      -0.29274366       0.13488374       0.83675627      -0.29487417       0.14787006       0.83675627      -0.29487417       0.14787006
C        2.43473105       4.27942011       7.46267495       0.12633501      -0.14212896      -0.10447954       0.49675608      -1.74725361      -0.19951752       0.54051273      -1.56791322      -0.19540435       0.54051273      -1.56791322      -0.19540435
C        3.67559346       4.95737877       7.41673491       0.02277930      -0.44249655      -0.05947412       0.41685993       0.40320759       0.68675710       0.40336726       0.35394680       0.69527900       0.40336726       0.35394680       0.69527900
18
Lattice="7.38 0.0 0.0 -3.69 6.391267479929157 0.0 0.0 -0.0 15.0" Properties=species:S:1:pos:R:3:momenta:R:3:mace_forces:R:3:forces:R:3:REF_forces:R:3 T=300.0 mace_forces_rms=1.166451723684084 energy=-2791.558769311923 REF_energy=-2791.558769311923 pbc="T T T"
C       -0.00033954       0.01500576       7.46942450       0.56923150      -0.03061795       0.41609582      -0.06600265      -0.13767969       0.05625743      -0.14074476      -0.26347842       0.11607297      -0.14074476      -0.26347842       0.11607297
C        1.21870524       0.75320310       7.48699268      -1.20244519      -0.63751508      -0.45321285      -0.56606744      -0.94697948       0.46286935      -0.43328539      -1.02417169       0.46151945      -0.43328539      -1.02417169       0.46151945
C       -1.21805720       2.16109665       7.45182399       0.71024471       0.42894419      -0.66370849       0.00287663      -0.66646389       0.00391953      -0.15946470      -0.49883258      -0.02455455      -0.15946470      -0.49883258      -0.02455455
C        0.01527919       2.91515786       7.48087859      -0.16940234       0.28518819       0.51383504      -1.49138616      -3.44178751       0.53391831      -1.45642633      -3.86158303       0.36734971      -1.45642633      -3.86158303       0.36734971
C       -2.44230227       4.28563519       7.50983407       0.97974750      -0.48199616       0.19980330      -0.19963810      -0.76443000      -0.19228058      -0.05739962      -0.68491643      -0.19233086      -0.05739962      -0.68491643      -0.19233086
C       -1.21761521       4.98439099       7.58539939       0.16140586      -0.72325324       0.73238942      -0.36904493       0.79277532      -0.48043709      -0.52420217       0.66180170      -0.49301135      -0.52420217       0.66180170      -0.49301135
C        2.44518289       0.03915534       7.53339291       0.55977934       1.15945205       0.50388184      -0.45964045      -1.91919926       0.11080317      -0.73716921      -1.86035512       0.07517109      -0.73716921      -1.86035512       0.07517109
C        3.67092887       0.66827172       7.51480030      -0.33250391      -0.63252522      -0.36694970       1.89217401       1.04777139       0.42098133       1.99347193       1.27903049       0.39062693       1.99347193       1.27903049       0.39062693
C        1.20073128       2.16083826       7.53498776       0.30658698       0.02638000      -0.97457377       0.70781522      -0.82767450      -0.53625073       0.75064308      -0.83316675      -0.51960478       0.75064308      -0.83316675      -0.51960478
C        2.44830440       2.77115382       7.52753756      -0.36734560      -0.03937878       0.73973762       0.85236880       3.09808723      -0.13680910       0.86513662       2.87097786      -0.17745574       0.86513662       2.87097786      -0.17745574
C        0.01046931       4.25770649       7.57563911      -0.21906563      -0.07817118      -0.00851992      -0.91222954       1.55898011      -0.54417103      -0.99267208       1.95019306      -0.35529355      -0.99267208       1.95019306      -0.35529355
C        1.24192251       4.90307178       7.50106599       0.62509770       0.76716596      -0.64608217      -0.05081398       2.70499264      -0.40064646       0.07341914       2.73798164      -0.38908478       0.07341914       2.73798164      -0.38908478
C        4.92189115      -0.05196213       7.46694195       0.59411299       0.16556123      -0.31667048      -0.16205976       0.92332182       0.41965396      -0.02255732       0.98933530       0.43293623      -0.02255732       0.98933530       0.43293623
C        6.13813703       0.71125103       7.47358314       0.26514865      -0.88971168      -0.01342226       0.07813148       0.21095299      -0.36164683       0.00911970       0.00219546      -0.32831676       0.00911970       0.00219546      -0.32831676
C        3.68516923       2.09109207       7.58423724       0.04779153       0.56107154      -0.16806886       1.26305058       0.74711593      -1.38210375       1.05411064       0.55206958      -1.41113454       1.05411064       0.55206958      -1.41113454
C        4.94361715       2.85335389       7.43771966      -0.46287286       0.25576299      -0.17176321      -1.69506267      -0.57698945       1.08403132      -1.41606155      -0.51772787       1.16177430      -1.41606155      -0.51772787       1.16177430
C        2.43928886       4.23686203       7.39796024      -0.87989345       0.33919357       0.23381326       2.83058862      -1.20229844       1.26418884       2.65010648      -1.16281714       1.27053942       2.65010648      -1.16281714       1.27053942
C        3.70868711       4.98358853       7.46778090      -1.18561777      -0.47555044       0.44341541      -1.65505965      -0.60049520      -0.32227766      -1.45602472      -0.33653581      -0.38520370      -1.45602472      -0.33653581      -0.38520370
18
Lattice="7.38 0.0 0.0 -3.69 6.391267479929157 0.0 0.0 -0.0 15.0" Properties=species:S:1:pos:R:3:momenta:R:3:mace_forces:R:3:forces:R:3:REF_forces:R:3 T=100.0 mace_forces_rms=0.6194081587682917 energy=-2792.1611263556183 REF_energy=-2792.1611263556183 pbc="T T T"
C       -0.00063915      -0.00145152       7.54437112       0.16248805       0.70118475      -0.40710927       0.11935397      -0.13332678      -0.08351852       0.13117280      -0.15632513      -0.10619170       0.13117280      -0.15632513      -0.10619170
C        1.21172847       0.73196540       7.53457724       0.42622109      -0.39753333      -0.15608222       0.62565382      -0.95072289       0.14491625       0.61308675      -0.96784319       0.11469923       0.61308675      -0.96784319       0.11469923
C       -1.21526911       2.11654987       7.47956494      -0.04301398      -0.18952837       0.32345106      -0.43718324       0.16138896       0.40543041      -0.44414959       0.09151405       0.39035105      -0.44414959       0.09151405       0.39035105
C       -0.00241549       2.85033141       7.50630096      -0.54959616       0.31919927       0.17647564       0.15390112      -0.42575433       0.06696800       0.20797885      -0.39399431       0.10469121       0.20797885      -0.39399431       0.10469121
C       -2.47102553       4.27041391       7.49734100      -0.16726126       0.18233033       0.47759293       1.42557265      -1.10406818      -0.00595031       1.46867840      -1.10418391      -0.00111972       1.46867840      -1.10418391      -0.00111972
C       -1.23406430       4.99807240       7.46499703       0.46889825       0.33054954       0.14084514      -0.19806523      -1.00425401       0.08530490      -0.18547835      -0.94465827       0.10501337      -0.18547835      -0.94465827       0.10501337
C        2.44979931       0.01415954       7.48078284      -0.29882382      -0.42706338       0.06201115       0.11601192       0.28016616       0.22589247       0.09393371       0.22500315       0.21990311       0.09393371       0.22500315       0.21990311
C        3.69105168       0.71293487       7.49348223      -0.21322281      -0.08799081      -0.04004453       0.04203010      -0.85712807      -0.43873337       0.05827817      -0.83831461      -0.42561219       0.05827817      -0.83831461      -0.42561219
C        1.22273624       2.12889310       7.57590675       0.33363756      -0.07162806       0.38779934       0.35185608       1.20858891      -0.67010809       0.29227478       1.23558039      -0.66812815       0.29227478       1.23558039      -0.66812815
C        2.46457027       2.85486663       7.51848104       0.49837133      -0.47410803      -0.35484234      -0.22831317      -1.10617143      -0.23152481      -0.19015236      -1.05515811      -0.22390015      -0.19015236      -1.05515811      -0.22390015
C       -0.00313074       4.26510002       7.45855316       0.04234236      -0.77331752       0.00280301      -0.50142913       0.29955140       0.18521334      -0.49105062       0.26099037       0.16888343      -0.49105062       0.26099037       0.16888343
C        1.21930235       4.97077700       7.47467880       0.44125842      -0.29603907      -0.17299636       0.73528915      -0.60198639       0.03759950       0.71191918      -0.62178839       0.04170509       0.71191918      -0.62178839       0.04170509
C        4.92814870      -0.02323731       7.48792335      -0.76650434       0.10573702      -0.36631442      -0.76459857       1.19650733       0.11374122      -0.76413212       1.20027426       0.14984852      -0.76413212       1.20027426       0.14984852
C        6.15012368       0.69163105       7.52652667       0.14973408       0.54788490      -0.07144664       0.15667109       0.24059822      -0.25719854       0.16839106       0.30666447      -0.26559881       0.16839106       0.30666447      -0.26559881
C        3.68950961       2.11097537       7.45008863       0.06541336       0.16296197      -0.37714160       0.52388014       1.27969761       0.80317379       0.51145541       1.29063285       0.81114500       0.51145541       1.29063285       0.81114500
C        4.93987513       2.82103331       7.48969243      -0.46141062      -0.01242471       0.19615914      -0.92289014       0.82502763      -0.43352744      -0.93637006       0.77819836      -0.44115245      -0.93637006       0.77819836      -0.44115245
C        2.46102919       4.26032340       7.48635353      -0.09953728       0.01997582      -0.16855152       0.14654133       0.31116814       0.36061442       0.14024314       0.24065911       0.32914286       0.14024314       0.24065911       0.32914286
C        3.70866970       4.96553392       7.53037827       0.01100577       0.35980969       0.34739147      -1.34428191       0.38071775      -0.30829321      -1.38607863       0.45274916      -0.30367994      -1.38607863       0.45274916      -0.30367994
18
Lattice="7.38 0.0 0.0 -3.69 6.391267479929157 0.0 0.0 -0.0 15.0" Properties=species:S:1:pos:R:3:momenta:R:3:mace_forces:R:3:forces:R:3:REF_forces:R:3 T=600.0 mace_forces_rms=1.6403137694708774 energy=-2791.1639159412603 REF_energy=-2791.1639159412603 pbc="T T T"
C       -0.00031327       0.01800738       7.34342968      -1.23433248      -1.18774137      -0.44942994      -1.02550814       1.09887155       1.62248224      -0.90827947       0.96398217       1.66056909      -0.90827947       0.96398217       1.66056909
C        1.20100975       0.74178601       7.42944049      -1.33268850       0.53758253      -0.33076616       1.53899166      -0.67831688      -0.28382406       1.43566261      -0.85478381      -0.26903972       1.43566261      -0.85478381      -0.26903972
C       -1.21859449       2.14687282       7.50583556      -0.50901697       1.08520034      -0.07513888       0.79083658       0.56698182       0.21351068       0.63426467       0.48080709       0.26458271       0.63426467       0.48080709       0.26458271
C        0.06284202       2.85157178       7.53125779       1.70263438      -0.58245627      -0.27363615      -3.08419329       0.31162124      -0.46835893      -2.95788089       0.38788048      -0.36819534      -2.95788089       0.38788048      -0.36819534
C       -2.54403257       4.29310975       7.59534390       1.11110472       1.29629561      -0.05862332       3.31811157      -4.71376697      -0.33849870       3.72929129      -4.08421408      -0.30865682       3.72929129      -4.08421408      -0.30865682
C       -1.25694457       4.87250317       7.53875579       1.11184948       0.11529877       1.00936943      -0.74028558       5.18770716       0.46189262      -0.87621602       4.66914442       0.38979955      -0.87621602       4.66914442       0.38979955
C        2.41029985      -0.02619667       7.52405332      -0.48872624      -0.38159273       0.29696617       1.18003522      -1.17532720      -0.41586777       1.03051820      -0.82211024      -0.40757282       1.03051820      -0.82211024      -0.40757282
C        3.67460474       0.66504829       7.52057861       0.15262765       0.27819630      -0.05023789      -0.89190624       0.70198031      -0.09234099      -0.67506396       0.64797173      -0.07669832      -0.67506396       0.64797173      -0.07669832
C        1.24957747       2.18200828       7.43289562      -0.41314761      -1.27136179       0.55812939       1.17584394      -1.29107121       0.47565862       1.23242616      -1.23202841       0.43456580       1.23242616      -1.23202841       0.43456580
C        2.50096177       2.88611376       7.48254435       0.41526774       0.38644921       0.84280673      -0.33548826      -2.45922694      -0.00642222      -0.31828509      -2.55266449      -0.06453186      -0.31828509      -2.55266449      -0.06453186
C        0.00019900       4.26357573       7.55342282      -0.15638352       1.72580951       0.83349586       1.28806757      -1.33914223      -0.47178226       1.48777244      -1.17661805      -0.54118508       1.48777244      -1.17661805      -0.54118508
C        1.27348487       4.91893883       7.46247014       0.14320171       0.01815029       0.43562391      -1.81379342       3.61751594       0.93610031      -1.97937482       3.18958537       0.98241003      -1.97937482       3.18958537       0.98241003
C        4.91608654       0.01088956       7.52154199       0.06919824       0.45836442       0.01032078       0.87978140      -1.92913574      -0.61023636       0.75602311      -1.47317166      -0.64345148       0.75602311      -1.47317166      -0.64345148
C        6.14599551       0.76294968       7.45099096      -0.30963707       0.32500741      -0.88412721      -0.08492584      -2.26891857      -0.30315390      -0.07456096      -2.25873907      -0.34377603      -0.07456096      -2.25873907      -0.34377603
C        3.70238267       2.10658524       7.48262273       0.01886267       0.48496302      -0.86090451      -0.92049638      -0.69599843       0.52765160      -0.93536964      -0.68838099       0.47438987      -0.93536964      -0.68838099       0.47438987
C        4.90265327       2.78115501       7.55885726       0.54132134      -0.92848630      -0.63416986       0.28164556       4.00894903      -0.11337205       0.27138508       3.23858211      -0.03698198       0.27138508       3.23858211      -0.03698198
C        2.50501302       4.26289070       7.51947496      -1.11189132      -2.06268834       0.13568653      -1.29299859       0.35779639      -0.28664268      -1.43110893       0.34562286      -0.25460760      -1.43110893       0.34562286      -0.25460760
C        3.68477442       5.00106303       7.54648402       0.28975579      -0.29699062      -0.50536486      -0.26371775       0.69948072      -0.84679614      -0.42120352       1.21913459      -0.89162052      -0.42120352       1.21913459      -0.89162052
18
Lattice="7.38 0.0 0.0 -3.69 6.391267479929157 0.0 0.0 -0.0 15.0" Properties=species:S:1:pos:R:3:momenta:R:3:mace_forces:R:3:forces:R:3:REF_forces:R:3 T=300.0 mace_forces_rms=1.1733792630285198 energy=-2791.641853013938 REF_energy=-2791.641853013938 pbc="T T T"
C        0.02162825       0.04709212       7.56840872      -0.08399310      -1.18710736      -0.57002599      -0.89922819      -1.20585601      -1.05352769      -0.71939569      -1.06112024      -1.08343176      -0.71939569      -1.06112024      -1.08343176
C        1.27068315       0.71972621       7.47420326      -0.03157800       0.06862573      -0.20407205      -1.70900936      -0.33980171       0.09658482      -1.87410075      -0.45398200       0.16302774      -1.87410075      -0.45398200       0.16302774
C       -1.20866663       2.15531044       7.50307696      -0.76971212      -1.26371038      -0.35116198      -2.77794087       0.63224870      -0.20234096      -2.50058526       0.37171004      -0.19531539      -2.50058526       0.37171004      -0.19531539
C       -0.00308824       2.86063282       7.47730378       0.13403682       0.52408726       0.14570594       0.08388872      -0.50712366       0.57357928       0.12185229      -0.56758182       0.52044759       0.12185229      -0.56758182       0.52044759
C       -2.48567305       4.29480303       7.46667497       0.14172468       0.36319616      -0.61768687       0.04548564      -0.69425086      -0.01391620      -0.00194195      -0.61946180       0.03805824      -0.00194195      -0.61946180       0.03805824
C       -1.23390347       4.96822520       7.41742278      -0.17137418      -0.93625659       0.39982432       0.25367848      -0.12033760       0.71988799       0.21466577      -0.11218443       0.73233014       0.21466577      -0.11218443       0.73233014
C        2.48531052      -0.01933573       7.41096515      -0.53223684       0.65377502      -0.43127504      -0.57574422       0.86946413       0.46090017      -0.50775765       0.82246222       0.43444701      -0.50775765       0.82246222       0.43444701
C        3.69662377       0.69341263       7.48172272       0.32591067      -0.22221594       0.39890914       1.47206828      -0.01187723       0.04016041       1.55168724      -0.15536354       0.06805016       1.55168724      -0.15536354       0.06805016
C        1.19854356       2.13423966       7.49136858       0.35912939       0.18056376       1.05162970       1.83785867      -0.93006994      -0.32342678       1.84371571      -0.85615884      -0.30746820       1.84371571      -0.85615884      -0.30746820
C        2.46104258       2.76172498       7.46892382       0.65218403      -0.43250395      -0.01058849       0.03222644       3.22100960       0.09970912      -0.04831154       3.22129376       0.07532689      -0.04831154       3.22129376       0.07532689
C        0.01464328       4.26597368       7.53728847      -0.38297236      -0.52125501       1.41743928      -2.14753299      -0.48799892      -0.54696889      -2.40398840      -0.56158318      -0.61246865      -2.40398840      -0.56158318      -0.61246865
C        1.20020517       4.92139642       7.60429013       0.14124885       0.39108297      -0.40948042       2.72077743       2.06070810      -0.46057486       2.94485286       2.06257135      -0.39826131       2.94485286       2.06257135      -0.39826131
C        4.93360959      -0.01170698       7.59270183       0.29970946       1.15417751      -0.54942871      -0.47478572      -0.38585918      -0.72208287      -0.54151264      -0.14808346      -0.75062508      -0.54151264      -0.14808346      -0.75062508
C        6.14629695       0.74597596       7.50422279       0.47379360       0.59307548       0.16068167       0.82212786      -0.87088437       1.01158367       0.74993937      -0.82762345       1.00544223       0.74993937      -0.82762345       1.00544223
C        3.72320112       2.12424521       7.46131428       0.12151418       0.10868934       0.70021402      -2.11616014      -1.35030507       0.34383074      -2.13207855      -1.39188161       0.31403505      -2.13207855      -1.39188161       0.31403505
C        4.87208045       2.86542871       7.51932230       0.01149913       0.92044360      -0.70111956       3.43448085      -0.03890086      -0.57267258       3.21883887       0.22967073      -0.51981278       3.21883887       0.22967073      -0.51981278
C        2.45350159       4.20914212       7.51830441      -0.68782168      -0.06670483      -0.39305984      -0.04940933       0.71988582       0.27194843      -0.03225783       0.66379559       0.26353447      -0.03225783       0.66379559       0.26353447
C        3.66396142       5.00258589       7.50248505      -0.00106251      -0.32796276      -0.03650513       0.04721845      -0.56005093       0.27732620       0.11637790      -0.61647932       0.25268416       0.11637790      -0.61647932       0.25268416
18
Lattice="7.38 0.0 0.0 -3.69 6.391267479929157 0.0 0.0 -0.0 15.0" Properties=species:S:1:pos:R:3:momenta:R:3:mace_forces:R:3:forces:R:3:REF_forces:R:3 T=600.0 mace_forces_rms=1.6230045920527718 energy=-2790.8484283812354 REF_energy=-2790.8484283812354 pbc="T T T"
C        0.02466533       0.01992615       7.42077182      -0.26194560       0.10269633      -1.05503172      -1.19037679      -0.31006853      -0.33267969      -1.37623002      -0.31221934      -0.26384789      -1.37623002      -0.31221934      -0.26384789
C        1.19867942       0.74103068       7.38089158       0.50698812      -1.04883408      -0.33028803       2.08626079       0.41970495       0.46390852       2.09463481       0.60439359       0.51327909       2.09463481       0.60439359       0.51327909
C       -1.17111935       2.13581634       7.44356345      -0.25282200       0.31054462       0.58348588      -2.05245153       0.36198173      -0.12027980      -1.96736854       0.19204444      -0.03829272      -1.96736854       0.19204444      -0.03829272
C        0.01510172       2.85518468       7.54131779       0.38354271      -0.88236107      -0.20078464       0.88613127      -0.41065984       0.01526606       0.92646926      -0.39652787      -0.03901289       0.92646926      -0.39652787      -0.03901289
C       -2.51370244       4.22609201       7.52861596       0.27474170       0.80183456      -0.06328872       2.38640918       0.07607726       1.25989245       2.54864920      -0.14064500       1.11339514       2.54864920      -0.14064500       1.11339514
C       -1.27335883       4.91565916       7.63855970       0.11192244      -0.53537801      -0.15022586       0.76578243       3.04547531      -1.19432505       0.76563698       2.47393449      -1.40291833       0.76563698       2.47393449      -1.40291833
C        2.42565330       0.02654036       7.45387234       0.22436810       0.87060280      -0.78942647      -0.52500026      -3.66343889       0.05420194      -0.45394703      -3.11086359       0.29437177      -0.45394703      -3.11086359       0.29437177
C        3.64670002       0.65309300       7.34266035      -1.10099890      -0.02189142       0.34990353       3.01091867       1.55895299       1.15978656       2.71100074       1.68475906       1.19335876       2.71100074       1.68475906       1.19335876
C        1.24650323       2.16902787       7.43912876       1.46248227      -0.37309972       0.15815552       0.23686814      -0.17354085       0.32363250       0.24318599      -0.18428768       0.20729082       0.24318599      -0.18428768       0.20729082
C        2.48084800       2.89693178       7.54619020       0.56552207       0.14134605       0.71772749       0.67796170      -2.07906585       0.70626448       0.40193182      -1.66833382       0.69954755       0.40193182      -1.66833382       0.69954755
C       -0.00447508       4.24444905       7.68286964      -0.89075666       0.38819424       0.41866048      -1.75554403       1.02684695      -0.69015553      -1.75329721       1.06161107      -0.57847687      -1.75329721       1.06161107      -0.57847687
C        1.19492716       4.97905950       7.59084249       0.15617593       0.91256037       0.88950152       1.17367326      -1.36929884       0.08049318       0.98964332      -1.42219260       0.27471440       0.98964332      -1.42219260       0.27471440
C        4.93098746      -0.08566238       7.34532756      -1.55031991       0.16474962       0.68587736      -0.80939200       5.65629694       0.34470962      -1.03095272       5.29228701       0.09121246      -1.03095272       5.29228701       0.09121246
C        6.17966068       0.75071631       7.29577646       0.37727962       0.89892348       0.24547902      -1.49003234      -3.61271725       1.06668168      -0.86501218      -3.27299864       1.10360387      -0.86501218      -3.27299864       1.10360387
C        3.73923135       2.10670227       7.55213226      -0.15261937      -0.43288474      -0.56703309      -2.49227356       0.15621979      -1.37164083      -2.22412739      -0.16482957      -1.45570025      -2.22412739      -0.16482957      -1.45570025
C        4.94715164       2.80815826       7.54793624       1.05074882      -0.30523146       0.18221587      -0.29287608      -0.03773315      -0.29876374      -0.39780468       0.11489206      -0.28621366      -0.39780468       0.11489206      -0.28621366
C        2.43042433       4.31529272       7.69008399      -1.13753292      -0.43257741      -0.88427725       2.00494195      -1.23569291      -1.36270888       2.18185228      -1.43352062      -1.36993416       2.18185228      -1.43352062      -1.36993416
C        3.71212207       4.98085459       7.55945942       0.23322358      -0.55919415      -0.19065090      -2.62100081       0.59066021      -0.10428347      -2.79426437       0.68249728      -0.05637709      -2.79426437       0.68249728      -0.05637709
18
Lattice="7.38 0.0 0.0 -3.69 6.391267479929157 0.0 0.0 -0.0 15.0" Properties=species:S:1:pos:R:3:momenta:R:3:mace_forces:R:3:forces:R:3:REF_forces:R:3 T=100.0 mace_forces_rms=0.8143747272889601 energy=-2792.026078842575 REF_energy=-2792.026078842575 pbc="T T T"
C       -0.01941940       0.01793022       7.54207355      -0.23214651      -0.35899392       0.21633632       0.35450609      -0.99036643      -0.38986649       0.36985910      -0.88942095      -0.40708791       0.36985910      -0.88942095      -0.40708791
C        1.22178453       0.71903195       7.52869988      -0.54131993       0.07673150       0.27593864       0.07003830      -0.79288569      -0.06805420       0.01820804      -0.83837323      -0.08176288       0.01820804      -0.83837323      -0.08176288
C       -1.25272226       2.14847678       7.47633173       0.23159549      -0.18617550       0.32526093       0.31545280      -1.20673880      -0.49628210       0.32530060      -1.06123491      -0.45602988       0.32530060      -1.06123491      -0.45602988
C        0.00342624       2.83045660       7.49375929      -0.21634292       0.53896373      -0.11899279      -0.78389146       0.11521096      -0.47128364      -0.83907592       0.10997534      -0.45445405      -0.83907592       0.10997534      -0.45445405
C       -2.44995337       4.29473632       7.46400107      -0.24035470      -0.00320465       0.05818363       0.00154794      -1.87290179      -0.05982526       0.02070021      -1.85717929      -0.11743462       0.02070021      -1.85717929      -0.11743462
C       -1.22278932       4.95315602       7.44966195       0.00507095       0.14397338       0.33771026       0.79115954       1.33882960       0.36037223       0.81734547       1.35026573       0.36607804       0.81734547       1.35026573       0.36607804
C        2.46872889      -0.00205477       7.53378423       0.36986986      -0.21224116       0.02673214      -0.42124402       0.00763235      -0.41824493      -0.35301349       0.03296823      -0.40872596      -0.35301349       0.03296823      -0.40872596
C        3.69196423       0.71455745       7.50961557       0.63594264      -0.02618029      -0.33970279       0.39452931      -0.42636563       0.20000820       0.28539117      -0.42488740       0.22378471       0.28539117      -0.42488740       0.22378471
C        1.21336597       2.12212521       7.48234518       0.06663925      -0.40338887       0.09124945       1.11518066       0.54038893       0.69957049       1.16274387       0.56242625       0.68331874       1.16274387       0.56242625       0.68331874
C        2.45735458       2.84387564       7.54339533      -0.32425343       0.07593321       0.09872166      -0.07818568      -0.25453837      -0.13833561      -0.10029719      -0.28720045      -0.18343510      -0.10029719      -0.28720045      -0.18343510
C        0.02060669       4.24780676       7.45230135      -0.05901116      -0.57433373       0.15320633      -0.73382052       0.05038304       0.30804085      -0.70543820       0.06479206       0.32083074      -0.70543820       0.06479206       0.32083074
C        1.23543104       4.95995522       7.50499682       0.32940960       0.47724555      -0.01472275       0.76819260      -0.29908079       0.07446292       0.75844509      -0.39760979       0.07977799       0.75844509      -0.39760979       0.07977799
C        4.93631690      -0.02725943       7.49671385       0.29740162      -0.44445710      -0.80238779      -2.19934363       0.80324158      -0.21157683      -2.29164276       0.70047572      -0.21344964      -2.29164276       0.70047572      -0.21344964
C        6.10345674       0.69256650       7.46489674       0.36885982       0.10661659      -0.18093241       2.26143773       1.57955552       0.67695738       2.45631806       1.57053934       0.66528991       2.45631806       1.57053934       0.66528991
C        3.69307678       2.14325137       7.53357387      -0.09204560       0.07590052      -0.19816616      -0.34650498      -0.55192375      -0.60647793      -0.26421376      -0.47326296      -0.61038992      -0.26421376      -0.47326296      -0.61038992
C        4.91120857       2.85736219       7.41898069      -0.01310333       0.29002970       0.08429512       0.25215984       0.45373639       0.94638278       0.18372538       0.34726759       0.94588648       0.18372538       0.34726759       0.94588648
C        2.48663107       4.26179073       7.56487586      -0.59894828       0.22609311      -0.17909851      -0.93226212      -0.39254119      -0.41550804      -0.91831500      -0.35226607      -0.40637571      -0.91831500      -0.35226607      -0.40637571
C        3.71153210       4.96110759       7.53999302       0.01273661       0.19748794       0.16636871      -0.82895242       1.89836407       0.00966018      -0.92604040       1.84272481       0.05417854      -0.92604040       1.84272481       0.05417854
18
Lattice="7.38 0.0 0.0 -3.69 6.391267479929157 0.0 0.0 -0.0 15.0" Properties=species:S:1:pos:R:3:momenta:R:3:mace_forces:R:3:forces:R:3:REF_forces:R:3 T=300.0 mace_forces_rms=1.2633831280922263 energy=-2791.5609652706007 REF_energy=-2791.5609652706007 pbc="T T T"
C       -0.00005537       0.00994406       7.40578398      -0.57484629      -0.17703776      -0.38295525       0.13807018      -0.64001460      -0.11102145       0.24632094      -0.43544177      -0.15824523       0.24632094      -0.43544177      -0.15824523
C        1.21698242       0.75198454       7.52201444       0.11918175      -0.33887387       0.95097542       0.25640227      -1.58378373       0.16417802       0.12626919      -1.59593258       0.16636606       0.12626919      -1.59593258       0.16636606
C       -1.24370040       2.13867678       7.54928703      -0.35073862      -0.05693448       0.17288978      -0.59057862      -2.20741966      -0.88184721      -0.73504060      -2.28367902      -0.91545979      -0.73504060      -2.28367902      -0.91545979
C       -0.04362842       2.78910642       7.59479221      -0.40901804      -0.79053618      -0.94407397       2.38793193       3.34399584      -0.25325119       2.57206630       3.30740077      -0.25691414       2.57206630       3.30740077      -0.25691414
C       -2.44473262       4.25679524       7.44507349      -0.95296365       0.28779846       0.29074226      -0.12135974      -0.39493985      -0.05593516      -0.02745938      -0.43808127      -0.03534238      -0.02745938      -0.43808127      -0.03534238
C       -1.23116541       4.98197895       7.51141412      -0.31384527       0.64905864      -0.38028950       0.93349191      -1.95384148       0.39155829       0.80247601      -2.01003780       0.35578823       0.80247601      -2.01003780       0.35578823
C        2.43099131      -0.03040068       7.60080231      -0.43451820       0.29432860       0.00571304       0.22321937       2.51991784      -1.04643995       0.32558316       2.64982443      -0.97115554       0.32558316       2.64982443      -0.97115554
C        3.64358666       0.70820968       7.52282082       0.76915751      -1.00493639       0.03056917       2.39538105      -0.69005815      -0.13382349       2.09220409      -0.56204109      -0.15790044       2.09220409      -0.56204109      -0.15790044
C        1.23437404       2.16826284       7.58512800      -0.02731868      -0.17981293       0.72236777      -0.28551173      -1.47890402       0.04413934      -0.27317225      -1.47256591       0.04273816      -0.27317225      -1.47256591       0.04273816
C        2.47613428       2.85317967       7.57567288       0.71032620       0.60704295      -0.86207234      -0.00435208       0.36913554      -0.92472848       0.08450033       0.27634140      -1.00398699       0.08450033       0.27634140      -1.00398699
C        0.02509980       4.24188126       7.54597784       0.77975784      -0.07198255       0.18367567      -1.58194963       0.64904826       0.18074917      -1.42203294       0.71420541       0.12532534      -1.42203294       0.71420541       0.12532534
C        1.23393067       4.99960904       7.50693306      -0.24631471      -0.74447159      -0.08686758       1.03214764      -1.98102502       0.27960105       0.82010092      -1.91337641       0.27077676       0.82010092      -1.91337641       0.27077676
C        4.93806561       0.01066314       7.48592659       1.04642530      -0.13397075      -0.34530761      -2.89540187      -0.19001297      -0.47329463      -2.78145540      -0.35577794      -0.39194899      -2.78145540      -0.35577794      -0.39194899
C        6.13441800       0.68463814       7.39189741       0.03532802       1.06307930      -0.31040426       1.05808148       1.89634168       1.10150786       1.17610358       1.92025874       1.13294067       1.17610358       1.92025874       1.13294067
C        3.70689239       2.11912194       7.41525163       0.75936393      -0.30517698      -0.05731776      -1.69400016       0.26953819       1.41858025      -1.73837607       0.26397593       1.42268651      -1.73837607       0.26397593       1.42268651
C        4.91700160       2.83656700       7.47247076      -1.32293730       0.66207166       0.68906780       0.47201306       0.18588421      -0.20305660       0.36653647       0.24051719      -0.20689693       0.36653647       0.24051719      -0.20689693
C        2.50209686       4.27604478       7.50517162       0.35883987       0.47706550      -0.18655885      -1.90873935      -0.45522074      -0.40160813      -1.65485198      -0.44445658      -0.28811371      -1.65485198      -0.44445658      -0.28811371
C        3.71370860       4.94260955       7.36358179       0.05412034      -0.23671164       0.50984620       0.18515430       2.34135865       0.90469229       0.02022815       2.13886601       0.86934243       0.02022815       2.13886601       0.86934243
18
Lattice="7.38 0.0 0.0 -3.69 6.391267479929157 0.0 0.0 -0.0 15.0" Properties=species:S:1:pos:R:3:momenta:R:3:mace_forces:R:3:forces:R:3:REF_forces:R:3 T=100.0 mace_forces_rms=0.6214594817724807 energy=-2792.1572905028916 REF_energy=-2792.1572905028916 pbc="T T T"
C        0.02020747      -0.01411812       7.52582965      -0.33075865      -0.10538646       0.32727654      -1.09625160       0.04728621      -0.18727978      -1.12649183       0.07873386      -0.17919535      -1.12649183       0.07873386      -0.17919535
C        1.23126778       0.67818543       7.48481336      -0.19200688       0.02613153       0.59667394       0.71904678       1.54624097      -0.00061094       0.73143823       1.48954805      -0.00815297       0.73143823       1.48954805      -0.00815297
C       -1.21217324       2.13889409       7.48457457      -0.27994529      -0.02156916       0.07977518      -0.60082300      -0.14717610       0.40586454      -0.57801304      -0.19527657       0.40979039      -0.57801304      -0.19527657       0.40979039
C       -0.00673213       2.85127580       7.47749928      -0.17096257       0.48800878       0.30218937       0.80705688       0.44509562      -0.24016699       0.81802424       0.37486684      -0.26967555       0.81802424       0.37486684      -0.26967555
C       -2.48323540       4.25068848       7.48876380      -0.29752852      -0.16499837       0.36571979       0.70144134       0.31964576      -0.14962767       0.68003339       0.29642428      -0.15299298       0.68003339       0.29642428      -0.15299298
C       -1.23113755       4.95244756       7.45094869       0.10202576       0.14497086      -0.21627696      -0.50779293       1.36675908       0.11981691      -0.51880825       1.35531178       0.15713914      -0.51880825       1.35531178       0.15713914
C        2.48123101      -0.00070640       7.46655982       0.18477875      -0.70086556      -0.05538803      -0.82833712      -0.54946039      -0.02204606      -0.78300787      -0.50852384      -0.02445479      -0.78300787      -0.50852384      -0.02445479
C        3.69456854       0.73007322       7.48654163      -0.05555399       0.16105462      -0.40063713       0.35156493      -0.98956341       0.25559897       0.33296352      -1.08776150       0.23417993       0.33296352      -1.08776150       0.23417993
C        1.21490288       2.12884668       7.47692842      -0.60696154      -0.09945776      -0.00373170       0.43063158      -0.67724509       0.41174315       0.45259412      -0.59262205       0.42746544       0.45259412      -0.59262205       0.42746544
C        2.45405862       2.83440552       7.54075602      -0.19172454       0.89725918       0.56656341      -0.24049846       0.03407197      -0.47057112      -0.25481252       0.00184040      -0.46819017      -0.25481252       0.00184040      -0.46819017
C        0.00368437       4.29442648       7.45178425      -0.24194172       0.44763946      -0.68334834      -0.61805104      -2.00528575       0.32264530      -0.63504628      -1.94736356       0.31056458      -0.63504628      -1.94736356       0.31056458
C        1.21500391       4.97452810       7.51481227       0.07110460       0.17601053       0.26413234       0.87492344       0.84240886      -0.08568041       0.88940629       0.87550202      -0.05387618       0.88940629       0.87550202      -0.05387618
C        4.92968643       0.01226741       7.53699214       0.95673890      -0.14037755      -0.30260591       0.23165007       0.08590236      -0.18626180       0.19811044       0.08563470      -0.20739521       0.19811044       0.08563470      -0.20739521
C        6.17822966       0.71920104       7.55437455       0.61140233       0.12071081      -0.18086787      -0.64566588      -0.40346466      -0.38320758      -0.62226276      -0.38592850      -0.38041888      -0.62226276      -0.38592850      -0.38041888
C        3.68782544       2.12960866       7.52103301      -0.09147262      -0.48400183      -0.07439297       0.27400544       0.59357852      -0.00411518       0.26730217       0.69698519       0.01062534       0.26730217       0.69698519       0.01062534
C        4.92966881       2.84022793       7.50968567       0.42955400      -0.53592368      -0.49275089      -0.65519975      -0.25762689      -0.13887692      -0.67151430      -0.24881799      -0.12260074      -0.67151430      -0.24881799      -0.12260074
C        2.44426688       4.25579786       7.53154061       0.15160793      -0.44476349      -0.17222006      -0.29644785      -0.06415923      -0.04220121      -0.24577432      -0.06479514      -0.05055560      -0.24577432      -0.06479514      -0.05055560
C        3.65867652       4.96282262       7.49656226      -0.04835594       0.23555809       0.07988930       1.09874716      -0.18700782       0.39497680       1.06585904      -0.22375771       0.36774309       1.06585904      -0.22375771       0.36774309
18
Lattice="7.38 0.0 0.0 -3.69 6.391267479929157 0.0 0.0 -0.0 15.0" Properties=species:S:1:pos:R:3:momenta:R:3:mace_forces:R:3:forces:R:3:REF_forces:R:3 T=100.0 mace_forces_rms=0.8094523302919098 energy=-2792.0529247775557 REF_energy=-2792.0529247775557 pbc="T T T"
C       -0.00426131      -0.02103566       7.51094665       0.41569814       0.13090878      -0.00249975       1.27713066       0.65286436       0.13519257       1.07352222       0.51848635       0.14788934       1.07352222       0.51848635       0.14788934
C        1.26398093       0.72293028       7.56309425       0.12608194       0.43839202      -0.03996744      -2.19114427      -1.27944899      -0.44959362      -1.99446514      -1.12984480      -0.43695847      -1.99446514      -1.12984480      -0.43695847
C       -1.23382525       2.11898252       7.44120053      -0.69259387       0.30798043      -0.11096879       0.97272876       0.40176252       0.41550450       0.92878942       0.36756079       0.41745177       0.92878942       0.36756079       0.41745177
C        0.01457571       2.83284676       7.47784705       0.31727898       0.39048588      -0.16418386      -1.01760694       0.42236901      -0.37009493      -0.99442788       0.43486662      -0.39925221      -0.99442788       0.43486662      -0.39925221
C       -2.47516869       4.26653540       7.52306641       0.24807098       0.03761679       0.09499613       0.70310850      -0.43680673      -0.40389920       0.69873251      -0.48439481      -0.39857961       0.69873251      -0.48439481      -0.39857961
C       -1.25453576       4.97884970       7.49540381      -0.47032434      -0.15668343      -0.00658735       0.71535173      -0.21440908       0.13712024       0.74793674      -0.16611975       0.13006902       0.74793674      -0.16611975       0.13006902
C        2.46842483       0.00050424       7.54467163       0.19404125       0.25565848       0.35417864       0.37480011       0.28612347      -0.24494671       0.36338429       0.23490498      -0.27832886       0.36338429       0.23490498      -0.27832886
C        3.70063186       0.71869222       7.49047821       0.09356449       0.09719196      -0.05292629      -0.01024194      -0.03874007       0.32383090       0.00538826       0.02412260       0.31277341       0.00538826       0.02412260       0.31277341
C        1.23219557       2.12543176       7.50641508       0.30867462      -0.27580104       0.28678576       0.52407238       0.49653881       0.39709032       0.49657104       0.44253493       0.41273456       0.49657104       0.44253493       0.41273456
C        2.46453398       2.85321256       7.53134462      -0.30840005      -0.70768029       0.29607481      -0.61445135      -1.24785274      -0.40265007      -0.58013318      -1.35944329      -0.37745568      -0.58013318      -1.35944329      -0.37745568
C       -0.01370252       4.27393241       7.45182547       0.14685988      -0.34759141      -0.12744000      -0.16485906      -0.46604708       0.68634396      -0.14524830      -0.44014458       0.69956375      -0.14524830      -0.44014458       0.69956375
C        1.20220362       4.99663086       7.53033685      -0.06503935       0.45205167       0.25686875       1.36447954      -1.37717572      -0.98436326       1.24492584      -1.30832307      -0.98716863       1.24492584      -1.30832307      -0.98716863
C        4.94395397       0.01481260       7.47866324       0.04918802       0.15907773      -0.38962000      -1.57752628      -0.47835855       0.24884901      -1.71210377      -0.59315787       0.25574326      -1.71210377      -0.59315787       0.25574326
C        6.15339018       0.69133269       7.47689537       0.12440152       0.03782343      -0.32232633       0.73707520       0.87634296      -0.13174082       0.88125435       0.96523172      -0.13401412       0.88125435       0.96523172      -0.13401412
C        3.68241781       2.13677475       7.51963633       0.05104606      -0.25553564      -0.26259795       1.13077470       0.20747620      -0.23980553       1.08057552       0.12838084      -0.26355967       1.08057552       0.12838084      -0.26355967
C        4.94023026       2.85234897       7.48075283      -0.28003578      -0.11183730      -0.39778224      -1.26246130      -0.79909185       0.08965628      -1.18552487      -0.74259270       0.13977057      -1.18552487      -0.74259270       0.13977057
C        2.44442134       4.23198640       7.47384017      -0.15260673       0.23025011       0.05709326      -0.41840777       2.12990912       0.71796617      -0.35180482       2.20829351       0.70763007      -0.35180482       2.20829351       0.70763007
C        3.68053348       4.94410391       7.50358149      -0.10590577      -0.68230817       0.53090266      -0.54282268       0.86454432       0.07554019      -0.55737274       0.89963877       0.05169126      -0.55737274       0.89963877       0.05169126
18
Lattice="7.38 0.0 0.0 -3.69 6.391267479929157 0.0 0.0 -0.0 15.0" Properties=species:S:1:pos:R:3:momenta:R:3:mace_forces:R:3:forces:R:3:REF_forces:R:3 T=300.0 mace_forces_rms=1.322943657176638 energy=-2791.583423097819 REF_energy=-2791.583423097819 pbc="T T T"
C       -0.02653746       0.02709069       7.49631568      -0.39570364      -0.17711499       0.80992098       2.92572584      -0.17684263       0.90322224       2.89037710      -0.37102124       0.95796553       2.89037710      -0.37102124       0.95796553
C        1.26735726       0.73792907       7.54791510      -1.02854839      -0.55536871      -0.27856281      -2.49362200      -1.71214478      -0.49172130      -2.32319020      -1.59581457      -0.45837987      -2.32319020      -1.59581457      -0.45837987
C       -1.22885171       2.11673607       7.50222043      -0.99249198      -0.06908274      -0.39751762       0.21059614       1.37214209      -0.57219759       0.23319134       1.29593190      -0.52894354       0.23319134       1.29593190      -0.52894354
C        0.02731367       2.80258307       7.45577699      -0.83470535       0.13769403       0.42229250      -1.26314029       1.67046514       0.83213337      -1.22173937       1.53804805       0.81789594      -1.22173937       1.53804805       0.81789594
C       -2.49671674       4.27805075       7.59092359       0.00461108       0.35436979      -0.46668095       2.79981987      -1.04760167      -0.47171181       2.67462297      -1.15859462      -0.51832488       2.67462297      -1.15859462      -0.51832488
C       -1.20829453       4.96318793       7.48591509      -1.44760320       0.38939409      -0.18971677      -1.61197784      -1.31294972       0.42777060      -1.53173265      -1.21214067       0.41611376      -1.53173265      -1.21214067       0.41611376
C        2.44087697      -0.04766855       7.48464761       0.26115933       0.79865889      -0.83575627       1.88678787       2.23063059      -0.06508378       1.74953749       2.17220859      -0.08780137       1.74953749       2.17220859      -0.08780137
C        3.69833890       0.68832059       7.40605758       0.02431960      -0.60341166      -0.46962110      -1.23997459       0.27151901       0.33043619      -1.02411718       0.17595319       0.34064443      -1.02411718       0.17595319       0.34064443
C        1.24343979       2.14887117       7.53248167       0.45214020       0.60542244      -0.33950399       0.89838230      -0.68482729      -0.92047671       0.83794695      -0.64494657      -0.89666709       0.83794695      -0.64494657      -0.89666709
C        2.46748853       2.87951710       7.44115173       0.90831609      -0.02042297       0.32245030      -0.02903535      -1.08300353       0.92526571       0.02848268      -0.87683565       0.88190021       0.02848268      -0.87683565       0.88190021
C        0.03602537       4.24969706       7.47195453       0.23689749      -0.28670475      -0.13391487      -2.93938755      -1.34846087       0.27380548      -3.30437767      -1.55038318       0.09558127      -3.30437767      -1.55038318       0.09558127
C        1.17406369       4.95502654       7.56701258       1.02179684      -0.67433650       0.35060646       3.80691896       1.20559178      -1.12777425       4.12055868       1.60428970      -0.95647994       4.12055868       1.60428970      -0.95647994
C        4.91064173      -0.01084409       7.44013764       0.98520293       0.58078844       0.31535352       0.27857827       0.36440189       0.50803880       0.03458082       0.28969365       0.57229260       0.03458082       0.28969365       0.57229260
C        6.15935459       0.72657037       7.45401946      -0.39078931       0.11994169       0.58743773      -1.58991876      -1.31768399       0.23744719      -1.54455783      -1.14828604       0.14850203      -1.54455783      -1.14828604       0.14850203
C        3.67373791       2.11784839       7.43229040       0.55640546      -0.42623204       0.46643103       1.03147000       0.68053922       0.14987099       1.10994061       0.82071670       0.14579672       1.10994061       0.82071670       0.14579672
C        4.91991661       2.84552210       7.52060838      -0.25555138      -0.09459372       0.17674493      -0.75220514      -0.34950040      -0.13449880      -0.88015495      -0.37969743      -0.09671282      -0.88015495      -0.37969743      -0.09671282
C        2.45410682       4.28109589       7.54844176       0.73162200       0.00985469      -0.60249945      -0.19727658      -0.01293424       0.15156564      -0.12329622      -0.26144802       0.18343356      -0.12329622      -0.26144802       0.18343356
C        3.69773861       4.97933821       7.62212977       0.16292223      -0.08885600       0.26253638      -1.72174112       1.25065941      -0.95609198      -1.72607231       1.30232649      -1.01681602      -1.72607231       1.30232649      -1.01681602
18
Lattice="7.38 0.0 0.0 -3.69 6.391267479929157 0.0 0.0 -0.0 15.0" Properties=species:S:1:pos:R:3:momenta:R:3:mace_forces:R:3:forces:R:3:REF_forces:R:3 T=300.0 mace_forces_rms=1.1803241204986799 energy=-2791.7009236220906 REF_energy=-2791.7009236220906 pbc="T T T"
C        0.01931310       0.00190690       7.48099711       0.85826707       0.84622201      -0.41100480      -0.77482375      -2.64584106       0.27180397      -0.97995000      -2.30070050       0.31928525      -0.97995000      -2.30070050       0.31928525
C        1.24620065       0.66134604       7.45509667       0.28807822      -0.10792734       0.50149584       0.29873434       2.17886201       0.46083183       0.32022396       2.23192837       0.46054885       0.32022396       2.23192837       0.46054885
C       -1.18738653       2.13369944       7.61497236       1.37091513       0.44834865      -0.12649484      -2.00062332      -0.16605672      -1.03271692      -1.92909176      -0.11734695      -1.04282967      -1.92909176      -0.11734695      -1.04282967
C        0.00196507       2.84032633       7.54759300       0.11320613      -0.79260340       0.80698475       0.69783206       0.24542235      -0.23862821       0.64498720       0.18177751      -0.29031637       0.64498720       0.18177751      -0.29031637
C       -2.43094032       4.22618412       7.42260645       0.69920746       0.78930620       0.06436842      -1.93440597       1.45923328       0.33254794      -1.94200847       1.46551132       0.30949603      -1.94200847       1.46551132       0.30949603
C       -1.22852799       4.94351020       7.42650016       0.49248976      -0.29977964      -0.60544128       0.17161677       1.87306113       0.40429602       0.12082205       1.84754691       0.41003439       0.12082205       1.84754691       0.41003439
C        2.50702164       0.00551256       7.49164532       0.25258615      -1.11212561       0.84182611      -2.74432656      -1.89505103      -0.83540097      -3.04089847      -1.97321472      -0.81088223      -3.04089847      -1.97321472      -0.81088223
C        3.65271540       0.72239686       7.48063608       0.07871767      -0.06441395       0.16408294       2.59097797       1.87590669       0.84805207       2.85069572       1.93170297       0.86844846       2.85069572       1.93170297       0.86844846
C        1.22376712       2.10675969       7.49295337      -0.14896437       0.65881675      -0.05206168      -0.05117187      -0.19971918       0.29302355      -0.04869001      -0.23992583       0.25525706      -0.04869001      -0.23992583       0.25525706
C        2.42647454       2.84757415       7.51735396      -1.19426715       1.28189560      -0.09804838       0.25933746      -0.26059119      -0.24505088       0.36311536      -0.37582432      -0.24688607       0.36311536      -0.37582432      -0.24688607
C       -0.03593553       4.27418669       7.47413058       0.28787181      -0.56274143      -0.35419992       2.66313090      -0.55393460       0.15940887       2.68098208      -0.64088552       0.20677969       2.68098208      -0.64088552       0.20677969
C        1.22815027       5.00681437       7.49743898      -1.16980920      -0.11804310       0.06008193      -1.50943770      -0.39583022      -0.02908329      -1.38709164      -0.20467498      -0.03162740      -1.38709164      -0.20467498      -0.03162740
C        4.91379621       0.04294506       7.53672293      -0.91471831       0.29055346       0.56548588       0.30518778      -0.86685879      -0.30304097       0.35089439      -0.97728942      -0.35382493       0.35089439      -0.97728942      -0.35382493
C        6.17302611       0.71675735       7.57128056       0.19264318      -0.62689591      -1.05270967      -0.29959272       0.16672288      -0.07099298      -0.17165173       0.04287083      -0.09263170      -0.17165173       0.04287083      -0.09263170
C        3.66402308       2.18305102       7.53761806      -0.17277051       0.10847924      -0.89749551       0.82223166      -1.90507179      -0.65033035       0.69789201      -1.70643783      -0.67540695       0.69789201      -1.70643783      -0.67540695
C        4.93578917       2.84991893       7.47907176      -0.59966822      -0.28617129       1.06818047      -0.06956344      -1.51026557       0.80367859      -0.06342500      -1.60996721       0.87726888      -0.06342500      -1.60996721       0.87726888
C        2.42106336       4.25440722       7.49117535      -0.00146942      -0.57819002       0.22678836       1.01679904       0.80835380       0.25157646       1.13672610       0.92270619       0.28913623       1.13672610       0.92270619       0.28913623
C        3.67948466       4.92157543       7.48220731      -0.43231540       0.12526979      -0.70183861       0.55809737       1.79165800      -0.41997472       0.39646848       1.52222317      -0.45184927       0.39646848       1.52222317      -0.45184927
18
Lattice="7.38 0.0 0.0 -3.69 6.391267479929157 0.0 0.0 -0.0 15.0" Properties=species:S:1:pos:R:3:momenta:R:3:mace_forces:R:3:forces:R:3:REF_forces:R:3 T=300.0 mace_forces_rms=1.0551336518626173 energy=-2791.7617260987686 REF_energy=-2791.7617260987686 pbc="T T T"
C       -0.05760854      -0.00629513       7.44987508       0.54759181       1.89945930       0.01241839       3.52379560       0.82449337      -0.16851010       3.35518601       0.69751098      -0.28505538       3.35518601       0.69751098      -0.28505538
C        1.21270329       0.71850170       7.38393351       0.55399895      -0.17385948       0.14776910      -0.24973891      -0.33291649       1.06728488       0.06931334      -0.19587127       1.11403380       0.06931334      -0.19587127       1.11403380
C       -1.22558752       2.10583266       7.51816421       0.03960278       0.29533825       0.73034121      -0.19451782       0.60572859       0.17311590      -0.21216049       0.72109828       0.20988018      -0.21216049       0.72109828       0.20988018
C       -0.00073534       2.84958905       7.48511250      -0.84171793       0.95998964      -0.28300447       0.30058496      -1.17899314      -0.50120869       0.21936524      -1.08441804      -0.50729511       0.21936524      -1.08441804      -0.50729511
C       -2.46997059       4.25365565       7.45797081       0.55357661       0.69574875       0.40441102       1.96151120       0.15147295      -0.26218100       1.94666165       0.02099511      -0.26661517       1.94666165       0.02099511      -0.26661517
C       -1.20869980       4.97827341       7.44410545       0.29471992      -0.63345903       0.14318719      -1.69041689      -0.32256677       0.28677751      -1.61051845      -0.29178756       0.34898843      -1.61051845      -0.29178756       0.34898843
C        2.45515626       0.01167236       7.52360336       0.42664136      -0.17683806       0.05858493      -0.22963785      -0.40090009      -0.81043532      -0.32912974      -0.28607019      -0.81276042      -0.32912974      -0.28607019      -0.81276042
C        3.67847721       0.72052326       7.59545019       0.75591277      -0.64106633       0.01194378       0.62496319      -0.70318649      -0.64882658       0.46254223      -0.60456277      -0.68507044       0.46254223      -0.60456277      -0.68507044
C        1.25691556       2.13146580       7.44253824      -0.23872611      -0.83590235       0.57935787      -1.13951125       0.73124744       0.59804738      -0.98839736       0.66177547       0.65817824      -0.98839736       0.66177547       0.65817824
C        2.48943181       2.86007460       7.57483570      -1.01212650      -0.31098603      -0.03192427      -1.62896107      -0.19110410      -0.81696533      -1.77196985      -0.24075399      -0.80382146      -1.77196985      -0.24075399      -0.80382146
C       -0.00971431       4.26143004       7.44090259       0.44363482       0.47356566       0.12978304       0.90402834       0.01358440       0.66395660       0.83463871      -0.06546183       0.64856514       0.83463871      -0.06546183       0.64856514
C        1.23693026       4.95957546       7.51684157      -0.60665895      -0.54867537      -0.45687543      -0.08261829       0.56521671      -0.08675135       0.00831212       0.58227876      -0.13832252       0.00831212       0.58227876      -0.13832252
C        4.94283670      -0.00461588       7.54308671      -0.22779802      -0.60898229      -0.49325749      -2.81014719      -0.42541316       0.55465424      -2.97285731      -0.70738401       0.51181099      -2.97285731      -0.70738401       0.51181099
C        6.12737582       0.67375138       7.57437383       0.01704462      -0.34458734      -0.40277092       0.64171623       1.81142542      -0.88107098       0.89385893       1.91311724      -0.76022841       0.89385893       1.91311724      -0.76022841
C        3.66302492       2.13152551       7.54864356      -0.59348668      -0.09915651      -0.13737018       2.03048186      -0.15305829       0.45895855       2.03030786      -0.28348366       0.40153381       2.03030786      -0.28348366       0.40153381
C        4.92172575       2.81665568       7.51254908      -0.11717084       0.32226250      -0.28995783      -0.25539311       0.76596428       0.01539069      -0.14878126       0.79701344      -0.03252703      -0.14878126       0.79701344      -0.03252703
C        2.47141811       4.27852133       7.55322198       0.13613531      -0.70791917       0.19109438       0.66780786      -0.23610286      -0.46310925       0.61873160      -0.14703959      -0.48653037       0.61873160      -0.14703959      -0.48653037
C        3.72632041       4.99873546       7.43479164      -0.13117392       0.43506787      -0.31373031      -2.37394687      -1.52489177       0.82087282      -2.40510323      -1.48695638       0.88523596      -2.40510323      -1.48695638       0.88523596
18
Lattice="7.38 0.0 0.0 -3.69 6.391267479929157 0.0 0.0 -0.0 15.0" Properties=species:S:1:pos:R:3:momenta:R:3:mace_forces:R:3:forces:R:3:REF_forces:R:3 T=100.0 mace_forces_rms=0.8344556866273626 energy=-2792.054603855997 REF_energy=-2792.054603855997 pbc="T T T"
C       -0.00398628      -0.03057080       7.48163019       0.15828881      -0.33233489       0.41198295       0.65626434       1.51248014       0.02338089       0.65212098       1.52428648       0.02327388       0.65212098       1.52428648       0.02327388
C        1.20557521       0.72181084       7.47650578      -0.18084723      -0.29710544       0.02406674       1.74157498      -1.68805905       0.01752807       1.64251506      -1.62451039       0.02993613       1.64251506      -1.62451039       0.02993613
C       -1.22411830       2.13451067       7.50218594       0.38636026      -0.57358816      -0.66220282       1.26968467      -0.13355820      -0.20208097       1.27164397      -0.21042243      -0.22195588       1.27164397      -0.21042243      -0.22195588
C        0.01604651       2.86493584       7.44345741      -0.01344581       0.50236954      -0.41048121      -1.04484244      -1.08266284       0.75555310      -0.97561281      -1.00081219       0.74298942      -0.97561281      -1.00081219       0.74298942
C       -2.48924348       4.25319612       7.45096298      -0.08229989       0.07969233      -0.37568947       1.20022388       0.35032146       0.07590968       1.19349606       0.25796058       0.08773555       1.19349606       0.25796058       0.08773555
C       -1.25318125       4.96572781       7.47631665       0.25582134       0.38132819      -0.14728378       0.33006412       0.24080528       0.06258829       0.34640473       0.33603470       0.07775993       0.34640473       0.33603470       0.07775993
C        2.47172072      -0.00835886       7.48709298      -0.41586022       0.29143118      -0.02141453      -0.79947114       0.98440195       0.18341346      -0.73103816       0.80753234       0.19630655      -0.73103816       0.80753234       0.19630655
C        3.72340700       0.70965331       7.54478903       0.05437943      -0.30137499       0.01221402      -1.24735609      -0.33255784      -0.19311630      -1.16464725      -0.22473704      -0.24049173      -1.16464725      -0.22473704      -0.24049173
C        1.21714007       2.11569122       7.49212277       0.02388479      -0.08383565       0.75366266       0.47943038       1.42095336      -0.25833184       0.42694248       1.42973210      -0.24399923       0.42694248       1.42973210      -0.24399923
C        2.44295604       2.86033086       7.50043543       0.25105656      -0.38225067       0.00278021       1.03101330      -1.84037112      -0.06026902       0.91391482      -1.71401127      -0.05506352       0.91391482      -1.71401127      -0.05506352
C       -0.01228173       4.26886488       7.51263154      -0.21630739       0.06793565      -0.04804249       0.18004947       0.38284314      -0.24296027       0.14495391       0.30130141      -0.22937428       0.14495391       0.30130141      -0.22937428
C        1.21807285       4.99117180       7.56399345       0.16955907      -0.31378862      -0.23849735      -0.01441067      -1.05227922      -0.33760515       0.02021710      -1.08755710      -0.34178780       0.02021710      -1.08755710      -0.34178780
C        4.94488190      -0.00883871       7.57327749      -0.01633827       0.53900142      -0.04291739      -0.06886603       1.07396340      -0.08452870      -0.09649633       1.09701361      -0.08540279      -0.09649633       1.09701361      -0.08540279
C        6.18398596       0.70313121       7.53883368       0.36203866       0.30519760       0.05450275      -1.35417372       0.24953403      -0.14495784      -1.36946082       0.33089738      -0.12825820      -1.36946082       0.33089738      -0.12825820
C        3.70444191       2.12125602       7.50557558       0.30710716       0.29500707      -0.07816544      -0.44980275       1.14690527       0.15838116      -0.35850665       0.95676225       0.15316756      -0.35850665       0.95676225       0.15316756
C        4.95071239       2.84338904       7.49441679      -0.32401473      -0.58972991       0.18958511      -1.87895660      -0.53800609      -0.09058034      -1.84790095      -0.43695127      -0.06607889      -1.84790095      -0.43695127      -0.06607889
C        2.43221705       4.26171198       7.50179386      -0.18101904       0.59302518       0.46650105       0.71885307       0.46904260       0.07729168       0.65057857       0.42023987       0.06322805       0.65057857       0.42023987       0.06322805
C        3.68165344       4.97125911       7.45397844      -0.53836349      -0.18097981       0.10939897      -0.74927876      -1.16375627       0.26038414      -0.71912444      -1.16275955       0.23801550      -0.71912444      -1.16275955       0.23801550
18
Lattice="7.38 0.0 0.0 -3.69 6.391267479929157 0.0 0.0 -0.0 15.0" Properties=species:S:1:pos:R:3:momenta:R:3:mace_forces:R:3:forces:R:3:REF_forces:R:3 T=600.0 mace_forces_rms=1.831538775364165 energy=-2790.8597170238318 REF_energy=-2790.8597170238318 pbc="T T T"
C       -0.00178355      -0.04827710       7.53518458      -0.53789180       0.17946022      -1.07452403       0.22260638       1.37999201       0.01778962       0.22394257       1.28571587      -0.00144805       0.22394257       1.28571587      -0.00144805
C        1.27768656       0.62216002       7.59816723       1.15015620       0.32100781      -0.81664540      -4.02704916       2.44308633      -0.16690551      -5.12702987       2.90175268      -0.02974715      -5.12702987       2.90175268      -0.02974715
C       -1.23445651       2.16522853       7.40441430      -0.58921500      -0.95843896      -0.14450678       2.36237945      -1.00503147       0.28885899       2.02396187      -1.19401722       0.26741735       2.02396187      -1.19401722       0.26741735
C        0.08662077       2.82362847       7.39296125      -0.67187821       0.11067028       0.69694778      -4.92740856      -0.50345292       0.87608117      -4.37456105      -0.39160421       0.82187369      -4.37456105      -0.39160421       0.82187369
C       -2.43477704       4.28834746       7.61127877       1.14745416       0.75079344       1.17773079      -1.23471081      -1.10034184      -1.67133705      -1.06773389      -1.01145553      -1.69586005      -1.06773389      -1.01145553      -1.69586005
C       -1.19821403       4.96432465       7.42867871       0.37701155       0.59961648       0.38349266      -2.16808304       0.09738437       0.96625958      -2.53306369       0.12634350       1.07848470      -2.53306369       0.12634350       1.07848470
C        2.43172988       0.00062218       7.52051647       1.15524862      -0.12490777      -0.15084417       3.28373551      -1.20625502      -0.25128527       4.25512302      -1.80584310      -0.50730308       4.25512302      -1.80584310      -0.50730308
C        3.64174144       0.74563374       7.46784304      -0.42814962       1.07896342      -0.36645334       2.31253548       0.22843155       0.27495074       2.49377106       0.34586763       0.23321885       2.49377106       0.34586763       0.23321885
C        1.23699121       2.06747976       7.61806711      -0.59006309       0.23833475      -0.10270347       1.25783849       0.35866164      -0.93903967       0.98530895       0.64265726      -0.83197350       0.98530895       0.64265726      -0.83197350
C        2.40663885       2.84913264       7.61306681       0.16567679      -1.19072021       0.24566710       3.33376218      -0.56705849      -0.61055737       2.88349425      -0.24576275      -0.68828920       2.88349425      -0.24576275      -0.68828920
C       -0.04011294       4.22711651       7.38288445      -0.53257536       0.21200914       0.67485926       4.49551444       1.63608203       0.07586821       4.39507948       1.22484038       0.08763348       4.39507948       1.22484038       0.08763348
C        1.22139281       5.00720754       7.43895205       0.12854912       0.33050831       0.61910156      -1.88700517      -0.97229098       0.08557671      -1.50281134      -0.91676411       0.07371867      -1.50281134      -0.91676411       0.07371867
C        4.89070040       0.02882013       7.47209598       0.45685448       0.64521654      -0.48832434       0.84869044       0.57030692      -0.39956567       0.66991867       0.63086953      -0.30915304       0.66991867       0.63086953      -0.30915304
C        6.17530732       0.74302150       7.47594828      -0.48611178       0.21108258      -1.10679348      -1.63992720      -1.13362599      -0.12902655      -1.50153145      -0.97400767      -0.12163478      -1.50153145      -0.97400767      -0.12163478
C        3.75451096       2.18642838       7.50759234       0.07572184       0.14390002      -0.26637435      -5.86391699      -1.61626279       0.54199410      -6.10607459      -2.39750356       0.58945882      -6.10607459      -2.39750356       0.58945882
C        4.91040630       2.85560088       7.47883955      -1.38918287      -0.13269486       0.24977047       2.58470306       1.54516910       0.25461838       3.31912475       1.89355166       0.28488697       3.31912475       1.89355166       0.28488697
C        2.41490338       4.27559986       7.51221258       0.38803480      -1.86166096       1.20753675       0.47868318      -1.01083966       0.31854447       0.29910929      -1.00471384       0.30539049       0.29910929      -1.00471384       0.30539049
C        3.67071419       4.93679721       7.54129648       0.18036016      -0.55314025      -0.73793701       0.56765234       0.85604522       0.46717514       0.66397196       0.89007349       0.44332555       0.66397196       0.89007349       0.44332555
18
Lattice="7.38 0.0 0.0 -3.69 6.391267479929157 0.0 0.0 -0.0 15.0" Properties=species:S:1:pos:R:3:momenta:R:3:mace_forces:R:3:forces:R:3:REF_forces:R:3 T=300.0 mace_forces_rms=1.4182314829332405 energy=-2791.458188554025 REF_energy=-2791.458188554025 pbc="T T T"
C       -0.03285565       0.03944992       7.46003704      -0.32223707      -0.22759763       0.15118108       1.59158545      -2.52564282       0.16123449       1.79620044      -2.60801083       0.13359632       1.79620044      -2.60801083       0.13359632
C        1.21852167       0.73626924       7.48533159      -0.18238255      -0.00610035      -0.21186882      -0.47821442       1.00787356       0.11280295      -0.37337149       1.12435370       0.13848862      -0.37337149       1.12435370       0.13848862
C       -1.21030343       2.13115261       7.53069892      -0.44784648       0.61382272       0.65272722      -1.75140778      -0.85190592      -0.38266757      -1.70079451      -0.20653517      -0.40175981      -1.70079451      -0.20653517      -0.40175981
C       -0.00612485       2.88570501       7.55518664      -0.72133439      -0.36308817      -0.10265168      -0.43748388      -1.84008224       0.22419952      -0.59597786      -1.84130710       0.17023454      -0.59597786      -1.84130710       0.17023454
C       -2.43799118       4.28947466       7.48713000      -0.63175549       0.39163745      -0.64938878      -1.79352357       0.15923546       0.11776398      -1.69336248       0.01806817       0.02680504      -1.69336248       0.01806817       0.02680504
C       -1.23241952       4.97787783       7.57205834      -0.12558798       0.38325680      -1.19415262       0.75723107       2.14546440      -0.75471287       0.85480284       1.82195955      -0.71088868       0.85480284       1.82195955      -0.71088868
C        2.46549582       0.06159642       7.48144834       0.08413296      -0.12040601       0.71439574      -1.33975941      -3.35274571       0.26952224      -1.48904077      -3.07717057       0.35510277      -1.48904077      -3.07717057       0.35510277
C        3.69980805       0.67061994       7.43454923       0.25901203       0.09956598       0.18126012      -0.13917138       0.98369829       0.06088082      -0.14144281       1.00992906      -0.00777219      -0.14144281       1.00992906      -0.00777219
C        1.19343167       2.16581821       7.53941270       0.39643948      -0.67922190      -0.35654159       2.31489892      -0.83525647       0.07925654       2.39921026      -1.06517436       0.02074546       2.39921026      -1.06517436       0.02074546
C        2.49393863       2.81160019       7.56295167       0.43689406      -0.61470034       0.14817665      -1.39875270      -0.41949567      -0.64121780      -1.25334594      -0.52203884      -0.59608276      -1.25334594      -0.52203884      -0.59608276
C       -0.00304743       4.27359153       7.58392381       0.70944554       0.85893211      -0.24130957       0.09210098       0.68731758      -0.06740183      -0.07511015       0.74851781      -0.03107075      -0.07511015       0.74851781      -0.03107075
C        1.25367921       4.95314812       7.54037213      -0.43431351       0.23253982      -0.05578498      -1.01435216      -1.51068415      -0.72188229      -0.91137251      -1.38910842      -0.69672653      -0.91137251      -1.38910842      -0.69672653
C        4.88861804      -0.06630470       7.38747691       0.05964706       0.66313935      -0.16876730       1.89031768       1.17345282       1.26701553       1.99265123       1.05431453       1.19381925       1.99265123       1.05431453       1.19381925
C        6.12735201       0.63396876       7.49154977       0.37906674      -0.92617329       0.50873631      -0.70877107       4.81918832      -0.63897635      -1.01422255       4.24830806      -0.55193897      -1.01422255       4.24830806      -0.55193897
C        3.70074028       2.06698121       7.47765880       0.29951003      -0.12015260       0.60119803       1.20461920       2.95689764      -0.01626189       0.85445857       2.96648869       0.00999362       0.85445857       2.96648869       0.00999362
C        4.93114627       2.88434122       7.47055778      -0.17339381      -0.00755780      -0.24197184      -0.08528737      -3.08418746       0.34587992       0.16393894      -2.83684853       0.38069399       0.16393894      -2.83684853       0.38069399
C        2.48303656       4.22271965       7.49992044       0.45703805       0.24788797       0.01082686       0.23340293       1.43286190       0.28804057       0.32990570       1.54640697       0.28356980       0.32990570       1.54640697       0.28356980
C        3.67697385       5.00086256       7.43973591      -0.04233467      -0.42578411       0.25393518       1.06256753      -0.94598953       0.29652403       0.85687309      -0.99215246       0.28318979       0.85687309      -0.99215246       0.28318979
18
Lattice="7.38 0.0 0.0 -3.69 6.391267479929157 0.0 0.0 -0.0 15.0" Properties=species:S:1:pos:R:3:momenta:R:3:mace_forces:R:3:forces:R:3:REF_forces:R:3 T=100.0 mace_forces_rms=0.7688331842479901 energy=-2792.0701985640335 REF_energy=-2792.0701985640335 pbc="T T T"
C        0.01424534       0.00216146       7.50605738       0.52961986       0.25776921       0.21940735      -0.02658879      -1.23418387      -0.02350661       0.00772719      -1.04507347      -0.02961191       0.00772719      -1.04507347      -0.02961191
C        1.25414352       0.70310800       7.45939625       0.10343918       0.41811312       0.32835001      -1.20007200       0.55535210       0.25574838      -1.28479002       0.52741656       0.28088968      -1.28479002       0.52741656       0.28088968
C       -1.21817028       2.15517591       7.46962381       0.11352563       0.33088530      -0.37694684      -0.25245537      -1.69337735       0.58060346      -0.28899174      -1.61849916       0.61953302      -0.28899174      -1.61849916       0.61953302
C        0.01841855       2.83743443       7.43864188      -0.08638119       0.14714437       0.15198900      -0.97072446       1.05428279       0.47265624      -0.96853790       0.99245713       0.45478830      -0.96853790       0.99245713       0.45478830
C       -2.47007256       4.25726738       7.45163689      -0.00993530       0.12585029       0.17700204       0.22815794      -1.05956997       0.69983370       0.24978653      -0.96419197       0.73296520       0.24978653      -0.96419197       0.73296520
C       -1.24390098       4.98039155       7.49612060      -1.06500040      -0.21629076      -0.29383494       0.04350985      -0.44720236      -0.51765887       0.02493379      -0.47212447      -0.50370713       0.02493379      -0.47212447      -0.50370713
C        2.46909324       0.00844912       7.46960786       0.44987585       0.37813776      -0.00802446      -0.00121439      -0.68727822       0.26038588       0.02611084      -0.68883530       0.24706579       0.02611084      -0.68883530       0.24706579
C        3.68472337       0.71027074       7.51748223       0.08661011      -0.35359196      -0.38724228       0.93038352       0.14940515      -0.01846108       0.95582251       0.09529640      -0.01075672       0.95582251       0.09529640      -0.01075672
C        1.22609096       2.13105862       7.48758362       0.26172107       0.05119271       0.05536796       0.74642897      -0.42378401      -0.50269483       0.74242584      -0.38725853      -0.50539686       0.74242584      -0.38725853      -0.50539686
C        2.45849772       2.83942199       7.48658691      -0.20912414      -0.76181036       0.31858054      -0.62156353      -0.19848976       0.29842678      -0.62061879      -0.24461553       0.30226763      -0.62061879      -0.24461553       0.30226763
C       -0.01651708       4.27488285       7.48741202       0.23278435       0.23682256      -0.43070273       0.47189272      -0.24301787       0.04228272       0.50080025      -0.16925161       0.03533390       0.50080025      -0.16925161       0.03533390
C        1.20561083       4.99173364       7.53961855      -0.19130173       0.28284437      -0.05108494       1.21936074      -0.42657324       0.00198839       1.14985313      -0.46242910       0.01095984       1.14985313      -0.46242910       0.01095984
C        4.95137519       0.02991442       7.56488601      -0.12601470       0.21032556       0.03401577      -1.79273506      -1.10401946      -0.10002789      -1.87382410      -1.10765850      -0.11769559      -1.87382410      -1.10765850      -0.11769559
C        6.16515874       0.70914147       7.55864818      -0.13005673      -0.30645414      -0.09434288       0.73691474       1.17628316      -0.51153545       0.83529511       1.15875866      -0.53714253       0.83529511       1.15875866      -0.53714253
C        3.67252061       2.12165171       7.50781033       0.11957687       0.29827190       0.21374665       0.54791861      -0.04692443       0.13797530       0.56144486       0.02220276       0.13895398       0.56144486       0.02220276       0.13895398
C        4.90901621       2.80839903       7.53042870      -0.26100101      -0.31226039      -0.17049288       0.50788015       1.77560761      -0.82396316       0.51716455       1.65973348      -0.85130460       0.51716455       1.65973348      -0.85130460
C        2.44415212       4.24476149       7.53269377      -0.22638739      -0.13904784       0.21134874      -0.22781526       0.85752130      -0.29334610      -0.17052379       0.89364912      -0.30721752      -0.17052379       0.89364912      -0.30721752
C        3.68561449       4.93364854       7.49576503       0.40804968      -0.64790172       0.10286387      -0.33927837       1.99596843       0.04129315      -0.36407746       1.81042301       0.04007553      -0.36407746       1.81042301       0.04007553
18
Lattice="7.38 0.0 0.0 -3.69 6.391267479929157 0.0 0.0 -0.0 15.0" Properties=species:S:1:pos:R:3:momenta:R:3:mace_forces:R:3:forces:R:3:REF_forces:R:3 T=600.0 mace_forces_rms=1.5239206895170305 energy=-2791.243454952356 REF_energy=-2791.243454952356 pbc="T T T"
C        0.04864782       0.02745468       7.53737180       0.75620865       1.22300087       0.62622129       0.64268934      -0.31623133      -0.93960401       0.43221992      -0.14089568      -0.82463069       0.43221992      -0.14089568      -0.82463069
C        1.29504945       0.73598562       7.54760943      -0.09827346      -0.16711516      -0.48422934      -1.39525691      -0.37282603      -0.11378871      -1.22505532      -0.32509260      -0.11303906      -1.22505532      -0.32509260      -0.11303906
C       -1.26662759       2.09324103       7.39156947      -0.04456342      -1.99313145       1.32670039       0.98788282      -1.19879296       0.13292977       1.02939309      -0.99700490       0.09635698       1.02939309      -0.99700490       0.09635698
C       -0.06980000       2.80063001       7.49907518       0.03171634       1.17557079      -0.02921600       1.75566415       1.23878440       0.57680931       1.68375607       1.34303091       0.66637003       1.68375607       1.34303091       0.66637003
C       -2.46152761       4.24199406       7.44585013      -0.39611987      -1.10219165      -0.28697838       0.43534566       1.20367425       0.57378456       0.39130802       1.15797113       0.61737612       0.39130802       1.15797113       0.61737612
C       -1.22055382       4.97638368       7.55758396      -2.06556081       0.17105297      -0.39462118      -2.09217464      -1.13955703       0.06313926      -2.20139190      -1.21999154      -0.10742172      -2.20139190      -1.21999154      -0.10742172
C        2.48628252      -0.02918697       7.54659874      -0.35662080      -1.93565979      -0.52598518       0.77979613       2.49158820       0.22266754       0.59242588       2.70932747       0.15664523       0.59242588       2.70932747       0.15664523
C        3.72989326       0.73235900       7.50993758       0.53933474      -0.19730138       0.87110249      -2.82467176      -1.50662350      -0.24097511      -2.92567526      -1.35552338      -0.17584623      -2.92567526      -1.35552338      -0.17584623
C        1.22340238       2.15666210       7.53754897       1.05292178       1.90913867       0.53171729      -0.17830949      -0.54147557      -0.16431220      -0.18511017      -0.63716821      -0.19782428      -0.18511017      -0.63716821      -0.19782428
C        2.45772325       2.83971426       7.51071106      -0.19647778      -0.05574538      -0.21492282      -0.60498273       2.91751889      -0.28232642      -0.51258644       2.38660260      -0.29438540      -0.51258644       2.38660260      -0.29438540
C       -0.08483818       4.23276895       7.65232228       0.07129431      -0.60317528      -1.67105726       4.29861924       0.02380881      -1.28322989       3.97999030      -0.46978040      -1.24729305       3.97999030      -0.46978040      -1.24729305
C        1.20694969       4.97227464       7.56742275      -0.13635542      -0.14637990      -0.23560140      -0.96842010      -0.33113241       0.19541156      -0.44766351      -0.12497361       0.22973861      -0.44766351      -0.12497361       0.22973861
C        4.89692044       0.01286457       7.49613875       0.64173969      -1.10995884       0.15624987       2.57163329      -1.66646501      -0.33576110       2.85287756      -1.90782565      -0.38509186       2.85287756      -1.90782565      -0.38509186
C        6.19512510       0.63611912       7.36996563       0.32944159       0.74545523       0.37176601      -2.43954876       3.08186665       1.17880677      -2.35406786       2.82410897       1.13924784      -2.35406786       2.82410897       1.13924784
C        3.63914718       2.11046087       7.42750151       0.29749973       0.04374398       0.22019286       2.82861406       1.82065631       0.47536826       2.49103644       1.73733940       0.46254377       2.49103644       1.73733940       0.46254377
C        4.92690755       2.83185320       7.41613235      -0.89465097       0.80366351      -0.29842938      -2.44170645      -0.56455680      -0.31228665      -2.17410349      -0.32522218      -0.26949455      -2.17410349      -0.32522218      -0.26949455
C        2.48406717       4.33808059       7.49486754       0.26201386       0.12688332      -0.18476891      -1.08164928      -2.99024084       0.33613507      -1.15473359      -2.37771121       0.32318253      -1.15473359      -2.37771121       0.32318253
C        3.72323137       5.02921296       7.49179287       0.20645184       1.11214950       0.22185967      -0.27352456      -2.14999604      -0.08276802      -0.27261947      -2.27719085      -0.07643427      -0.27261947      -2.27719085      -0.07643427
18
Lattice="7.38 0.0 0.0 -3.69 6.391267479929157 0.0 0.0 -0.0 15.0" Properties=species:S:1:pos:R:3:momenta:R:3:mace_forces:R:3:forces:R:3:REF_forces:R:3 T=600.0 mace_forces_rms=1.9006474329130953 energy=-2790.582193017836 REF_energy=-2790.582193017836 pbc="T T T"
C        0.01156729       0.02184143       7.37442108       0.66377720       0.74314172       0.78065415       2.47130103       1.57051289      -0.04332511       1.47296418       1.04401906      -0.01793396       1.47296418       1.04401906      -0.01793396
C        1.32811444       0.79578688       7.46371823       0.80188206       1.07987721       0.43554588      -4.60425442      -4.42972173      -0.14055018      -3.68070644      -4.42971018      -0.20356092      -3.68070644      -4.42971018      -0.20356092
C       -1.30230341       2.05288969       7.37277832      -1.15313221       0.35808525      -0.67277596       2.14537499       3.71681352      -0.01777288       1.90163983       3.92518775       0.23405446       1.90163983       3.92518775       0.23405446
C       -0.06779219       2.84527088       7.49733816      -0.23505570       0.56676759       0.53364060       0.84190241      -2.52786036       0.26404438       0.67319400      -2.17327200       0.20461019       0.67319400      -2.17327200       0.20461019
C       -2.40552634       4.25606952       7.51747844       0.63108268      -0.27639218       0.32725791      -1.75604831      -0.57526261      -0.04438868      -1.81767506      -0.58446394      -0.06700578      -1.81767506      -0.58446394      -0.06700578
C       -1.17883532       4.94959084       7.55199944       0.00612666       0.00181570      -0.23771617      -3.43790561       2.53206051       0.20294921      -4.52974795       3.18359804      -0.12080302      -4.52974795       3.18359804      -0.12080302
C        2.50379482       0.02424972       7.54459226      -0.20930465      -1.84720846       0.10151178      -1.04461269      -1.69242783       0.16902008      -1.49615321      -1.79743611       0.13971812      -1.49615321      -1.79743611       0.13971812
C        3.67692086       0.70150873       7.56918702      -0.41879675       0.14048396      -0.02410948       1.23439762       0.31459058      -0.92195529       1.69602023       0.61102369      -0.89435052       1.69602023       0.61102369      -0.89435052
C        1.23344357       2.13443460       7.51660192      -0.37614910      -1.52340937       0.95654282      -1.16823845       3.74825056      -0.42733859      -1.00507688       3.99924787      -0.37205663      -1.00507688       3.99924787      -0.37205663
C        2.45704314       2.89701831       7.51426503       0.74856362       0.29298741      -1.47373730      -0.48356303      -3.02203999       1.21634126      -0.40840868      -3.36739644       0.98659810      -0.40840868      -3.36739644       0.98659810
C       -0.07585421       4.25176400       7.64718295      -0.62134366       1.15769335       0.37743020       5.28339572      -0.71573516      -0.76076874       6.02361597      -1.84310636      -0.49887680       6.02361597      -1.84310636      -0.49887680
C        1.23073081       4.96190975       7.62213018      -0.31770261       0.82813846       1.00995851      -0.17180566      -1.00689689      -0.32456247       0.05806554      -0.38776555      -0.33553256       0.05806554      -0.38776555      -0.33553256
C        4.90902205      -0.02304094       7.42865184       0.18767714      -0.87534175      -0.70286852       0.25120458      -0.07194138       0.58792129       0.37404203      -0.35000890       0.54539217       0.37404203      -0.35000890       0.54539217
C        6.13449349       0.69767152       7.22876431      -0.03532332      -0.33859621      -0.54132812       0.34702618      -2.00642615       1.66924682       0.34541845      -2.39873075       1.59615138       0.34541845      -2.39873075       1.59615138
C        3.62559880       2.11202836       7.53026567       0.26662952      -0.90104023       0.60052436       1.93656131       1.12712327      -0.31761696       1.90307682       1.09688609      -0.31053990       1.90307682       1.09688609      -0.31053990
C        4.88023668       2.79597273       7.48196058       0.15562577      -0.85821089      -1.18958269      -0.07849927       1.37459458      -0.00749285       0.06832450       1.33139615       0.03059330       0.06832450       1.33139615       0.03059330
C        2.50648094       4.24394633       7.63218534       0.24922523       0.06457416       0.15288398      -1.28822716       3.68854334      -1.16994776      -1.08260618       4.00879489      -1.12340650      -1.08260618       4.00879489      -1.12340650
C        3.74286458       5.01996001       7.50647923      -0.34378187       1.38663428      -0.43383195      -0.47800925      -2.02417714       0.06619648      -0.49598740      -1.86826332       0.20694912      -0.49598740      -1.86826332       0.20694912
18
Lattice="7.38 0.0 0.0 -3.69 6.391267479929157 0.0 0.0 -0.0 15.0" Properties=species:S:1:pos:R:3:momenta:R:3:mace_forces:R:3:forces:R:3:REF_forces:R:3 T=600.0 mace_forces_rms=1.6595535630593767 energy=-2790.8777652462945 REF_energy=-2790.8777652462945 pbc="T T T"
C       -0.07671732      -0.07064044       7.55043485       0.02831029       0.57311205       0.20479376       2.30846193       1.31445471      -0.81012591       2.23312985       1.19977958      -0.80796505       2.23312985       1.19977958      -0.80796505
C        1.15731073       0.67869022       7.46990982       0.52571459       0.75698476      -0.28374853       1.84229229      -0.81451823       0.37684408       1.66708503      -0.63840183       0.42240782       1.66708503      -0.63840183       0.42240782
C       -1.19048682       2.14211122       7.63976489       0.01981525      -0.08321046       0.05189354      -1.46600258       0.62513724      -0.98421053      -1.04609549       0.51389230      -1.14044957      -1.04609549       0.51389230      -1.14044957
C        0.05930792       2.84493768       7.42895070      -1.68296496      -0.34180967       0.54592620      -2.15689997      -0.41946788       0.77758998      -2.44463754      -0.35186421       0.83349302      -2.44463754      -0.35186421       0.83349302
C       -2.40563112       4.26332728       7.41653978       1.99828164       0.14512457       0.52860917      -1.90537569       0.79811173       0.69038484      -1.84255948       0.47591068       0.67000557      -1.84255948       0.47591068       0.67000557
C       -1.19440962       4.97017107       7.39127959      -0.62038392      -0.34950613       0.38773197       0.96895223       1.47303686      -0.93298107       1.05683524       1.25987552      -0.94543551       1.05683524       1.25987552      -0.94543551
C        2.48849156       0.05682604       7.37728847       0.78437898       0.22729947      -0.69748716      -3.11987380      -2.36144463       1.04495863      -2.86098810      -2.20052286       1.03157801      -2.86098810      -2.20052286       1.03157801
C        3.64839075       0.78614639       7.55285882      -1.18075736       0.98540854      -0.49844105       3.16864482      -2.04208713      -0.29677676       2.70737600      -1.77459957      -0.33124165       2.70737600      -1.77459957      -0.33124165
C        1.20378283       2.07737038       7.52546453       0.53248862      -1.57618731      -0.50752133       1.90295537       0.99402350      -0.57228937       1.79284000       0.66493716      -0.52353600       1.79284000       0.66493716      -0.52353600
C        2.46589550       2.82778679       7.54804096       0.35662752       0.31430846      -0.57838218      -2.10476968      -1.73970435      -0.23229139      -1.84429703      -1.99481019      -0.10489767      -1.84429703      -1.99481019      -0.10489767
C        0.05822737       4.25851502       7.31427996      -0.23161165       0.21128418       0.41679547      -2.09625624       1.01614731       1.50578420      -2.00056663       1.03882415       1.56553674      -2.00056663       1.03882415       1.56553674
C        1.21814249       5.03072699       7.49004188      -0.81033592       0.84614745       0.73202221       1.73741448      -3.52984459      -1.43181123       1.29707424      -3.72843383      -1.43740248       1.29707424      -3.72843383      -1.43740248
C        4.91709682       0.00353562       7.51967234       1.44708299      -0.10188227      -0.79139160      -1.93362268       2.85657074       0.77917148      -1.54353016       2.83030713       0.79379493      -1.54353016       2.83030713       0.79379493
C        6.13336101       0.71451184       7.61368410      -0.77010070      -1.07374344      -0.60654526       0.01333129      -0.19928595       0.03809896       0.06233074      -0.10330024       0.03917230       0.06233074      -0.10330024       0.03917230
C        3.70053916       2.18646613       7.66534486      -0.42544958      -0.42383058       0.96177481      -0.30075924      -0.71926617      -0.77662871      -0.25526041      -0.80453675      -0.72184827      -0.25526041      -0.80453675      -0.72184827
C        4.91712675       2.88110883       7.61517050      -0.40265457       0.24936040       0.39178282       2.76051759      -1.60724368      -0.26211689       2.47887049      -1.23328440      -0.25026450       2.47887049      -1.23328440      -0.25026450
C        2.42132370       4.17314548       7.43844697      -0.33959035      -0.20659595      -0.22602836       1.52724205       4.70592764       0.88864116       1.56199891       4.93877164       0.77234216       1.56199891       4.93877164       0.77234216
C        3.68824830       4.91413583       7.44282698       0.77114915      -0.15226405      -0.03178447      -1.14625218      -0.35054711       0.19775854      -1.01960567      -0.09254377       0.13471038      -1.01960567      -0.09254377       0.13471038
18
Lattice="7.38 0.0 0.0 -3.69 6.391267479929157 0.0 0.0 -0.0 15.0" Properties=species:S:1:pos:R:3:momenta:R:3:mace_forces:R:3:forces:R:3:REF_forces:R:3 T=100.0 mace_forces_rms=0.7033636690829543 energy=-2792.086651519117 REF_energy=-2792.086651519117 pbc="T T T"
C        0.02332490      -0.00054858       7.53320418      -0.18710040       0.21028819       0.00817433      -1.53408454      -0.06987497      -0.36074850      -1.43124751      -0.11157791      -0.37746854      -1.43124751      -0.11157791      -0.37746854
C        1.22747214       0.71900521       7.52962913      -0.66160135       0.49732507      -0.00619419       0.43957038       0.84967469       0.26603774       0.41880005       0.77665596       0.27907474       0.41880005       0.77665596       0.27907474
C       -1.24131810       2.10187790       7.47729850      -0.55227619       0.31078116       0.09202270       0.70887789       1.15219205       0.33332188       0.63795703       1.04702597       0.32963985       0.63795703       1.04702597       0.32963985
C       -0.01557363       2.86059229       7.47774669       0.02578079      -0.25295459       0.01313831       0.38974071      -0.40736491       0.23210566       0.52450119      -0.42153211       0.22910406       0.52450119      -0.42153211       0.22910406
C       -2.47716065       4.24633154       7.46527542      -0.19351977      -0.13483958       0.14867854       0.56008169       0.46827298       0.19987391       0.51848943       0.53112332       0.23785095       0.51848943       0.53112332       0.23785095
C       -1.25916263       4.97269797       7.45937156       0.17051393      -0.06417921      -0.31032292       0.81501676       0.65312820       0.16610247       0.77882623       0.72150760       0.18108434       0.77882623       0.72150760       0.18108434
C        2.45930217       0.01129976       7.51424472       0.03396219      -0.38275475      -0.31862644      -0.38895497      -0.39528261      -0.30367043      -0.44356415      -0.46393628      -0.32527360      -0.44356415      -0.46393628      -0.32527360
C        3.69506010       0.70833300       7.50051879       0.31080693      -0.03927576      -0.05801254      -0.23292311      -0.01741265       0.35303600      -0.14129369      -0.01472831       0.33411203      -0.14129369      -0.01472831       0.33411203
C        1.22795925       2.15931621       7.56243315       0.01476970      -0.51106897       1.01235514       0.33129059      -0.57856822      -0.72273798       0.20417490      -0.49807822      -0.73520412       0.20417490      -0.49807822      -0.73520412
C        2.49901806       2.84694706       7.51199544      -0.34967978       0.76281717      -0.09101222      -1.75483661      -1.11992347       0.03114920      -1.75123904      -1.14831638       0.05562299      -1.75123904      -1.14831638       0.05562299
C       -0.00962589       4.29773696       7.45369989       0.30730126      -0.38438356      -0.31832407      -0.19333869      -1.42029725       0.09785644      -0.09188480      -1.38030367       0.10048617      -0.09188480      -1.38030367       0.10048617
C        1.24171828       4.96464189       7.47894616      -0.01821052       0.07147233       0.03589355      -0.68056742       0.18873402       0.33038313      -0.73735048       0.13828781       0.34852795      -0.73735048       0.13828781       0.34852795
C        4.91613250       0.00254533       7.54757246       0.25010527      -0.13749705      -0.03268542       0.20601936      -0.99582572      -0.72499954       0.10688744      -0.96994044      -0.69724178       0.10688744      -0.96994044      -0.69724178
C        6.13303320       0.68860064       7.51725083      -0.13926995      -0.35203642       0.19906184       1.42342438       0.51566490       0.19815537       1.39412747       0.63691188       0.18360839       1.39412747       0.63691188       0.18360839
C        3.71236396       2.12497361       7.49448314       0.23553272      -0.03356236      -0.40188651      -0.46312778      -0.14028685       0.27652382      -0.39571540      -0.16572637       0.26716796      -0.39571540      -0.16572637       0.26716796
C        4.92438416       2.82992743       7.50824901       0.31219426       0.53735216      -0.16666277       0.05171516      -0.11521792      -0.58820105       0.06081636      -0.18030324      -0.57535607       0.06081636      -0.18030324      -0.57535607
C        2.45925034       4.22838415       7.48543105       0.27310712      -0.37843209       0.04639945       0.74494625       2.18716163       0.03819822       0.66157441       2.22035481       0.01677619       0.66157441       2.22035481       0.01677619
C        3.69382183       4.97620998       7.48264988       0.16758378       0.28094825       0.14800322      -0.42285006      -0.75477389       0.17761366      -0.31385996      -0.71742443       0.14748850      -0.31385996      -0.71742443       0.14748850
18
Lattice="7.38 0.0 0.0 -3.69 6.391267479929157 0.0 0.0 -0.0 15.0" Properties=species:S:1:pos:R:3:momenta:R:3:mace_forces:R:3:forces:R:3:REF_forces:R:3 T=100.0 mace_forces_rms=0.6671163408415268 energy=-2792.113364118316 REF_energy=-2792.113364118316 pbc="T T T"
C        0.01805557      -0.00857892       7.51325368      -0.37745321      -0.41612252      -0.20513802      -1.19129009       0.45241191      -0.19631619      -1.16737108       0.40810015      -0.19709023      -1.16737108       0.40810015      -0.19709023
C        1.23938548       0.69267961       7.53103512       0.47147419       0.20082943       0.26192236      -0.43292050       1.04311757      -0.24973584      -0.45185750       1.05935878      -0.23096580      -0.45185750       1.05935878      -0.23096580
C       -1.20005727       2.11362805       7.49002405       0.02412069       0.16558896       0.10763728      -1.20213480       0.83348890       0.16914659      -1.19141784       0.84794597       0.19387249      -1.19141784       0.84794597       0.19387249
C        0.00848138       2.84544279       7.48616380       0.10120603       0.21131679       0.40028515       0.25232022      -0.75727170       0.56729034       0.24001531      -0.68282509       0.54211376       0.24001531      -0.68282509       0.54211376
C       -2.49195361       4.25707931       7.51409134      -0.11781301      -0.09128679      -0.09900061       1.29856023       0.29062257       0.05347183       1.36000379       0.30760087       0.06603210       1.36000379       0.30760087       0.06603210
C       -1.25870681       4.96710405       7.51901406       0.24475157      -0.03630890       0.09246643       0.39776584       0.74370685      -0.11715991       0.35427565       0.64249657      -0.13187317       0.35427565       0.64249657      -0.13187317
C        2.45587790       0.02397177       7.48956999      -0.07192927       0.48511773      -0.22289602       0.90760042      -1.52275712       0.16004311       0.96344738      -1.47156344       0.15818661       0.96344738      -1.47156344       0.15818661
C        3.70307972       0.72556316       7.45693284      -0.03085163       0.38280576      -0.13996441      -0.38200049      -0.12261865       0.10941561      -0.39107559      -0.06052505       0.08970348      -0.39107559      -0.06052505       0.08970348
C        1.24140657       2.11423414       7.53145466      -0.62759891      -0.46319232      -0.03103881      -0.48559903       0.45196129      -0.35562469      -0.43858880       0.47699389      -0.36259188      -0.43858880       0.47699389      -0.36259188
C        2.45465896       2.82252344       7.50837090       0.53183891       0.53165544      -0.01683753       0.79178056       1.24898392       0.13983680       0.75933907       1.16273641       0.14875940       0.75933907       1.16273641       0.14875940
C       -0.02903856       4.25742316       7.52478371       0.33178599       0.00235942      -0.34293198       0.79357246       0.54114405      -0.56234129       0.77169913       0.48154705      -0.58035326       0.77169913       0.48154705      -0.58035326
C        1.21815777       4.98029695       7.46417804       0.09872139       0.25864463      -0.18047259      -0.34045441      -0.75005039       0.78452528      -0.25438418      -0.80038081       0.83187246      -0.25438418      -0.80038081       0.83187246
C        4.92328622      -0.00163022       7.47142091       0.09482372       0.06611567       0.07189870      -0.39134198       0.28721383      -0.18110371      -0.35083191       0.31846815      -0.16950563      -0.35083191       0.31846815      -0.16950563
C        6.14339722       0.70260246       7.48768528       0.07828197      -0.23614871       0.21873612       1.34146288      -0.15765479       0.03847978       1.25090031      -0.17345947       0.04784000       1.25090031      -0.17345947       0.04784000
C        3.71793221       2.15122656       7.46414379      -0.20710406      -0.55247033      -0.49054353      -0.90399834      -0.92595568       0.46711165      -0.92293733      -0.97539761       0.47812029      -0.92293733      -0.97539761       0.47812029
C        4.93844022       2.84467982       7.52624423      -0.61106158      -0.38826184      -0.13847014       0.11034888      -0.22366407      -0.56495505       0.12304657      -0.23915836      -0.56017550       0.12304657      -0.23915836      -0.56017550
C        2.44578178       4.26740093       7.53798060       0.18044260      -0.18346826       0.34036587      -0.05079334      -0.50194458      -0.82839938      -0.09550414      -0.40108592      -0.85906959      -0.09550414      -0.40108592      -0.85906959
C        3.68181526       4.98322531       7.48365299      -0.11363539       0.06282582       0.37398172      -0.51287852      -0.93073391       0.56631507      -0.55875857      -0.90085207       0.53512447      -0.55875857      -0.90085207       0.53512447
18
Lattice="7.38 0.0 0.0 -3.69 6.391267479929157 0.0 0.0 -0.0 15.0" Properties=species:S:1:pos:R:3:momenta:R:3:mace_forces:R:3:forces:R:3:REF_forces:R:3 T=300.0 mace_forces_rms=1.3204392346101974 energy=-2791.534983161001 REF_energy=-2791.534983161001 pbc="T T T"
C       -0.03366189       0.00178216       7.48802300      -0.48517799       0.91292171       0.21393895       2.08276311       1.72323893      -0.46170916       1.69073661       1.41054113      -0.44429742       1.69073661       1.41054113      -0.44429742
C        1.23350035       0.77742258       7.46500774       0.51807755       0.62605947      -0.32357968      -2.40619947      -3.08188926       0.17384235      -2.09577689      -3.10691309       0.10514526      -2.09577689      -3.10691309       0.10514526
C       -1.23554146       2.16637270       7.48331590       0.78141807       0.50956218       0.82674180       0.12561075      -1.65226936       0.30145373       0.22186692      -1.67376528       0.30715247       0.22186692      -1.67376528       0.30715247
C       -0.03245674       2.85883794       7.56391249      -0.10316640      -0.11381345      -0.84482371       1.81098264      -0.13980244       0.02904050       1.67199918       0.07714672       0.02019164       1.67199918       0.07714672       0.02019164
C       -2.45418622       4.23678604       7.47465336       0.32150944      -0.27825546      -0.24565056       0.07059931       1.93190912       0.13858828       0.20977194       1.95616136       0.17088657       0.20977194       1.95616136       0.17088657
C       -1.25492670       5.01372836       7.59478925       0.68379709       0.21565828      -0.26024123       0.29300884      -1.34129142      -1.09492521       0.18547655      -1.27150256      -1.06859675       0.18547655      -1.27150256      -1.06859675
C        2.40352487       0.03261727       7.45030685       0.47634729      -0.16987155       0.26853734       3.26791417       0.36882868       0.75092703       3.04875062       0.04399363       0.74457373       3.04875062       0.04399363       0.74457373
C        3.71513024       0.72255739       7.45231199      -0.59038071      -0.65252482       0.36406058      -1.29796591      -3.08751697      -0.09564647      -1.22115470      -2.99160631      -0.13033539      -1.22115470      -2.99160631      -0.13033539
C        1.23955211       2.13797159       7.53476921      -1.04169489      -0.31660714       0.06550633      -1.32079700       1.75629594       0.06528889      -1.10195270       1.92738763       0.09063550      -1.10195270       1.92738763       0.09063550
C        2.48258851       2.80378930       7.55445474      -0.03632333       0.07700832       0.10700023       0.10551649       1.11303747      -0.48102208       0.15923022       1.05553709      -0.41697534       0.15923022       1.05553709      -0.41697534
C       -0.01823976       4.27162841       7.61511281      -0.42897389      -0.23278709      -0.00535430      -0.53546369      -0.19190542      -0.47235037      -0.62970430      -0.28445323      -0.44546162      -0.62970430      -0.28445323      -0.44546162
C        1.22725674       4.89889511       7.51226089       0.85764319      -0.35679035       0.25714214       1.74077674       1.74133691       0.48588288       1.77092624       1.83137853       0.41644492       1.77092624       1.83137853       0.41644492
C        4.94103822      -0.06701111       7.45739922       0.17783115       0.33632774      -0.59644077      -1.01587357       2.27182151       0.25648377      -0.81727245       2.10128882       0.26442536      -0.81727245       2.10128882       0.26442536
C        6.14041862       0.73579520       7.49777344       0.61063637      -0.17512230      -0.13277267      -0.18777202      -1.79609621      -0.39720377      -0.16696255      -1.86577269      -0.35146415      -0.16696255      -1.86577269      -0.35146415
C        3.69648192       2.09561480       7.46026722      -0.77565037       0.17307957       0.36859493       1.28831576       1.31416952       0.10779902       1.08412493       1.39750564       0.13423704       1.08412493       1.39750564       0.13423704
C        4.94079150       2.84183194       7.44871519       0.87231623       0.67459517      -0.78385145      -1.65113370      -0.19121585       0.25036991      -1.64998077      -0.02214594       0.19957623      -1.64998077      -0.02214594       0.19957623
C        2.51538283       4.23030639       7.53296378      -1.23405759      -0.53409242       0.33536432      -2.22593245      -0.14651128      -0.56039631      -2.10061494      -0.07853075      -0.57596593      -2.10061494      -0.07853075      -0.57596593
C        3.70334686       4.97994628       7.41396294      -0.60415122      -0.69534785       0.38582773      -0.14434997      -0.59213987       1.00357701      -0.25946468      -0.50625098       0.97982762      -0.25946468      -0.50625098       0.97982762
18
Lattice="7.38 0.0 0.0 -3.69 6.391267479929157 0.0 0.0 -0.0 15.0" Properties=species:S:1:pos:R:3:momenta:R:3:mace_forces:R:3:forces:R:3:REF_forces:R:3 T=300.0 mace_forces_rms=1.1549421840054857 energy=-2791.69241176516 REF_energy=-2791.69241176516 pbc="T T T"
C        0.03722427       0.05999329       7.51741962       0.46229040       0.28661913       0.39873905      -2.21438595      -2.18622354       0.43242416      -2.19300367      -2.06791436       0.32904747      -2.19300367      -2.06791436       0.32904747
C        1.24689419       0.73286743       7.60740236       0.30734259       0.93945771      -0.22314591       0.74085197      -0.66441229      -1.11768181       0.65450979      -0.58522396      -0.98452657       0.65450979      -0.58522396      -0.98452657
C       -1.21157047       2.13276395       7.45746930      -0.33308905      -0.27771932       0.00956698      -0.66688978      -0.90095937       0.06621693      -0.60587815      -0.99979660       0.10298014      -0.60587815      -0.99979660       0.10298014
C        0.02136724       2.84361298       7.42616277       1.28270856       0.91723232      -0.43148736      -0.99544891      -0.40261218       0.55144062      -0.91500599      -0.54096936       0.50920312      -0.91500599      -0.54096936       0.50920312
C       -2.47347282       4.24655468       7.59677734       0.19090108       0.78584160      -0.18529159      -0.55115081       0.22716162      -0.42998263      -0.67168785       0.25302278      -0.46472227      -0.67168785       0.25302278      -0.46472227
C       -1.23863077       4.96014139       7.56422892       1.47007730       0.05564705      -0.07174808      -0.46680529      -0.50065077      -0.08495861      -0.37201986      -0.39315458      -0.12640212      -0.37201986      -0.39315458      -0.12640212
C        2.46650876      -0.03017229       7.55919748      -0.53732672      -0.28806068      -1.17064506      -0.33747127       1.35955508       0.08140131      -0.25932892       1.24602755       0.08995184      -0.25932892       1.24602755       0.08995184
C        3.69824465       0.68560522       7.46096519      -0.18361007      -0.36702959       0.12280737      -2.12994139       0.98068726      -0.07961101      -2.53954236       1.15695400      -0.15607753      -2.53954236       1.15695400      -0.15607753
C        1.22761653       2.12255217       7.48183173      -0.77147601       0.51823866       0.36763942       1.87857456       1.78765413      -0.14067030       1.57739442       1.72523130      -0.17180651       1.57739442       1.72523130      -0.17180651
C        2.48883147       2.87023124       7.42233269      -0.18795910      -1.04967400      -0.29860837      -1.06881481      -1.93688513       0.35378144      -0.85439661      -1.73077640       0.34010913      -0.85439661      -1.73077640       0.34010913
C       -0.01741869       4.25646279       7.46799042      -0.51522598      -0.12141650      -0.03553178       0.74549671      -0.14618099       0.48484483       0.81281390       0.02848217       0.44054516       0.81281390       0.02848217       0.44054516
C        1.19958963       4.96743285       7.53823485       0.40142977      -0.37670025       0.64819743       0.77206518      -0.37813554      -0.66816706       0.53473341      -0.35055963      -0.59823734       0.53473341      -0.35055963      -0.59823734
C        4.85341772      -0.00753275       7.48503352      -0.80693588      -1.44637080      -0.25568699       4.34995573      -0.26232055       0.00725050       4.40412102      -0.74889319       0.05917265       4.40412102      -0.74889319       0.05917265
C        6.14863075       0.70305276       7.44652275      -0.20559786       0.97535698       0.84830963      -0.59808594       0.62713758       0.31120206      -0.27392713       0.88390876       0.30939653      -0.27392713       0.88390876       0.30939653
C        3.70076411       2.11872145       7.38127919      -0.00478456      -0.28952023       0.10921020      -0.67350034      -0.26627878       1.12532540      -0.53425518      -0.07103470       1.07054719      -0.53425518      -0.07103470       1.07054719
C        4.91069693       2.79891405       7.53010329       0.21629093      -0.38279207      -0.24967758       0.88053905       2.10222351      -0.81683463       0.70218447       1.93724139      -0.70839934       0.70218447       1.93724139      -0.70839934
C        2.47273350       4.26185384       7.51010083      -1.09849267      -0.35536267      -0.70608858      -1.02824601       1.75092562      -0.20810768      -0.86700761       1.54435805      -0.15329586      -0.86700761       1.54435805      -0.15329586
C        3.67857298       5.01581729       7.54694776       0.31345726       0.47625265       1.12344122       1.36325730      -1.19068564       0.13212648       1.40029657      -1.28690321       0.11251507       1.40029657      -1.28690321       0.11251507
18
Lattice="7.38 0.0 0.0 -3.69 6.391267479929157 0.0 0.0 -0.0 15.0" Properties=species:S:1:pos:R:3:momenta:R:3:mace_forces:R:3:forces:R:3:REF_forces:R:3 T=300.0 mace_forces_rms=1.1220482164397327 energy=-2791.775061445603 REF_energy=-2791.775061445603 pbc="T T T"
C        0.04308663      -0.03247258       7.53237953       0.24223906      -0.83230094      -0.29957102      -3.02329415       1.15271858      -0.28891099      -3.03235341       1.04689613      -0.29286562      -3.03235341       1.04689613      -0.29286562
C        1.21044279       0.70592936       7.51847573       0.70083540      -0.73369017       0.37430934       2.21635926      -1.35575198      -0.13127075       2.11157478      -1.11424360      -0.12984868       2.11157478      -1.11424360      -0.12984868
C       -1.20566629       2.12784532       7.52563216      -1.24789192      -1.59974075      -0.01416586      -0.73343548       0.69887427       0.19291602      -0.57239081       0.66907432       0.21962260      -0.57239081       0.66907432       0.21962260
C        0.01968339       2.86724847       7.52473675       0.29100946      -0.53042795       0.19312357      -0.43347810      -1.24709419      -0.57779140      -0.48345635      -1.37474752      -0.57891242      -0.48345635      -1.37474752      -0.57891242
C       -2.46791827       4.26399605       7.43796348      -0.94133149       0.13830818       0.43619475       0.65912191      -0.40833848       0.55103503       0.58390061      -0.62534500       0.57565740       0.58390061      -0.62534500       0.57565740
C       -1.18353127       4.95122676       7.45376830       0.00073774       0.09071939       0.16243840      -2.61700881       0.80414772       0.17417174      -2.57043750       0.92441880       0.18091542      -2.57043750       0.92441880       0.18091542
C        2.48581610      -0.01104224       7.51874348      -0.50996817      -0.71370616      -0.02327911      -1.96101931      -0.07311669      -0.48364732      -1.90206535      -0.30174724      -0.46025215      -1.90206535      -0.30174724      -0.46025215
C        3.65807044       0.69397956       7.50668967       0.08285207       0.52141250       0.46251650       2.17133288       2.01736319       0.16064085       2.24477489       1.94254763       0.14591705       2.24477489       1.94254763       0.14591705
C        1.21784942       2.10077738       7.48033569       0.51723581      -0.23829924       0.58159634      -0.01036223       1.10951556       0.44779815      -0.06664428       1.06925161       0.42473159      -0.06664428       1.06925161       0.42473159
C        2.43374569       2.81761323       7.47973626      -0.06941517       0.97065863      -1.09111900       0.25077383       1.73098130       0.19223767       0.36023186       1.61684362       0.21297347       0.36023186       1.61684362       0.21297347
C        0.02455482       4.27809569       7.45982276       0.08579401       0.37780777      -0.02952341      -0.05451262      -0.29568561       0.17178051       0.01246265      -0.26731245       0.14891547       0.01246265      -0.26731245       0.14891547
C        1.22658348       5.03067277       7.46557195       0.13680424       0.93877977       0.19056631      -0.06993487      -2.32418359       0.82733338      -0.10570011      -2.43314548       0.78644621      -0.10570011      -2.43314548       0.78644621
C        4.92133826       0.00587845       7.54089321      -0.09974278      -0.13444204       0.08952895      -0.06671787       1.75339803      -0.58808312      -0.07776559       1.86784423      -0.57831155      -0.07776559       1.86784423      -0.57831155
C        6.16871986       0.71090713       7.53564881       0.10135795       1.18884710      -1.20306494       0.39358465      -0.39303240       0.18009505       0.38281978      -0.32386618       0.16431175       0.38281978      -0.32386618       0.16431175
C        3.67987087       2.15892828       7.48072921       0.12656434       0.39604306      -0.41290146      -0.30907031      -2.04217014       0.35980148      -0.34905631      -1.78645596       0.36613229      -0.34905631      -1.78645596       0.36613229
C        4.91296643       2.84130893       7.51842288      -0.06483161      -0.31026070       0.70109551       0.74669760       0.14340857      -0.60429453       0.61964769       0.32757628      -0.61024928       0.61964769       0.32757628      -0.61024928
C        2.40878368       4.27305243       7.54361686       0.30094023       0.49926601       0.57259923       1.39520722      -0.96240320      -1.04238120       1.57742090      -0.85980081      -1.03630498       1.57742090      -0.85980081      -1.03630498
C        3.65560399       4.95492735       7.47683327       0.34681082      -0.02897445      -0.69034407       1.44575639      -0.30863093       0.45856944       1.26703630      -0.37778839       0.46112144       1.26703630      -0.37778839       0.46112144
18
Lattice="7.38 0.0 0.0 -3.69 6.391267479929157 0.0 0.0 -0.0 15.0" Properties=species:S:1:pos:R:3:momenta:R:3:mace_forces:R:3:forces:R:3:REF_forces:R:3 T=100.0 mace_forces_rms=0.6441571702410693 energy=-2792.126784092554 REF_energy=-2792.126784092554 pbc="T T T"
C        0.00990900       0.00213109       7.53803457       0.42152086      -0.56074839      -0.27846844       0.11233377      -0.53779721      -0.50045862       0.12782779      -0.55752572      -0.48655145       0.12782779      -0.55752572      -0.48655145
C        1.24015652       0.71262787       7.46020442       0.34227559       0.44301384      -0.24687610      -0.12779617      -0.53901007       0.70208163      -0.15224942      -0.53035945       0.69471259      -0.15224942      -0.53035945       0.69471259
C       -1.21712484       2.13698920       7.52187610      -0.14679547      -0.76890543       0.20319703      -0.00855566      -0.23015688      -0.27240971       0.00430171      -0.23933217      -0.25532263       0.00430171      -0.23933217      -0.25532263
C        0.01867898       2.84624143       7.51472824       0.27249703       0.14049305      -0.38363589      -0.77684411      -0.47207344       0.27054145      -0.81963683      -0.44054104       0.26593049      -0.81963683      -0.44054104       0.26593049
C       -2.44265265       4.24211525       7.46944940      -0.41441430      -0.26903012       0.50499676      -1.34892166       1.04038146       0.73845269      -1.25801532       0.97298951       0.73880984      -1.25801532       0.97298951       0.73880984
C       -1.22560011       4.97744176       7.51416752      -0.25688870       0.12383149       0.12714458      -0.35852837      -0.76503227      -0.20254930      -0.36473695      -0.77505776      -0.18123578      -0.36473695      -0.77505776      -0.18123578
C        2.45823406      -0.00292549       7.49169341      -0.18507750       0.24234682      -0.15811553       0.44871910       0.18989853      -0.37781166       0.46647885       0.20233245      -0.37563174       0.46647885       0.20233245      -0.37563174
C        3.69644215       0.70813036       7.44383873       0.04577044      -0.17600579       0.11413430      -0.64286357       0.32572292       0.19694168      -0.70746217       0.38106628       0.21714560      -0.70746217       0.38106628       0.21714560
C        1.24158652       2.12034525       7.49949463      -0.29433715       0.47082923      -0.17754400      -1.15736815       0.31276987      -0.17623897      -1.25639424       0.17241998      -0.22216285      -1.25639424       0.17241998      -0.22216285
C        2.41803097       2.84118920       7.51023177       0.17943631      -0.29338466      -0.16109181       2.33014006      -0.01748747       0.01614021       2.44309976       0.12931569       0.02305585       2.44309976       0.12931569       0.02305585
C       -0.00775867       4.25304201       7.53808357      -0.21000158       0.62270900       0.29003219       0.58140760       0.89225014      -0.40424895       0.56281808       0.87952066      -0.39993818       0.56281808       0.87952066      -0.39993818
C        1.21244251       4.99295988       7.49551803       0.19014386       0.16814233       0.47105595       0.44047746      -0.87915168       0.29866569       0.45778260      -0.84288655       0.31272431       0.45778260      -0.84288655       0.31272431
C        4.91627458       0.00784000       7.44090739      -0.42389275      -0.09701436       0.04971709       1.03613594       0.35914406       0.48510461       1.04193673       0.25887692       0.46921810       1.04193673       0.25887692       0.46921810
C        6.18201286       0.71707254       7.50290239      -0.06200678       0.21345666       0.05707978      -1.52134044      -0.14674349      -0.00966058      -1.48616525      -0.09119986      -0.03003126      -1.48616525      -0.09119986      -0.03003126
C        3.67322108       2.12540640       7.47272686       0.52013263      -0.21351160       0.10489849       0.06816764       0.55886476       0.07632677       0.07534155       0.47724534       0.11987074       0.07534155       0.47724534       0.11987074
C        4.91702307       2.83444540       7.49819016      -0.06719223      -0.02786030      -0.31426096       0.09086369      -0.31852108      -0.21452208       0.10874095      -0.28184896      -0.23165382       0.10874095      -0.28184896      -0.23165382
C        2.44264353       4.26245988       7.55223435       0.00961176       0.04746117       0.00894921      -0.19129310       0.27889125      -0.40866095      -0.18255887       0.28961369      -0.39881924      -0.18255887       0.28961369      -0.39881924
C        3.67648044       4.96136032       7.53571844       0.07921799      -0.06582293      -0.21121265       1.02526596      -0.05194941      -0.21769392       0.93889077      -0.00462901      -0.26012082       0.93889077      -0.00462901      -0.26012082
18
Lattice="7.38 0.0 0.0 -3.69 6.391267479929157 0.0 0.0 -0.0 15.0" Properties=species:S:1:pos:R:3:momenta:R:3:mace_forces:R:3:forces:R:3:REF_forces:R:3 T=300.0 mace_forces_rms=1.1729380299728014 energy=-2791.693889615418 REF_energy=-2791.693889615418 pbc="T T T"
C       -0.01151873       0.01647032       7.54266618       0.58799479      -0.56443039       0.84187735       1.02662924      -2.25064190       0.00351183       0.94354447      -2.14263576       0.07030193       0.94354447      -2.14263576       0.07030193
C        1.24443871       0.72572987       7.52145471      -0.55315707       0.56471302      -0.56117082      -2.12735599      -1.19299134      -0.01119788      -2.03667854      -1.14448081      -0.01574544      -2.03667854      -1.14448081      -0.01574544
C       -1.20623539       2.09557353       7.44501719      -0.52364328       0.74508735       0.52155211       0.35186559       1.53520991       1.01910618       0.35831871       1.53576903       0.98638830       0.35831871       1.53576903       0.98638830
C       -0.00302355       2.86849341       7.54475043      -0.95811101      -0.72598874       0.32694512       0.52112084      -2.06663354      -0.73662687       0.56837346      -2.10754637      -0.76701895       0.56837346      -2.10754637      -0.76701895
C       -2.44750527       4.23274494       7.58859055       0.57531197      -0.91091052       0.15648476       1.33460887       1.10819465      -0.48297186       1.23103879       1.02141367      -0.48396749       1.23103879       1.02141367      -0.48396749
C       -1.20239955       4.96222000       7.55929063      -0.57004306      -0.35515896      -0.30576031      -1.88966271       0.54706724       0.07103072      -1.88486776       0.65895780       0.09885917      -1.88486776       0.65895780       0.09885917
C        2.42744346      -0.01373507       7.50807869      -0.36240460       0.41625996       0.46249048       1.74471306       0.86228340       0.07212468       1.66306383       0.76339164      -0.01334531       1.66306383       0.76339164      -0.01334531
C        3.65304291       0.75044711       7.46235110      -0.37642053      -0.21810784       0.39638434       0.26470484      -1.54821440       0.15835118       0.36585101      -1.52029407       0.19391466       0.36585101      -1.52029407       0.19391466
C        1.21625679       2.11680901       7.47793695       0.76180070       0.11261765      -1.00000193       0.58044937       1.64572083       0.39031877       0.50451755       1.67447644       0.37652289       0.50451755       1.67447644       0.37652289
C        2.44698527       2.84222237       7.46680856       0.22435160       1.09206463       0.79365330       0.18308526      -0.57578949       0.23195921       0.24078561      -0.62556971       0.27753619       0.24078561      -0.62556971       0.27753619
C        0.00186519       4.27334028       7.54717575      -0.33432763      -0.19975072      -0.96951175       0.62115181      -0.11178432      -0.53947731       0.72168706      -0.11542505      -0.51430342       0.72168706      -0.11542505      -0.51430342
C        1.22958212       4.98666883       7.42628775       0.90939140       0.68464583      -0.12549294      -0.34154021       0.15006209       0.19802327      -0.32431715       0.14259287       0.19604096      -0.32431715       0.14259287       0.19604096
C        4.87932808       0.03099480       7.40352483      -0.44154949       0.89900022      -0.23856919       0.93473831      -1.16105906       0.66310479       0.89647888      -1.15785414       0.68235510       0.89647888      -1.15785414       0.68235510
C        6.14066552       0.68637591       7.49673635       0.53780154      -0.23316700       0.88774789      -0.15315945       0.65433645      -0.75962039      -0.17143679       0.62391572      -0.76746709      -0.17143679       0.62391572      -0.76746709
C        3.68492747       2.14318781       7.53569738      -0.30729510      -0.82168144      -0.67433057       1.34178216       1.03016264      -0.94766563       0.92762188       0.82912601      -0.92134093       0.92762188       0.82912601      -0.92134093
C        4.99865719       2.84249824       7.48998031       0.54503164       0.35083625       0.06077594      -3.96454568      -1.59979527       0.43263190      -3.55032606      -1.30062467       0.42601071      -3.55032606      -1.30062467       0.42601071
C        2.44130900       4.23620706       7.42647178       0.58835189       0.11124311      -0.33607034       1.24967645       1.90289550       0.68628449       1.16420297       1.89026425       0.69088833       1.16420297       1.89026425       0.69088833
C        3.71618079       4.94262393       7.55718083      -0.30308376      -0.94727241      -0.23700345      -1.67826175       1.07097662      -0.44888706      -1.61785715       0.97452292      -0.51562960      -1.61785715       0.97452292      -0.51562960
18
Lattice="7.38 0.0 0.0 -3.69 6.391267479929157 0.0 0.0 -0.0 15.0" Properties=species:S:1:pos:R:3:momenta:R:3:mace_forces:R:3:forces:R:3:REF_forces:R:3 T=300.0 mace_forces_rms=1.0568676197185598 energy=-2791.714938981407 REF_energy=-2791.714938981407 pbc="T T T"
C       -0.03957877      -0.01060699       7.49027051      -0.18557953      -1.44431043       0.59386669       1.23074301       0.42071581      -0.71074094       1.23645662       0.34310600      -0.65718965       1.23645662       0.34310600      -0.65718965
C        1.20337075       0.71649188       7.45537233      -0.77244799       0.10848539      -0.34469646       0.30025486       0.43191659       0.64954607       0.39969110       0.41474362       0.65638387       0.39969110       0.41474362       0.65638387
C       -1.23282306       2.14830666       7.42220391       0.14035641      -0.37815467      -0.52447746      -0.44847141      -1.65317900       0.79169935      -0.42217025      -1.27045355       0.76462783      -0.42217025      -1.27045355       0.76462783
C       -0.03103710       2.85400585       7.53038416      -0.31844725       0.57039726       0.13294109       2.15691730       0.60548164      -0.36050220       1.92406782       0.69705306      -0.34707913       1.92406782       0.69705306      -0.34707913
C       -2.45399558       4.27894924       7.54676655      -0.97493262      -0.41742182      -0.30166976      -1.62919142      -0.46068742      -0.02144834      -1.44741641      -0.47595645      -0.07259561      -1.44741641      -0.47595645      -0.07259561
C       -1.27332700       5.01182754       7.63792743      -0.07280639      -0.09845029       0.63613898       2.54218683      -1.44043974      -0.61098878       2.26802743      -1.51133249      -0.54302007       2.26802743      -1.51133249      -0.54302007
C        2.44022352       0.01119638       7.54689734       0.93109649       0.26206296      -0.07639776      -0.17341213       0.40214286      -0.21909301      -0.15583945       0.59452338      -0.32216771      -0.15583945       0.59452338      -0.32216771
C        3.69470851       0.67233916       7.48211276      -0.07222101       0.50633386       0.46121913       0.12334965       1.01126031       0.48543734      -0.01680293       1.03984231       0.47975345      -0.01680293       1.03984231       0.47975345
C        1.24902511       2.14859741       7.47780863      -0.02153389      -1.01633228      -0.28347356      -1.34077538      -0.31861261       0.28797464      -1.09892446      -0.35103786       0.31158685      -1.09892446      -0.35103786       0.31158685
C        2.50201118       2.83119938       7.53298943       0.83312192      -1.01549036      -0.10485289      -1.13216991      -0.54797374      -0.67492396      -1.19421648      -0.64436473      -0.64024505      -1.19421648      -0.64436473      -0.64024505
C        0.00162211       4.29202083       7.61575887      -1.09199627      -0.02916052       0.32295519      -0.33836833      -0.39653171      -0.78835748      -0.15818789      -0.50368708      -0.83779165      -0.15818789      -0.50368708      -0.83779165
C        1.28579969       4.95231090       7.44696658       0.35902526       0.98291730      -0.77226353      -2.28275166       0.38122527       1.01585322      -2.35460779       0.35223676       1.06739193      -2.35460779       0.35223676       1.06739193
C        4.95123032      -0.00576367       7.47701453       0.37845313       0.22010849      -0.38081341      -1.75201346      -1.43569735      -0.49911950      -1.93948467      -1.62954667      -0.47059647      -1.93948467      -1.62954667      -0.47059647
C        6.12726719       0.67607074       7.43226482       0.02493636       0.99907302      -0.04005557       1.10796148       3.07607537       0.13166509       1.34345925       2.93830272       0.10918344       1.34345925       2.93830272       0.10918344
C        3.70627078       2.09871861       7.51036367      -0.18605780       0.68883357      -0.20691912       0.21013763       0.36334345      -0.27134823       0.18507212       0.33355975      -0.24089103       0.18507212       0.33355975      -0.24089103
C        4.92353905       2.84770198       7.48644944       0.15830854      -0.22510450      -0.08781867       0.08498180      -0.04255331       0.03767184       0.15189872      -0.04139399       0.00974191       0.15189872      -0.04139399       0.00974191
C        2.49739492       4.24442219       7.44343075       0.82344803       0.37932556       1.26622414      -1.12479559      -0.37403465       0.35325307      -1.29606508      -0.48110894       0.30043289      -1.29606508      -0.48110894       0.30043289
C        3.65829839       4.97108427       7.46501828       0.04727662      -0.09311253      -0.28990706       2.46541673      -0.02245178       0.40342182       2.57504261       0.19551414       0.43247395       2.57504261       0.19551414       0.43247395
18
Lattice="7.38 0.0 0.0 -3.69 6.391267479929157 0.0 0.0 -0.0 15.0" Properties=species:S:1:pos:R:3:momenta:R:3:mace_forces:R:3:forces:R:3:REF_forces:R:3 T=100.0 mace_forces_rms=0.7517308049215398 energy=-2792.0995554294595 REF_energy=-2792.0995554294595 pbc="T T T"
C        0.01712396      -0.01060871       7.49509064      -0.36611369      -0.06709939      -0.10740610      -0.93133491       0.98341657      -0.00972608      -0.83229849       0.94214579      -0.01112362      -0.83229849       0.94214579      -0.01112362
C        1.23014404       0.72647200       7.50327311       0.09872500       0.25652980      -0.81344569      -0.21871925      -0.23943137      -0.05916150      -0.24043106      -0.23391588      -0.05616189      -0.24043106      -0.23391588      -0.05616189
C       -1.21967361       2.10474686       7.55385141      -0.65909499       0.33599179       0.44873357      -0.47791952       1.51057423      -0.50413516      -0.45100543       1.37778734      -0.53098294      -0.45100543       1.37778734      -0.53098294
C        0.01270560       2.84351066       7.53980187       0.10555904      -0.33405623      -0.02942745      -0.67014926       0.09308330       0.07047175      -0.62003695       0.16008228       0.06477457      -0.62003695       0.16008228       0.06477457
C       -2.45348608       4.23762825       7.57358917       0.02876656      -0.29351515      -0.25625500      -0.29255979       1.59714224      -0.70970282      -0.32274287       1.71578559      -0.68089497      -0.32274287       1.71578559      -0.68089497
C       -1.24874631       4.98508178       7.53089164       0.35411725      -0.21168619      -0.11136982       1.10312472      -0.74362991       0.14974884       1.03494693      -0.64900352       0.13908665       1.03494693      -0.64900352       0.13908665
C        2.44387630       0.01252321       7.47859455       0.33359821      -0.13402050       0.08856883       0.33738379      -0.24887352       0.23438805       0.31188047      -0.35006469       0.22420919       0.31188047      -0.35006469       0.22420919
C        3.68690645       0.70845281       7.46572927      -0.57764865       0.78671882       0.81932235      -0.69557123       0.16780811       0.11703154      -0.74007250       0.25974853       0.11703610      -0.74007250       0.25974853       0.11703610
C        1.23775246       2.14673992       7.50761751      -0.09493768      -0.00647243      -0.03485152      -0.47489766      -0.88687860      -0.08358934      -0.54635222      -0.90070860      -0.04888876      -0.54635222      -0.90070860      -0.04888876
C        2.45970170       2.81375273       7.47092819       0.29910529       0.53683764      -0.54565842       0.56142553       1.64209237      -0.04739596       0.60573468       1.72340968      -0.06978591       0.60573468       1.72340968      -0.06978591
C        0.00285837       4.26828875       7.52983148       0.16397833      -0.06465189       0.59725089      -0.47097079       0.23475263      -0.17488750      -0.38065851       0.17101538      -0.19149216      -0.38065851       0.17101538      -0.19149216
C        1.23380652       4.98781989       7.47047327       0.01242955      -0.16110968      -0.07041264      -0.34001004      -1.08625227      -0.05463267      -0.34816696      -1.10949863      -0.04949939      -0.34816696      -1.10949863      -0.04949939
C        4.88346775       0.00557862       7.47257243      -0.82609606      -0.32661605       0.01209314       2.03814952      -0.06604605      -0.11983276       2.07179724      -0.13890719      -0.08728458       2.07179724      -0.13890719      -0.08728458
C        6.14166888       0.70546350       7.48130767       0.10213901       0.20229149       0.11153812       0.22327951      -0.67247844       0.30766801       0.17646689      -0.54947534       0.28402565       0.17646689      -0.54947534       0.28402565
C        3.69757048       2.12038474       7.48120836      -0.04576567      -0.50649707      -0.17843156      -0.28289127       0.34523218      -0.08386581      -0.24073059       0.31625443      -0.07796639      -0.24073059       0.31625443      -0.07796639
C        4.91259534       2.85048783       7.51551772       0.23810307       0.21536822       0.08418617       1.02155231      -1.75065515       0.45034916       0.91809877      -1.79584845       0.43527414       0.91809877      -1.79584845       0.43527414
C        2.45936081       4.25030240       7.43412816       0.48347955      -0.84119074       0.09344764       0.65440369       0.66666468       0.53820266       0.56606564       0.58264283       0.56764353       0.56606564       0.58264283       0.56764353
C        3.71236733       4.98224712       7.49559355       0.34965588       0.61317757      -0.10788251      -1.08429533      -1.54652102      -0.02093042      -0.96249504      -1.52144952      -0.02796897      -0.96249504      -1.52144952      -0.02796897
18
Lattice="7.38 0.0 0.0 -3.69 6.391267479929157 0.0 0.0 -0.0 15.0" Properties=species:S:1:pos:R:3:momenta:R:3:mace_forces:R:3:forces:R:3:REF_forces:R:3 T=300.0 mace_forces_rms=1.107181189029591 energy=-2791.6932759987117 REF_energy=-2791.6932759987117 pbc="T T T"
C       -0.00238752       0.04475443       7.54418760       0.44370708       0.94605790       0.47579992      -0.88549717      -1.91246479      -0.81994353      -0.99876379      -1.91458071      -0.83554579      -0.99876379      -1.91458071      -0.83554579
C        1.21788523       0.73988270       7.48651595       0.61948522      -1.29322113      -0.51699669       1.04054013      -0.89115954       0.19144460       0.95605751      -0.77539381       0.15064093       0.95605751      -0.77539381       0.15064093
C       -1.18996677       2.13247437       7.53322012      -0.33979576      -0.79339975       0.45135989      -2.99455314       0.19040796       0.02732461      -2.80974139       0.09759291       0.04175986      -2.80974139       0.09759291       0.04175986
C        0.01815960       2.84119012       7.51014832       0.73092795       0.27443625       0.29332908      -0.91344660      -0.39501054       0.19202170      -1.03297463      -0.41384194       0.13898972      -1.03297463      -0.41384194       0.13898972
C       -2.48283296       4.26368902       7.38429298       0.85189164       0.08186877      -0.46955176       0.64296408       1.78437989       1.02322758       0.61328112       1.74977017       0.98369944       0.61328112       1.74977017       0.98369944
C       -1.22692453       4.96638436       7.45720052       0.46234062      -0.00153128      -0.82638683      -0.34618069       0.45144884      -0.43250846      -0.25494750       0.40492766      -0.40082444      -0.25494750       0.40492766      -0.40082444
C        2.47980307       0.00787173       7.44640248      -0.61949314      -0.21561151      -0.00773091      -1.46358198      -0.04530482      -0.08190563      -1.30232417      -0.08151605      -0.03241493      -1.30232417      -0.08151605      -0.03241493
C        3.69760155       0.70353354       7.43532071      -0.46986807      -0.19517663       0.62994638       0.43111017       0.03377180       0.98623807       0.40006674      -0.01157151       0.98807880       0.40006674      -0.01157151       0.98807880
C        1.21369809       2.13934041       7.52370692      -0.46152964       0.15851677      -0.26194275       2.15488742       0.05239536       0.22153494       2.22183499      -0.10643699       0.22951827       2.22183499      -0.10643699       0.22951827
C        2.48302880       2.83196814       7.58862797       0.39812658       0.55380939       0.20955397      -1.36425666      -0.01577501      -0.71956635      -1.24646927      -0.01008747      -0.69850728      -1.24646927      -0.01008747      -0.69850728
C       -0.01318856       4.23852713       7.50047558       0.61244791       0.80798414      -0.93169744       0.70686507       0.78016831      -0.35802983       0.59983682       0.90290792      -0.34131317       0.59983682       0.90290792      -0.34131317
C        1.25287308       4.91292216       7.47195258      -0.33298374       0.61164464      -0.18730119      -2.36849535       1.40661007       0.94694105      -2.61452549       1.67917873       0.89236100      -2.61452549       1.67917873       0.89236100
C        4.91517582      -0.05997534       7.53210890      -0.60325129      -0.90468533       0.22497727      -0.31793603       1.46019575      -0.76186253      -0.37019695       1.34530453      -0.83386943      -0.37019695       1.34530453      -0.83386943
C        6.10515811       0.69552886       7.56506479      -0.66858223       0.39023057       0.14063440       1.88967693       0.92330264      -0.01652743       2.00496707       0.90267807       0.02848859       2.00496707       0.90267807       0.02848859
C        3.69735911       2.14551059       7.52977647       0.44213687       0.13502594       0.08195808       1.10348435      -0.68067208      -0.11313381       0.97574033      -0.63447524      -0.14121784       0.97574033      -0.63447524      -0.14121784
C        4.93374040       2.89364379       7.51407965       1.05582185       0.00948316      -0.05823186       0.24711803      -2.99489725      -0.45829104       0.12955866      -2.83925457      -0.41533112       0.12955866      -2.83925457      -0.41533112
C        2.44240394       4.24757562       7.54890735      -0.87006887      -1.05528325       0.62153034       2.12993908      -0.10132372      -0.63631331       2.51054057      -0.23114063      -0.59490493       2.51054057      -0.23114063      -0.59490493
C        3.66841353       4.99405075       7.42801111      -1.25131297       0.48985136       0.13075010       0.30736236      -0.04607288       0.80934937       0.21805886      -0.06406084       0.84039258       0.21805886      -0.06406084       0.84039258
18
Lattice="7.38 0.0 0.0 -3.69 6.391267479929157 0.0 0.0 -0.0 15.0" Properties=species:S:1:pos:R:3:momenta:R:3:mace_forces:R:3:forces:R:3:REF_forces:R:3 T=600.0 mace_forces_rms=1.6201206867885658 energy=-2791.190610444889 REF_energy=-2791.190610444889 pbc="T T T"
C        0.02732604       0.05698393       7.36830983      -0.57117049      -0.38263728      -0.19617235      -2.56781297      -2.09584842       0.85280851      -2.83520276      -2.46192769       0.94042572      -2.83520276      -2.46192769       0.94042572
C        1.20049085       0.72119481       7.35334438      -1.38127051      -0.19758122       1.02889435       2.72331147       0.43149670       0.96168083       3.09099719       0.58665529       1.06155476       3.09099719       0.58665529       1.06155476
C       -1.21708507       2.08929409       7.49564631      -0.21069532      -0.05503766      -1.77355597      -1.92784974       4.56980039      -0.55985855      -1.57538433       4.77128844      -0.43749994      -1.57538433       4.77128844      -0.43749994
C       -0.01953769       2.87379732       7.52476420       0.97716742      -0.42622905      -0.39508072       1.88428803      -1.81829052      -0.18848254       1.83073344      -1.70154142      -0.24432011       1.83073344      -1.70154142      -0.24432011
C       -2.48187917       4.24546200       7.62456092      -0.35296343      -0.27028307      -0.43581847      -0.78889465       1.08150798      -0.69527518      -0.89851442       0.98563163      -0.70085187      -0.89851442       0.98563163      -0.70085187
C       -1.28404776       4.97272309       7.68141167       1.53618839      -0.67114768      -0.39343516       2.65775001      -1.68873762      -0.92063569       2.33508978      -1.60321498      -0.87478237       2.33508978      -1.60321498      -0.87478237
C        2.41359131      -0.06626191       7.54275033      -0.99444430       0.59386619       0.78607598       2.06530803       4.10919262      -0.25569278       1.39699425       3.91306320      -0.44697986       1.39699425       3.91306320      -0.44697986
C        3.72608754       0.68792288       7.50486389       0.42729988      -0.11641730      -0.10426109      -2.86068510      -1.64152459      -0.48798006      -2.16960946      -1.13520144      -0.45566144      -2.16960946      -1.13520144      -0.45566144
C        1.25946434       2.15793510       7.43775145       0.52226613       0.57053025       0.52469564      -2.30882599      -0.37949270      -0.34906351      -2.34298178      -0.47850852      -0.29818626      -2.34298178      -0.47850852      -0.29818626
C        2.46425281       2.82748659       7.44051356      -0.32084441      -0.98893971       0.14485316       1.46610139       0.40864079       0.23661193       1.47233348       0.65131982       0.28375440       1.47233348       0.65131982       0.28375440
C        0.02253207       4.27177823       7.58284024       0.16318875       0.84186798       0.97052793      -2.45230676       0.17122784       0.73885373      -2.08166359      -0.01495739       0.75188004      -2.08166359      -0.01495739       0.75188004
C        1.25024746       4.93933395       7.59210573       1.18925836      -0.59810477      -0.69132476      -0.07291206       1.85494458      -0.51423464      -0.11239886       1.74662005      -0.54997208      -0.11239886       1.74662005      -0.54997208
C        4.94030562      -0.00173710       7.50619684       0.15858661      -0.25149585       0.64350852      -0.09514792      -0.84719418       0.20401687      -0.08357628      -0.73648839       0.22458303      -0.08357628      -0.73648839       0.22458303
C        6.14224608       0.74904879       7.41022479       0.63662511       1.06100039       1.41786235       1.03311908      -2.48538685       0.24170536       0.89157322      -2.89721803       0.13275403       0.89157322      -2.89721803       0.13275403
C        3.71450725       2.08980399       7.37840143      -0.14404525       2.30280067      -0.31164365      -1.51107451       1.38918425       0.72500434      -1.26766236       1.27339952       0.68664909      -1.26766236       1.27339952       0.68664909
C        4.88641533       2.85727529       7.45055733      -0.07374238       0.35461925      -0.71038399       2.36056346      -2.42076081       0.80468175       1.89531441      -2.15554784       0.79655810       1.89531441      -2.15554784       0.79655810
C        2.48191103       4.26273372       7.55548306       0.32517724      -0.39007310       0.25411896      -0.28713677      -0.53253390      -0.34850222      -0.33473141      -0.71235601      -0.38365719      -0.33473141      -0.71235601      -0.38365719
C        3.68317194       5.00409758       7.55027403      -1.88658180      -1.37673804      -0.75886071       0.68220500      -0.10622554      -0.44563814       0.78868975      -0.03101599      -0.48624832       0.78868975      -0.03101599      -0.48624832
18
Lattice="7.38 0.0 0.0 -3.69 6.391267479929157 0.0 0.0 -0.0 15.0" Properties=species:S:1:pos:R:3:momenta:R:3:mace_forces:R:3:forces:R:3:REF_forces:R:3 T=600.0 mace_forces_rms=1.7222167013035456 energy=-2790.909641613753 REF_energy=-2790.909641613753 pbc="T T T"
C       -0.04515727      -0.07057368       7.54779517       0.25767973       0.42991984       0.91242054      -0.06652468       1.25601083      -0.00385250      -0.07864233       1.15010381       0.00209262      -0.07864233       1.15010381       0.00209262
C        1.13268486       0.66106298       7.54064338       0.33093724      -0.44041347       0.06542308       3.91475278      -0.07025844       0.38531249       3.67106712       0.24292785       0.34563108       3.67106712       0.24292785       0.34563108
C       -1.19215925       2.12148774       7.58248021      -0.03288277       0.38785680       0.64325521      -0.36634872       2.04632981      -0.56926940      -0.30537969       1.96404771      -0.63324934      -0.30537969       1.96404771      -0.63324934
C        0.03299117       2.86403120       7.51733713      -0.45062376      -0.68403639       0.27361684      -1.04526608      -0.87892357       0.15982115      -1.00579242      -0.79658741       0.15930787      -1.00579242      -0.79658741       0.15930787
C       -2.43853698       4.26150260       7.48548914       0.94075693      -0.69034955       0.13241977      -1.09459397       2.15971390      -0.57010242      -1.07129590       2.29935761      -0.52134207      -1.07129590       2.29935761      -0.52134207
C       -1.22424013       5.03568556       7.51283036      -0.00431058      -0.46061074      -0.96224054       0.07396195      -3.72344394      -1.10689625       0.26559907      -4.56640468      -1.05466343       0.26559907      -4.56640468      -1.05466343
C        2.42618658      -0.03407448       7.49159908       0.31591541       1.33913848       0.57008084       2.18995010       5.73184776       0.04117021       1.08678397       5.75474208      -0.02749769       1.08678397       5.75474208      -0.02749769
C        3.74441482       0.79601356       7.44325948      -0.49004064       0.12178752      -0.42070189      -3.92538748      -3.89867527       0.41049598      -2.49737215      -3.12934571       0.37116702      -2.49737215      -3.12934571       0.37116702
C        1.22074968       2.09183089       7.60113527       0.65739029       1.42562542      -0.42757389      -0.75499459       0.00759049      -0.92426204      -0.86267864      -0.13454403      -0.93144923      -0.86267864      -0.13454403      -0.93144923
C        2.42788780       2.80115521       7.50579213      -0.70885645      -0.93382989      -0.95281553       1.06293626       0.26175641       0.48708117       1.09451707       0.32659541       0.54174069       1.09451707       0.32659541       0.54174069
C        0.00450218       4.27390938       7.37279017       0.27870772      -1.56293626      -0.31705053       0.67818707       0.91686314       1.56310791       0.71503690       0.79954263       1.60522404       0.71503690       0.79954263       1.60522404
C        1.25645127       4.97517674       7.45876711       0.18107714       0.23392386      -0.25648850      -1.43195624      -0.25815073      -0.57837317      -1.56040225      -0.20272994      -0.61541771      -1.56040225      -0.20272994      -0.61541771
C        4.93322859       0.01033490       7.44423846       0.11443517      -1.55146564      -0.23612946       0.57615681       1.18819085       0.89824223       0.52624671       1.16163932       1.01855177       0.52624671       1.16163932       1.01855177
C        6.18145073       0.73227469       7.63019795       0.17924916      -0.49352901       0.44244127      -1.88360886      -1.74685220      -1.16118640      -1.97481343      -1.70018387      -1.19908358      -1.97481343      -1.70018387      -1.19908358
C        3.70022359       2.19712105       7.50593837      -0.54634332       1.23144672       0.81048353       1.12394307      -1.10634216      -0.78994367       1.08256659      -1.21290969      -0.83147419       1.08256659      -1.21290969      -0.83147419
C        4.96904479       2.90473641       7.43621633      -0.90257223       0.56072211       0.39466720      -0.79487252      -2.78965827       1.19644527      -0.74047308      -3.02586755       1.21663805      -0.74047308      -3.02586755       1.21663805
C        2.45215074       4.20116486       7.49703592      -1.06401716       1.04351805      -0.62599751      -1.37221966       1.03986823      -0.58423875      -1.45706113       0.89843652      -0.50467078      -1.45706113       0.89843652      -0.50467078
C        3.62812682       4.91603275       7.42645434       0.94349814       0.04323215      -0.04581044       3.11588475      -0.13586683       1.14644819       3.11209361       0.17118019       1.05849515       3.11209361       0.17118019       1.05849515
18
Lattice="7.38 0.0 0.0 -3.69 6.391267479929157 0.0 0.0 -0.0 15.0" Properties=species:S:1:pos:R:3:momenta:R:3:mace_forces:R:3:forces:R:3:REF_forces:R:3 T=100.0 mace_forces_rms=0.7475765005045066 energy=-2792.0348919295247 REF_energy=-2792.0348919295247 pbc="T T T"
C       -0.03581242       0.04130313       7.43505151       0.03584708       0.11714882       0.26546226       1.83290878      -1.95533289       0.18044145       2.01162906      -1.99051927       0.19580210       2.01162906      -1.99051927       0.19580210
C        1.21857196       0.69210756       7.44979226       0.35009362      -0.24464098      -0.18605207       0.27935839       0.59393842       0.34283466       0.31568390       0.56273221       0.35006572       0.31568390       0.56273221       0.35006572
C       -1.23512856       2.15899831       7.46921808       0.44378663      -0.00494868       0.04152577      -0.72890118      -1.24362928       0.16721529      -0.76265527      -1.18938255       0.15629042      -0.76265527      -1.18938255       0.15629042
C       -0.00254481       2.80933651       7.50213217       0.18479519       0.01398704      -0.04796779       0.50952803       0.82669431      -0.28717328       0.54126375       0.77827755      -0.26904281       0.54126375       0.77827755      -0.26904281
C       -2.44345558       4.28957832       7.57499966       0.65069966      -0.37310482      -0.69373457      -0.58342894      -0.87464158      -0.47269725      -0.60495589      -0.88738129      -0.47548208      -0.60495589      -0.88738129      -0.47548208
C       -1.20134114       4.96200041       7.57331381       0.33848044      -0.31920791       0.20906720      -0.29832358      -0.36670000       0.02406580      -0.26913922      -0.43343169       0.00464624      -0.26913922      -0.43343169       0.00464624
C        2.44755326      -0.02266459       7.55354578      -0.31239184       0.43479910       0.33886790       1.02217098       0.94140752      -0.52036622       0.98206293       1.04507784      -0.55366007       0.98206293       1.04507784      -0.55366007
C        3.68618515       0.71511291       7.51253728      -0.04529502      -0.16936412       0.30041115       0.32138979      -0.73445476       0.17192833       0.24685573      -0.73655164       0.20199126       0.24685573      -0.73655164       0.20199126
C        1.23124959       2.11292414       7.45662996       0.36395385      -0.24142326      -0.30033427       0.12885522      -0.07707117       0.12932257       0.13176749      -0.08327495       0.15667377       0.13176749      -0.08327495       0.15667377
C        2.45383396       2.83630120       7.48353297      -0.43709330      -0.32665913      -0.12484593      -0.03831244       0.90468901      -0.09875645      -0.02170474       0.79518899      -0.10297422      -0.02170474       0.79518899      -0.10297422
C        0.02168788       4.21900567       7.53776039      -0.17503455      -0.42842427       0.03827611      -0.86492395       0.90765373       0.09628937      -0.92031378       0.96330288       0.09437543      -0.92031378       0.96330288       0.09437543
C        1.22090316       4.94347578       7.51069412      -0.00558185       0.65180425      -0.39737453       1.06736865       1.01140313       0.07750124       1.10433149       1.02459567       0.05588267       1.10433149       1.02459567       0.05588267
C        4.93867112      -0.02079054       7.52102541      -0.35884807      -0.13397846      -0.30496505      -1.52493867       1.04679820      -0.48500863      -1.43055331       1.02702844      -0.48299818      -1.43055331       1.02702844      -0.48299818
C        6.15361550       0.72740731       7.42960962       0.30611318       0.36790193       0.38871500      -1.40150697       0.20551376       0.38159890      -1.60006023       0.22973115       0.39444528      -1.60006023       0.22973115       0.39444528
C        3.67809727       2.14457285       7.48239151      -0.51805024       0.01288587       0.12584872       0.47017372      -0.66815551       0.22742812       0.44659856      -0.61282655       0.21774004       0.44659856      -0.61282655       0.21774004
C        4.90854756       2.85747211       7.52206588      -0.30675553       0.51615462       0.41945873       0.34340648       0.40610079      -0.08389857       0.34527087       0.40009116      -0.08524287       0.34527087       0.40009116      -0.08524287
C        2.46941862       4.28382937       7.48675343      -0.35161693       0.22097146      -0.13052526       0.02167649      -1.61783650       0.09722744       0.05905875      -1.49673068       0.09914071       0.05905875      -1.49673068       0.09914071
C        3.69994748       4.98890190       7.49894617      -0.16310232      -0.09390146       0.05816661      -0.55650077       0.69362282       0.05204723      -0.57513984       0.60407323       0.04234633      -0.57513984       0.60407323       0.04234633
18
Lattice="7.38 0.0 0.0 -3.69 6.391267479929157 0.0 0.0 -0.0 15.0" Properties=species:S:1:pos:R:3:momenta:R:3:mace_forces:R:3:forces:R:3:REF_forces:R:3 T=600.0 mace_forces_rms=1.4423194961611676 energy=-2791.1840916857705 REF_energy=-2791.1840916857705 pbc="T T T"
C        0.04438473       0.04155434       7.40949373       1.63803599       0.55219034       0.41738592      -2.78816368      -0.29264901       0.35770577      -2.97380836      -0.46902578       0.35205447      -2.97380836      -0.46902578       0.35205447
C        1.21220140       0.76153387       7.45903181       1.08272332      -0.26295644       0.57187610       2.06329324      -1.40489522      -0.59007001       2.21922892      -1.40376962      -0.52099780       2.21922892      -1.40376962      -0.52099780
C       -1.24096467       2.19564142       7.57771189      -0.83301798       1.58091331       0.22320312       1.74030644      -3.90742531       0.12666314       2.02906988      -3.67005796       0.10256002       2.02906988      -3.67005796       0.10256002
C        0.02388857       2.85491402       7.63675679       0.67900259      -0.67477383      -1.10426558       0.02425932      -1.81241888      -1.55812962      -0.02435040      -2.22319691      -1.64778916      -0.02435040      -2.22319691      -1.64778916
C       -2.49155391       4.20479056       7.47599265       0.40166330      -1.40978226       0.72354878       1.11324913       2.86516594       0.84524649       1.19326543       3.28636812       0.73859258       1.19326543       3.28636812       0.73859258
C       -1.27408606       4.91345364       7.60575334       0.02820091       0.30889054      -0.92721705       0.83268378       1.85836504      -1.25405491       0.72037014       1.63516170      -1.31668533       0.72037014       1.63516170      -1.31668533
C        2.40898639      -0.01064647       7.48543392      -0.00065523      -0.77241725       0.92210893       0.82437837      -1.77515337       0.71662968       0.91015098      -1.47622819       0.76872771       0.91015098      -1.47622819       0.76872771
C        3.66039600       0.64324696       7.53422671      -0.16096979       0.52760585      -0.04195182       0.15149379       2.93531335      -0.42773497       0.06224204       2.67818369      -0.38625040       0.06224204       2.67818369      -0.38625040
C        1.28370206       2.13690044       7.41415971      -0.45528123      -1.12491780       0.13958597      -1.80241000       2.06686014       1.46905170      -1.70700244       2.28121822       1.50375751      -1.70700244       2.28121822       1.50375751
C        2.49754314       2.87067674       7.45405509       0.52524246      -0.68421102      -0.30857063       0.65269687      -0.20090420      -0.01853830       0.62582425      -0.37848670       0.02934066       0.62582425      -0.37848670       0.02934066
C       -0.00704936       4.21724883       7.57831398       0.10805389       0.29457817      -1.19869497      -0.94069149       1.64427385       0.44209422      -0.96400813       1.92240715       0.45561542      -0.96400813       1.92240715       0.45561542
C        1.18724408       4.92051380       7.47733584      -0.52994655      -0.23260268      -0.35031399       2.40311477       2.61852951       0.12979938       2.48592534       2.58079108       0.07630469       2.48592534       2.58079108       0.07630469
C        4.89268802      -0.01953834       7.47794810      -1.17252372       2.55050616       1.31928783       0.92555962      -0.95496733       0.18030928       0.91948820      -0.92127177       0.11806326       0.91948820      -0.92127177       0.11806326
C        6.14090721       0.71344931       7.46807857      -1.09290715      -0.40883520       0.43220427      -0.04000081       1.12146100       0.16936703      -0.03557584       0.82620523       0.21923720      -0.03557584       0.82620523       0.21923720
C        3.71541170       2.11105614       7.52276223       0.51264713      -0.08265192      -0.32681544      -1.00641037      -0.62582143      -0.16108705      -1.08929208      -0.46046684      -0.20241035      -1.08929208      -0.46046684      -0.20241035
C        4.93101169       2.84732481       7.56637093       0.15824323       0.27535992      -0.15331815      -1.56028971      -1.58611655      -0.37926052      -1.71515464      -1.82546705      -0.30465001      -1.71515464      -1.82546705      -0.30465001
C        2.49158678       4.32548351       7.45164493      -0.16121085       0.29978213      -1.31437552      -1.02151916      -2.16785856      -0.29124135      -1.07400224      -1.95132460      -0.24714523      -1.07400224      -1.95132460      -0.24714523
C        3.73370224       5.01126878       7.40492979      -0.72730032      -0.73667802       0.97632222      -1.57155009      -0.38175896       0.24325004      -1.58237079      -0.43104056       0.26167428      -1.58237079      -0.43104056       0.26167428
18
Lattice="7.38 0.0 0.0 -3.69 6.391267479929157 0.0 0.0 -0.0 15.0" Properties=species:S:1:pos:R:3:momenta:R:3:mace_forces:R:3:forces:R:3:REF_forces:R:3 T=600.0 mace_forces_rms=1.534282848227436 energy=-2791.133516335604 REF_energy=-2791.133516335604 pbc="T T T"
C       -0.03196572       0.01303066       7.49712255      -0.52268904       0.79707035       0.34043857       2.56898109       0.52545540       0.19886939       2.63576152       0.34466615       0.22868574       2.63576152       0.34466615       0.22868574
C        1.21589697       0.76543640       7.53403694       0.19240307      -0.02874967      -0.00441640      -1.56746675      -1.21423327      -0.19766420      -1.27937656      -1.23839292      -0.28725547      -1.27937656      -1.23839292      -0.28725547
C       -1.21307663       2.11299539       7.54374639       0.58390176       0.04833157       0.01089401       0.54128068      -0.64601938      -0.96310795       0.58854942      -0.69930946      -0.85600457       0.58854942      -0.69930946      -0.85600457
C        0.01150261       2.81866105       7.45261450       0.78788564      -0.84866787      -0.82735327      -1.57461300       1.22142272       0.59125947      -2.09279441       1.52871315       0.66177753      -2.09279441       1.52871315       0.66177753
C       -2.44840705       4.21456424       7.40802241       0.73328182      -0.54563682       1.49872275      -0.95450545       1.65002871       1.47780184      -0.70124088       1.85034041       1.39280129      -0.70124088       1.85034041       1.39280129
C       -1.29801820       4.96330475       7.60702801       0.02575428      -0.71166018      -1.12563466       3.31684318      -1.04617461      -0.76439104       2.64577314      -0.84760838      -0.72931398       2.64577314      -0.84760838      -0.72931398
C        2.37035383      -0.01630288       7.63692001      -1.94962230      -0.16177425      -1.09475898       4.31272978       1.80182387      -0.64264644       3.43082067       1.45469932      -0.63612280       3.43082067       1.45469932      -0.63612280
C        3.70811872       0.70221287       7.55878360      -0.17217522      -1.16348503      -0.51578597      -2.51903094      -0.23231718       0.12071430      -1.76781469       0.12101386       0.14727150      -1.76781469       0.12101386       0.14727150
C        1.19739014       2.18768541       7.41527665       0.85449177      -0.08503765      -0.88346282       3.35518906      -1.64775735       1.05478176       3.93901052      -1.94989970       0.92903573       3.93901052      -1.94989970       0.92903573
C        2.46966126       2.88045675       7.50412408       0.28907482      -0.82471370       0.43377571       0.53844655      -0.55047766      -0.74151558       0.45566067      -0.41757286      -0.72931449       0.45566067      -0.41757286      -0.72931449
C        0.00308639       4.21503812       7.55593469       0.58366962       0.39956641       0.65456190      -1.95963020       2.44588958      -0.83927123      -1.34458334       2.22465807      -0.74069625      -1.34458334       2.22465807      -0.74069625
C        1.20751561       4.93427480       7.41890279      -1.13349501       0.38533438       1.58058174       1.95034164       1.45996817       0.78709313       1.82588716       1.32763257       0.76207909       1.82588716       1.32763257       0.76207909
C        4.94144215      -0.00644483       7.45928692      -0.88987345       0.78884107      -0.86714311      -2.11634996      -1.00678320       0.47751822      -2.14742701      -0.83262862       0.38637664      -2.14742701      -0.83262862       0.38637664
C        6.14917384       0.69846158       7.50436058       0.20437798       0.59094694      -0.81165748      -0.28891099       0.30172412      -0.17234688      -0.51473485       0.38000828      -0.07587788      -0.51473485       0.38000828      -0.07587788
C        3.70881985       2.14729190       7.53465867      -0.16921004       0.19676017       0.17835292      -0.23074563      -1.42622719      -0.31730325      -0.11759609      -1.43757371      -0.28881253      -0.11759609      -1.43757371      -0.28881253
C        4.98668514       2.80808340       7.45381158       0.26959938       1.84054358       0.88864660      -2.83694967       0.61824954       0.47128639      -2.95516967       0.56194905       0.37998205      -2.95516967       0.56194905       0.37998205
C        2.52065564       4.30059495       7.43009210      -1.29504742      -0.11983978       0.25711254      -3.07714934      -1.17229495       0.26457134      -3.28942233      -1.42292974       0.28661887      -3.28942233      -1.42292974       0.28661887
C        3.71116544       4.99952778       7.48527751       1.60767234      -0.55782951       0.28712594       0.54153995      -1.08227732      -0.80564927       0.68869595      -0.94776545      -0.83123020       0.68869595      -0.94776545      -0.83123020
18
Lattice="7.38 0.0 0.0 -3.69 6.391267479929157 0.0 0.0 -0.0 15.0" Properties=species:S:1:pos:R:3:momenta:R:3:mace_forces:R:3:forces:R:3:REF_forces:R:3 T=100.0 mace_forces_rms=0.6780295757352133 energy=-2792.0999133952146 REF_energy=-2792.0999133952146 pbc="T T T"
C        0.01940263      -0.00266978       7.50006333       0.16892904      -0.03689646       0.09357831      -0.56652750      -0.31883590       0.38308548      -0.52308528      -0.24275070       0.39081025      -0.52308528      -0.24275070       0.39081025
C        1.24206546       0.73015128       7.57288962       0.16514561      -0.35299669       0.22571419      -1.31169979       0.31949908      -0.66580928      -1.37930017       0.25038302      -0.64594802      -1.37930017       0.25038302      -0.64594802
C       -1.21679394       2.11069796       7.45341719      -0.18426967       0.32012479       0.12307422      -0.63079851       1.12787350       0.13456770      -0.63235382       1.09860230       0.12035360      -0.63235382       1.09860230       0.12035360
C        0.00032969       2.86231203       7.48853943      -0.04305852      -0.20892457       0.13394510      -0.20837355      -0.11275093      -0.06162122      -0.14335726      -0.14975185      -0.06574928      -0.14335726      -0.14975185      -0.06574928
C       -2.45874852       4.25896935       7.49288821      -0.03807151      -0.12715147       0.31009844       0.10572219      -0.78200275      -0.55763606       0.12931466      -0.76375391      -0.54499905       0.12931466      -0.76375391      -0.54499905
C       -1.25325095       4.98556192       7.44454725      -0.08486820      -0.59110148       0.02204645       0.84247608       0.16230332       0.20716582       0.83980200       0.16233637       0.20333672       0.83980200       0.16233637       0.20333672
C        2.43484216       0.02234317       7.48861785       0.05852249       0.38896577      -0.12739386       1.23242959      -0.97683002       0.44460683       1.24219661      -1.00195145       0.39635844       1.24219661      -1.00195145       0.39635844
C        3.69617099       0.68817401       7.51712942      -0.20188874      -0.27222202      -0.30989780      -1.04466515       0.87368399      -0.16939341      -1.09922682       0.89366224      -0.15957603      -1.09922682       0.89366224      -0.15957603
C        1.22736620       2.16522271       7.56675365      -0.29929115       0.65840943       0.28064682      -0.13559469      -1.42135094      -0.11869009      -0.24888356      -1.33689214      -0.08626951      -0.24888356      -1.33689214      -0.08626951
C        2.46463232       2.80885274       7.55289433       0.51992164      -0.19069519      -0.19230151      -0.03417438       1.93543857      -0.01482716       0.01728424       1.91938482      -0.04142690       0.01728424       1.91938482      -0.04142690
C       -0.00342006       4.28830556       7.44506531       0.29681086      -0.00157207       0.06452386      -0.42724364      -0.47373170       0.29835471      -0.37963855      -0.44923703       0.30806212      -0.37963855      -0.44923703       0.30806212
C        1.23484603       4.98064256       7.49862849       0.28724989      -0.36149970      -0.39512500      -0.16825675      -0.57446336      -0.21715655      -0.16660697      -0.64429274      -0.21956090      -0.16660697      -0.64429274      -0.21956090
C        4.89807570      -0.00200989       7.49263825      -0.30438410       0.23992386       0.21842189       1.74731114      -0.09564586       0.03820439       1.76446814      -0.08126152       0.05456755       1.76446814      -0.08126152       0.05456755
C        6.15371165       0.70113276       7.49291376      -0.39771459      -0.11706734      -0.05182134       0.06639814      -0.30418951      -0.12659908       0.09675344      -0.29788930      -0.13291549       0.09675344      -0.29788930      -0.13291549
C        3.68891238       2.10914618       7.53401212       0.21471857       0.14591459      -0.43629807       0.50848864       0.15508274      -0.34720128       0.57192673       0.21718340      -0.38045693       0.57192673       0.21718340      -0.38045693
C        4.91498682       2.83296240       7.43957247      -0.07776284       0.42410411      -0.18372731       0.57898815      -0.43590550       0.67301734       0.51101138      -0.49533125       0.70956457       0.51101138      -0.49533125       0.70956457
C        2.46024344       4.25224089       7.51793828       0.39951913      -0.28025571       0.21684811       0.40458591      -0.31315555       0.00673281       0.36535839      -0.27574336      -0.00438784       0.36535839      -0.27574336      -0.00438784
C        3.70662800       4.94683651       7.50149102      -0.47950790       0.36294014       0.00766749      -0.95906586       1.23498081       0.09319905      -0.96566341       1.19730284       0.09823645      -0.96566341       1.19730284       0.09823645
18
Lattice="7.38 0.0 0.0 -3.69 6.391267479929157 0.0 0.0 -0.0 15.0" Properties=species:S:1:pos:R:3:momenta:R:3:mace_forces:R:3:forces:R:3:REF_forces:R:3 T=100.0 mace_forces_rms=0.6793224931753198 energy=-2792.1373845592525 REF_energy=-2792.1373845592525 pbc="T T T"
C       -0.00742385       0.02759934       7.44018710       0.30780557       0.29462841       0.53855519      -0.10262286      -0.67319279       0.38877426      -0.12710531      -0.62003978       0.37332958      -0.12710531      -0.62003978       0.37332958
C        1.24432386       0.67216327       7.46279879       0.20175644       0.11492977       0.11048403      -0.68426225       2.54960954      -0.20308492      -0.76539787       2.48236796      -0.21069985      -0.76539787       2.48236796      -0.21069985
C       -1.23525584       2.14453861       7.51121563      -0.42700787       0.46460490      -0.01684227      -0.35515292      -0.48356780      -0.15074494      -0.38640312      -0.41334083      -0.14915587      -0.38640312      -0.41334083      -0.14915587
C        0.00816266       2.81518240       7.49420472       0.21938483      -0.38742807      -0.34195779      -0.13243929       1.01589382      -0.21893287      -0.11571404       0.96039908      -0.20150301      -0.11571404       0.96039908      -0.20150301
C       -2.44702936       4.27603074       7.51041268       0.19346842       0.06692160      -0.73393361      -1.17145288       0.03402915      -0.36844960      -1.10210337       0.04879054      -0.37321079      -1.10210337       0.04879054      -0.37321079
C       -1.21680753       4.96546746       7.50179807       0.26367694      -0.09527049      -0.28182653      -0.04217586       0.28755570      -0.05426092      -0.03497394       0.20727539      -0.06198544      -0.03497394       0.20727539      -0.06198544
C        2.46253102       0.00845765       7.48911052       0.63037016      -0.23098480       0.29140813       0.28969530      -1.71939508       0.31618080       0.35790527      -1.68264689       0.30559284       0.35790527      -1.68264689       0.30559284
C        3.68303520       0.69135099       7.56026904      -0.67811612       0.10281859      -0.10723870       0.37158192       1.13501523      -0.39557122       0.39648005       1.10134258      -0.38528701       0.39648005       1.10134258      -0.38528701
C        1.23358888       2.11895749       7.45839560       0.37348665      -0.31453641       0.09853143       0.65019371      -0.51099823       0.37601542       0.63632952      -0.41376763       0.40942067       0.63632952      -0.41376763       0.40942067
C        2.47843305       2.84189392       7.49789314      -0.24961264       0.05047415       0.43992003      -1.39476359      -0.02391199      -0.08090728      -1.42177557      -0.01325249      -0.10170744      -1.42177557      -0.01325249      -0.10170744
C        0.00847004       4.25078324       7.49441269       0.04278361       0.05265371       0.16832019      -0.40072294      -0.55288883       0.26231769      -0.42593898      -0.53778814       0.23963324      -0.42593898      -0.53778814       0.23963324
C        1.22108788       4.95064134       7.52201947      -0.16623675       0.45872302      -0.20253080       0.64117307       0.92880337      -0.07819957       0.68935467       0.87651992      -0.07815357       0.68935467       0.87651992      -0.07815357
C        4.91679586      -0.00568560       7.55610536      -0.00570684       0.51677037      -0.24274241      -0.07763220      -0.22555934      -0.25505081      -0.05893328      -0.16347100      -0.26378824      -0.05893328      -0.16347100      -0.26378824
C        6.13538851       0.72719441       7.49919659      -0.26791372      -0.73224684      -0.13356465       0.17332990      -0.20807563       0.05743960       0.15253481      -0.26990798       0.05034349       0.15253481      -0.26990798       0.05034349
C        3.67338754       2.12579611       7.52486519      -0.07294301       0.14923937       0.22584077       1.26438086      -0.21514910      -0.01002033       1.29682895      -0.22496073      -0.01878011       1.29682895      -0.22496073      -0.01878011
C        4.90873563       2.84782981       7.50371324       0.04021008       0.17060238      -0.01262441       0.12283319       0.18877076       0.33900196       0.14317394       0.15159044       0.34509090       0.14317394       0.15159044       0.34509090
C        2.45962543       4.26679645       7.50230750      -0.21415286      -0.62865910       0.33286943       0.49367434       0.04731646      -0.10460495       0.47329433       0.12176128      -0.10877746       0.47329433       0.12176128      -0.10877746
C        3.68295103       5.01387473       7.47109467      -0.19125288      -0.05324056      -0.13266805       0.35436250      -1.57425525       0.18009767       0.29244422      -1.61087146       0.22963808       0.29244422      -1.61087146       0.22963808
18
Lattice="7.38 0.0 0.0 -3.69 6.391267479929157 0.0 0.0 -0.0 15.0" Properties=species:S:1:pos:R:3:momenta:R:3:mace_forces:R:3:forces:R:3:REF_forces:R:3 T=300.0 mace_forces_rms=1.090711595547867 energy=-2791.7065546098106 REF_energy=-2791.7065546098106 pbc="T T T"
C        0.01102832       0.03231259       7.56697522       0.01037248      -0.47068061       0.54859349       0.70807183      -0.19165539      -0.46017011       0.70982990      -0.13228789      -0.46304154       0.70982990      -0.13228789      -0.46304154
C        1.26717934       0.71616480       7.51148661       0.09772215      -0.11507301      -0.48496227      -1.15115622      -0.13669712       0.25601631      -1.30396325      -0.11074358       0.27409297      -1.30396325      -0.11074358       0.27409297
C       -1.23857461       2.14587637       7.46471148      -0.31298783      -0.94903013      -0.20941952      -0.92216136       0.42120727       0.56947470      -0.86073875       0.33219244       0.60419202      -0.86073875       0.33219244       0.60419202
C       -0.01395710       2.86450054       7.47739571       0.40573118      -0.47868078      -0.49567665      -1.20843682      -0.52093239      -0.20039985      -1.34974303      -0.53587961      -0.21290225      -1.34974303      -0.53587961      -0.21290225
C       -2.43926049       4.29326452       7.59503385      -0.54238568      -0.82284873       0.48489807      -1.68231851      -0.47464526      -0.75341522      -1.70278712      -0.60465661      -0.77032642      -1.70278712      -0.60465661      -0.77032642
C       -1.19899014       4.96703590       7.51185525      -0.25599413      -0.31955467      -1.15146937      -1.14658957      -0.47449210       0.38422731      -1.22015789      -0.61562674       0.38608714      -1.22015789      -0.61562674       0.38608714
C        2.49749214      -0.05066436       7.51801245      -0.89894365       0.16115454      -0.15947019      -1.26672196       3.02194589      -0.62844014      -1.07105036       3.19994743      -0.64256496      -1.07105036       3.19994743      -0.64256496
C        3.69646066       0.69191561       7.42450006      -0.37342320       0.31835689       0.47927406       0.52870163      -0.22490829       0.74453548       0.54229014      -0.30832669       0.74117088       0.54229014      -0.30832669       0.74117088
C        1.16956435       2.15991458       7.47035943       0.34064873       0.50591159      -0.35236491       2.61183019      -2.36157712      -0.06237273       2.73004130      -2.41248795      -0.02942242       2.73004130      -2.41248795      -0.02942242
C        2.43482599       2.78754850       7.45005922       1.15128328      -0.41714925      -0.35198947      -0.00646389       2.46463333       0.43425597      -0.05393403       2.49916138       0.43690190      -0.05393403       2.49916138       0.43690190
C       -0.01229003       4.26182885       7.46393430      -0.27512361       0.33233499       0.14427298       1.34369214      -0.23951310       0.22604064       1.44764087      -0.20500922       0.20239724       1.44764087      -0.20500922       0.20239724
C        1.23468344       4.93289668       7.48672179      -0.64542421       0.28691511       0.85706479       0.53984155       0.93655531       0.02335886       0.51387045       0.97835463       0.04413684       0.51387045       0.97835463       0.04413684
C        4.92180256      -0.02420151       7.49131174       1.08632103       0.55687985       0.69606278       1.47690116       0.76334330      -0.28717687       1.18257067       0.62815675      -0.25891986       1.18257067       0.62815675      -0.25891986
C        6.18336095       0.73309486       7.51053847       0.93833324       0.88109105      -0.28599478      -2.30478762      -0.63726071      -0.08999558      -2.06276830      -0.45155951      -0.12075443      -2.06276830      -0.45155951      -0.12075443
C        3.64758903       2.11725215       7.46541905       0.25551051       1.18516151       0.77243422       1.60979059      -0.31399861      -0.08316700       1.65513018      -0.35544678      -0.05337739       1.65513018      -0.35544678      -0.05337739
C        4.88190484       2.86781274       7.52830126      -0.63573110       0.22181435       0.20606309       0.78164078      -0.80192994      -0.27981939       0.75709372      -0.65311317      -0.31497119       0.75709372      -0.65311317      -0.31497119
C        2.48442578       4.22378169       7.51379209      -0.64168113      -0.26709871       0.04452702      -0.79268255       0.94126569      -0.25305572      -0.76099434       0.93295486      -0.26287833      -0.76099434       0.93295486      -0.26287833
C        3.68275498       5.01853786       7.54959202       0.29577193      -0.60950398      -0.74184334       0.88084861      -2.17134076       0.46010333       0.84766983      -2.18562975       0.44017980       0.84766983      -2.18562975       0.44017980
18
Lattice="7.38 0.0 0.0 -3.69 6.391267479929157 0.0 0.0 -0.0 15.0" Properties=species:S:1:pos:R:3:momenta:R:3:mace_forces:R:3:forces:R:3:REF_forces:R:3 T=600.0 mace_forces_rms=1.6185026548662602 energy=-2791.1600346455225 REF_energy=-2791.1600346455225 pbc="T T T"
C        0.04788725       0.03327644       7.53675104      -0.82609348       0.73075105       1.39258732      -2.29172527      -2.21099349      -0.27326638      -2.46430391      -2.06492777      -0.28381174      -2.46430391      -2.06492777      -0.28381174
C        1.24193740       0.72361307       7.49250670      -0.46822339       1.00505293       1.07963874       0.71756327       0.44800444       0.65031191       0.78112865       0.49219836       0.62741268       0.78112865       0.49219836       0.62741268
C       -1.30226953       2.15069328       7.63706598       0.70600743      -0.18358918      -0.08094812       1.93641825      -2.26578497      -1.32682454       2.17794704      -2.28032219      -1.13623554       2.17794704      -2.28032219      -1.13623554
C       -0.08703823       2.82148379       7.47755583       0.94341021       0.24311914      -0.75696750       3.02635049       2.47295225       0.66866399       3.07780255       2.01356433       0.61008961       3.07780255       2.01356433       0.61008961
C       -2.46996880       4.22547970       7.39677627      -0.35730455      -0.17079491      -0.75842307       1.49339149       2.63410365       0.18410726       1.08555087       2.62325799       0.18501684       1.08555087       2.62325799       0.18501684
C       -1.22440599       5.02597504       7.43182381       0.50247018       0.12764910      -1.18566174       0.61819759      -2.51987888       0.54045163       0.73933743      -2.19488752       0.53270892       0.73933743      -2.19488752       0.53270892
C        2.48916011       0.02899171       7.54491746      -0.81437578      -1.46485010       0.66688522      -0.36706787      -0.47179514      -0.68907798      -0.34262649      -0.62415509      -0.65392384      -0.34262649      -0.62415509      -0.65392384
C        3.75860685       0.68913335       7.59402752       0.43402265      -1.29055099       1.42643894      -3.93543270       1.57505144      -0.10046247      -4.51748945       1.91695950      -0.18232104      -4.51748945       1.91695950      -0.18232104
C        1.17907833       2.12802339       7.49562682      -0.66223345       0.85468411      -1.31234489       0.22240533       0.68118221      -0.60904402       0.08558508       0.75840576      -0.61159011       0.08558508       0.75840576      -0.61159011
C        2.44511959       2.81715981       7.39380354       0.24434427       0.68936352       0.13561220      -1.17600635       0.38033087       0.68767657      -1.13589898       0.43533302       0.64970826      -1.13589898       0.43533302       0.64970826
C        0.05795022       4.30459981       7.45743240      -1.66131106       0.09680370      -0.09326718      -3.64126018      -2.63163621      -0.17914174      -3.62358116      -2.35295611      -0.18499293      -3.62358116      -2.35295611      -0.18499293
C        1.28210426       4.92922471       7.48390558       0.19781055      -0.81905382      -0.13437338      -1.01951473       2.78343365       0.23810689      -1.02173017       2.62122296       0.36030386      -1.02173017       2.62122296       0.36030386
C        4.90925484       0.01059995       7.62577404       1.39877129      -0.01064854      -0.80464835       3.43762922      -2.74190396      -0.55234360       3.96599168      -2.87042225      -0.61946257       3.96599168      -2.87042225      -0.61946257
C        6.15425073       0.69530197       7.62180761       0.17952974      -0.70397026       0.89540939      -0.01751063       1.35384280       0.22213459       0.09100780       1.28398269       0.15562399       0.09100780       1.28398269       0.15562399
C        3.63686409       2.11466667       7.50059629      -0.49591419       0.70787938       0.00299574       2.84662346      -0.04057121      -0.19929115       2.86016509      -0.05492853      -0.13512304       2.86016509      -0.05492853      -0.13512304
C        4.90246433       2.82947068       7.46950189       0.61638390      -0.37859065      -0.40306484      -2.44981059       0.14526660       0.56552090      -2.60130591       0.20671489       0.44642656      -2.60130591       0.20671489       0.44642656
C        2.48879645       4.24481355       7.40892784       0.91564856       0.87780449      -0.16905611       0.00130719      -0.17327905       0.12486957       0.13782347      -0.25408464       0.14938264       0.13782347      -0.25408464       0.14938264
C        3.70020811       4.96636545       7.43119938      -0.85294289      -0.31105897       0.09918763       0.59844204       0.58167498       0.04760857       0.70459668       0.34504513       0.09078720       0.70459668       0.34504513       0.09078720
18
Lattice="7.38 0.0 0.0 -3.69 6.391267479929157 0.0 0.0 -0.0 15.0" Properties=species:S:1:pos:R:3:momenta:R:3:mace_forces:R:3:forces:R:3:REF_forces:R:3 T=300.0 mace_forces_rms=1.2623979372025584 energy=-2791.616303293228 REF_energy=-2791.616303293228 pbc="T T T"
C        0.03464200      -0.00162787       7.56803283      -0.92670064      -0.02399177       0.76455646      -1.70332993       1.90823819      -0.56371862      -1.27676689       1.71759564      -0.63603693      -1.27676689       1.71759564      -0.63603693
C        1.26870018       0.72240200       7.55557026       0.77552325       1.00509806      -0.45262737      -1.32938100      -0.78762774      -0.45705949      -1.31729365      -0.97190888      -0.42930121      -1.31729365      -0.97190888      -0.42930121
C       -1.21689147       2.09823738       7.42349223      -0.31804810      -0.19061787       0.16173518      -0.09607526       2.20396249       0.91198178      -0.20008968       2.56020348       0.86517596      -0.20008968       2.56020348       0.86517596
C        0.02979787       2.82147604       7.48128522      -0.28551349       0.69582990      -0.63739723      -1.54235477      -0.30901767      -0.33484363      -1.54052582      -0.22426807      -0.35889258      -1.54052582      -0.22426807      -0.35889258
C       -2.46083197       4.28294478       7.49845081      -0.24104401       0.49483757       0.01453280       0.78796828      -2.14941916      -0.18868408       0.78045785      -1.85043837      -0.13233648       0.78045785      -1.85043837      -0.13233648
C       -1.19654613       4.94604411       7.41501180       0.45340085       0.10366607       0.33604920      -1.80480981      -0.02084268       0.40070279      -1.96700036       0.11797507       0.37323213      -1.96700036       0.11797507       0.37323213
C        2.45641820      -0.03815549       7.45676938      -1.24318489      -0.08411322      -0.48253791       1.13259296       1.58694895       0.40518368       0.97908020       1.48233379       0.40289187       0.97908020       1.48233379       0.40289187
C        3.67430220       0.72303494       7.49823538       0.79310974       0.25341984       0.14980165      -0.16678149      -0.65163345      -0.20074778       0.02913626      -0.63281302      -0.22031706       0.02913626      -0.63281302      -0.22031706
C        1.23966751       2.16138099       7.53824302      -0.20424156       0.51982377       0.42275650      -0.19125378      -1.98423164      -0.36620713      -0.31472745      -2.05673700      -0.24808163      -0.31472745      -2.05673700      -0.24808163
C        2.41091283       2.87192914       7.48588295       0.37736900      -0.70295429       0.06909123       3.21286764      -0.18081336       0.65060497       3.24595346       0.22920870       0.57529205       3.24595346       0.22920870       0.57529205
C        0.01112946       4.21364454       7.42729912       0.80809018       0.14279209      -0.06879734      -0.62298182       1.13649636       0.32159783      -0.48980158       1.14002354       0.27363814      -0.48980158       1.14002354       0.27363814
C        1.17765960       4.97251452       7.50526088      -0.35707098      -0.42026277      -0.46237490       2.72555518      -0.24159413       0.52952377       2.62543546      -0.26398879       0.61246403       2.62543546      -0.26398879       0.61246403
C        4.88808338      -0.00474781       7.56042106      -0.33783419      -0.63509911      -0.02133134       0.84149769       1.23347386      -0.93738516       0.63472644       1.31124539      -0.92915632       0.63472644       1.31124539      -0.92915632
C        6.13662700       0.75109315       7.48349300       0.15564846      -1.28924288       0.69398365       1.07265699      -4.13314456       0.69469806       0.77090466      -4.34779278       0.80495378       0.77090466      -4.34779278       0.80495378
C        3.67527612       2.14097694       7.47004615       0.06644153      -1.72811752       0.36255653      -0.20474368       0.24689689       0.52941410       0.09003412       0.16573151       0.52849257       0.09003412       0.16573151       0.52849257
C        4.93599841       2.81547694       7.51885334       0.44399683       0.80454650      -0.33451186      -1.09569257       1.81286162      -0.92276169      -1.15738517       1.50760799      -0.92063671      -1.15738517       1.50760799      -0.92063671
C        2.45211712       4.27493056       7.58120573       0.23722958       0.11526412      -0.13522140      -0.99696079       0.81057089      -1.00588316      -1.01512784       0.54766503      -1.06797840      -1.01512784       0.54766503      -1.06797840
C        3.69293769       4.98731752       7.53244685      -0.19717155       0.93912152      -0.38026384      -0.01877385      -0.48112487       0.53358375       0.12298975      -0.43164348       0.50659654       0.12298975      -0.43164348       0.50659654
18
Lattice="7.38 0.0 0.0 -3.69 6.391267479929157 0.0 0.0 -0.0 15.0" Properties=species:S:1:pos:R:3:momenta:R:3:mace_forces:R:3:forces:R:3:REF_forces:R:3 T=100.0 mace_forces_rms=0.6048061014136115 energy=-2792.1373195240453 REF_energy=-2792.1373195240453 pbc="T T T"
C        0.01428111      -0.00633744       7.55833880      -0.01904399      -0.04453834       0.21944294      -0.50465096      -0.34086159      -0.13979422      -0.45875731      -0.26054197      -0.14853546      -0.45875731      -0.26054197      -0.14853546
C        1.24704533       0.68896301       7.53840244      -0.12179938       0.12907457       0.69682372      -0.34431829       0.89875689      -0.00590122      -0.39235086       0.84307090      -0.00529673      -0.39235086       0.84307090      -0.00529673
C       -1.22390372       2.13110709       7.47007107       0.29873656      -0.24424336      -0.40151546      -0.03552208       0.90764508       0.27537429       0.02137050       0.90705434       0.23790520       0.02137050       0.90705434       0.23790520
C        0.00027942       2.85513024       7.42095465       0.08009235       0.12793074       0.22931393       0.61587632      -0.80427836       0.92932674       0.59831627      -0.86532071       0.97644045       0.59831627      -0.86532071       0.97644045
C       -2.47253718       4.25757115       7.48360402       0.40823255      -0.35870500      -0.06296734       0.23402544       0.01178199       0.02763997       0.21312440       0.03526088       0.05067593       0.21312440       0.03526088       0.05067593
C       -1.23880963       4.97864412       7.45304074      -0.05952720      -0.51742354      -0.34294822       0.03064400      -0.29030291       0.09293151       0.03124585      -0.29720641       0.10876821       0.03124585      -0.29720641       0.10876821
C        2.48107418       0.00450291       7.47645711       0.11235986      -0.17073417       0.32352069      -0.82749402      -0.63170102       0.31629233      -0.83857918      -0.63707180       0.28287046      -0.83857918      -0.63707180       0.28287046
C        3.68804711       0.71030909       7.50762479       0.31220514      -0.45101672      -0.13753470       0.81135666       0.66983948      -0.08163025       0.83675884       0.63872527      -0.08148752       0.83675884       0.63872527      -0.08148752
C        1.24848497       2.12365021       7.54867127       0.09630826       0.52877690       0.42571918      -1.30845408      -0.28644032      -0.85313749      -1.34623064      -0.25018711      -0.88667938      -1.34623064      -0.25018711      -0.88667938
C        2.46262465       2.81609634       7.50705721      -0.94410882      -0.48684818      -0.37031131      -0.15698860       1.40893054       0.21665398      -0.16271303       1.39712794       0.20761915      -0.16271303       1.39712794       0.20761915
C       -0.00644831       4.27170493       7.44975732      -0.18364561       0.93882633       0.00236574      -0.45903613      -0.27869213      -0.35222770      -0.44919435      -0.25049692      -0.33570277      -0.44919435      -0.25049692      -0.33570277
C        1.20716196       4.97212878       7.46984707       0.43001706       0.20540130      -0.36973752       1.05674988       0.87800733       0.31452302       1.02915115       0.84011001       0.34577712       1.02915115       0.84011001       0.34577712
C        4.92306116       0.02421043       7.52003750       0.34734098       0.10641322      -0.09223076       0.28423179      -0.91254482      -0.01358781       0.27163782      -0.86129102      -0.00480513       0.27163782      -0.86129102      -0.00480513
C        6.17007911       0.73530634       7.56202695      -0.19069743       0.33723151      -0.48860293      -0.39715558      -1.35080656      -0.46461453      -0.38786274      -1.33568912      -0.44887425      -0.38786274      -1.33568912      -0.44887425
C        3.69223383       2.13874306       7.51538790      -0.13193672       0.13067538      -0.06187795      -0.04646791      -0.77781427       0.03649903       0.01001933      -0.73115540       0.05980180       0.01001933      -0.73115540       0.05980180
C        4.91115928       2.83882291       7.49850095      -0.08509572       0.12914625      -0.05405794       0.67085375       0.09746843      -0.24791528       0.60359475       0.07966717      -0.26150562       0.60359475       0.07966717      -0.26150562
C        2.43808608       4.25436827       7.49775714      -0.27933296       0.14258017       0.54364584       0.00143222      -0.47002696      -0.00510702       0.04692520      -0.44418944      -0.03266329       0.04692520      -0.44418944      -0.03266329
C        3.66808064       4.94395093       7.52246308      -0.07010496      -0.50254706      -0.05904791       0.37491760       1.27103919      -0.04532538       0.37354427       1.19213338      -0.06430843       0.37354427       1.19213338      -0.06430843
18
Lattice="7.38 0.0 0.0 -3.69 6.391267479929157 0.0 0.0 -0.0 15.0" Properties=species:S:1:pos:R:3:momenta:R:3:mace_forces:R:3:forces:R:3:REF_forces:R:3 T=300.0 mace_forces_rms=1.045753044934864 energy=-2791.651348970566 REF_energy=-2791.651348970566 pbc="T T T"
C       -0.04031433       0.01435783       7.36707974      -0.08432380       1.80816151      -0.20463472       1.50922619      -1.30704432       0.94816830       1.70611978      -1.16132719       0.95429348       1.70611978      -1.16132719       0.95429348
C        1.18320845       0.69814124       7.57292664       0.84436492       0.57200632       0.63805779       2.30754722       0.76375027      -0.32620049       2.05835269       0.74569962      -0.28081640       2.05835269       0.74569962      -0.28081640
C       -1.23637912       2.09904267       7.53389048       0.10104331       1.02431282       0.09487013       0.46631838       1.04245098      -1.20713704       0.44362354       0.94705968      -1.17600742       0.44362354       0.94705968      -1.17600742
C        0.01509238       2.82398502       7.47343153       0.52109637      -0.12521163      -0.33034652      -0.53711061      -0.01295329       1.26820964      -0.46882164      -0.06743412       1.26593381      -0.46882164      -0.06743412       1.26593381
C       -2.46751267       4.25500384       7.48471920      -0.87090201      -0.08139416       0.91223895       1.88948426      -0.02064597       0.22392554       1.94693907      -0.12596400       0.27829364       1.94693907      -0.12596400       0.27829364
C       -1.20751263       4.95484271       7.59757173       0.16806722       0.45564440      -0.27825398      -0.98617422       1.34537385      -0.33284412      -0.92168340       1.19784174      -0.37481028      -0.92168340       1.19784174      -0.37481028
C        2.46857534       0.01987768       7.64757154      -0.06660716      -1.18155683       0.47811348      -1.31276060      -1.67855256      -0.81246963      -1.13987776      -1.54892819      -0.82441086      -1.13987776      -1.54892819      -0.82441086
C        3.69292209       0.72234121       7.52010988       1.39387098      -0.20675359      -0.59359567      -0.72799012      -0.82097476       0.14911040      -0.79408290      -1.03071515       0.11696437      -0.79408290      -1.03071515       0.11696437
C        1.24975554       2.12058864       7.57815564      -0.23701702      -0.28031857       0.30819836      -0.49787901       0.98956506      -0.89567093      -0.64123390       0.93715965      -0.97466741      -0.64123390       0.93715965      -0.97466741
C        2.48191623       2.88751249       7.49514101      -0.37717022       0.30841837      -1.06648461      -1.15736460      -1.72548206       0.61132043      -0.98132374      -1.74016067       0.65508109      -0.98132374      -1.74016067       0.65508109
C        0.01072317       4.26004406       7.55069131      -0.38829954       0.75516167      -0.65431415       0.07775269      -0.81702128      -0.06687433      -0.03873470      -0.79168534      -0.13940187      -0.03873470      -0.79168534      -0.13940187
C        1.22910715       4.98561969       7.52186823      -0.04181687      -0.35115701      -0.33519931       0.37826149      -0.59470698      -0.54393222       0.42338639      -0.51016189      -0.48288943       0.42338639      -0.51016189      -0.48288943
C        4.91219500      -0.01254340       7.41267677      -1.08445145      -0.51118351      -0.06261127      -0.97150432       0.48807188       0.72236574      -1.18812811       0.35654979       0.72075066      -1.18812811       0.35654979       0.72075066
C        6.11334172       0.67742066       7.38444516       0.23077442      -0.37116086      -0.18321100       0.79016802       1.32559426       0.34571189       0.95472054       1.52380003       0.38468588       0.95472054       1.52380003       0.38468588
C        3.66335568       2.11098493       7.48008154      -0.90188271      -0.79604291       0.72746255       2.07932688       2.25855360       0.10935747       1.81959670       2.36255327       0.05065793       1.81959670       2.36255327       0.05065793
C        4.93201048       2.83836054       7.49368036       0.47537739       0.13745683       0.44458519      -1.20942936      -0.90119218       0.02238242      -1.04674212      -0.79800023       0.03303533      -1.04674212      -0.79800023       0.03303533
C        2.48209966       4.30962676       7.48787636      -0.01172339      -1.83294724      -0.07329433      -0.34972571      -1.36297852      -0.51469267      -0.26604361      -1.29941805      -0.42420374      -0.26604361      -1.29941805      -0.42420374
C        3.72741586       4.97366579       7.39808286       0.32959957       0.67656439       0.17841910      -1.74814655       1.02819200       0.29926962      -1.86606708       1.00313107       0.21751147      -1.86606708       1.00313107       0.21751147
18
Lattice="7.38 0.0 0.0 -3.69 6.391267479929157 0.0 0.0 -0.0 15.0" Properties=species:S:1:pos:R:3:momenta:R:3:mace_forces:R:3:forces:R:3:REF_forces:R:3 T=600.0 mace_forces_rms=1.4508317202454244 energy=-2791.2174335223067 REF_energy=-2791.2174335223067 pbc="T T T"
C        0.02207167      -0.02557375       7.47252911       1.80004959      -0.22688205       0.89731179      -0.17861454       1.66831889       0.14647699      -0.07998805       1.64576313       0.09722832      -0.07998805       1.64576313       0.09722832
C        1.20309182       0.72282982       7.36508989      -0.57093948       1.07018193      -0.00753847       1.91243154      -0.71404166       0.98462660       1.97210169      -0.63856689       0.96333322       1.97210169      -0.63856689       0.96333322
C       -1.26423338       2.13040869       7.47875238       0.45916494       0.17065161      -0.12953663       0.77307717      -0.84997769       0.35059136       0.71538451      -0.76686469       0.36346965       0.71538451      -0.76686469       0.36346965
C       -0.06236520       2.85602496       7.57196251       0.21116956       0.38631052       0.72223446       0.22076956      -0.46083542      -0.52028341       0.18589821      -0.40297645      -0.44763652       0.18589821      -0.40297645      -0.44763652
C       -2.45502364       4.28776669       7.48967210      -0.79271529       0.12999193      -2.12502216      -0.82170485      -1.62714870      -0.42940855      -0.65343507      -1.42385816      -0.43550528      -0.65343507      -1.42385816      -0.43550528
C       -1.21236857       4.96316427       7.45274612       0.41053188      -0.28664257       0.09452708      -1.20161297       1.57063761       0.39716295      -1.38931411       1.53516765       0.34391539      -1.38931411       1.53516765       0.34391539
C        2.46289293       0.01023708       7.41441184      -0.30789679       0.55895156       0.90586080       1.68592700       1.02095238      -0.15900377       1.22524687       0.89195297      -0.09187709       1.22524687       0.89195297      -0.09187709
C        3.76818128       0.73038095       7.45503066      -1.20124985      -1.32657103       0.47284654      -2.16515927      -2.13414063      -0.08048143      -1.91871839      -1.70698984      -0.02190837      -1.91871839      -1.70698984      -0.02190837
C        1.14888763       2.14400401       7.51296185      -0.26926824       0.73831687      -0.19302093       1.61122672      -0.15244567      -0.44115701       1.74763975      -0.18073390      -0.45593218       1.74763975      -0.18073390      -0.45593218
C        2.37462444       2.85037731       7.50097848      -0.70209531       1.00372466      -0.22509192       3.59125340      -0.63766374       0.31627180       3.05340278      -0.46917748       0.29127642       3.05340278      -0.46917748       0.29127642
C       -0.02501872       4.24803987       7.55964782      -1.21207762      -0.36878620      -0.90855015       2.30070428       0.68711297      -0.01684690       2.15068434       0.48753232       0.00787272       2.15068434       0.48753232       0.00787272
C        1.28416049       4.91710548       7.60743675      -0.90211446      -0.32459779      -0.85817203      -3.19656028       2.32229047       0.12603230      -3.45167488       2.58896976       0.00623364      -3.45167488       2.58896976       0.00623364
C        5.01387919      -0.04119035       7.56177827       0.54425402      -1.40215080       0.35486795      -2.51453244       1.14014597      -0.24801067      -2.26939937       1.17313549      -0.27386671      -2.26939937       1.17313549      -0.27386671
C        6.21214583       0.69735555       7.54048279      -0.29990462       0.86592009       1.00014095      -1.67329167       0.38769840      -0.40689372      -1.88927437       0.36054323      -0.40435894      -1.88927437       0.36054323      -0.40435894
C        3.69511408       2.14374497       7.40868941       2.39851069      -0.38696504       0.55071228      -2.51109432      -0.17923104       0.44317823      -2.22228674      -0.65956998       0.46704243      -2.22228674      -0.65956998       0.46704243
C        4.90390030       2.82111816       7.42711808      -0.33231434      -0.75780893      -0.61939796       0.00747708       2.62209839       0.47728528       0.26804470       2.46256841       0.46925152       0.26804470       2.46256841       0.46925152
C        2.47482990       4.28878810       7.64098635       0.17265958       0.55821368       0.12457299      -0.60411212      -3.13044520      -0.88145275      -0.25505112      -3.36994106      -0.83454872      -0.25505112      -3.36994106      -0.83454872
C        3.66522994       4.99429055       7.53972559       0.59423573      -0.40185845      -0.05674459       2.76381570      -1.53332532      -0.05808730       2.81073872      -1.52695451      -0.04398900       2.81073872      -1.52695451      -0.04398900
18
Lattice="7.38 0.0 0.0 -3.69 6.391267479929157 0.0 0.0 -0.0 15.0" Properties=species:S:1:pos:R:3:momenta:R:3:mace_forces:R:3:forces:R:3:REF_forces:R:3 T=100.0 mace_forces_rms=0.6948266976256428 energy=-2792.1013707008774 REF_energy=-2792.1013707008774 pbc="T T T"
C        0.02224880      -0.00889213       7.51466600      -0.27638996       0.47379092      -0.46152426      -1.11273179       0.28488828       0.30230783      -1.02984817       0.26076900       0.29145254      -1.02984817       0.26076900       0.29145254
C        1.23281793       0.73344136       7.53322596      -0.67004294       0.12539372       0.14465270      -0.02897675      -0.55552138      -0.04142810      -0.04466315      -0.60833406      -0.06120023      -0.04466315      -0.60833406      -0.06120023
C       -1.24544808       2.13453463       7.48119485      -0.59162088       0.46558305       0.28531224       1.73338410      -1.18863909       0.36425097       1.81277942      -1.25144153       0.35256046       1.81277942      -1.25144153       0.35256046
C        0.00517043       2.84589901       7.52013823       0.07277100      -0.04477510       0.74982473      -0.81611256       0.60451690       0.07662238      -0.75097270       0.60319571       0.06270869      -0.75097270       0.60319571       0.06270869
C       -2.45757189       4.24716121       7.56786606      -0.05320336       0.66765914       0.22724847       0.03442456       0.11761145      -0.42638101      -0.00454725       0.11674557      -0.38207827      -0.00454725       0.11674557      -0.38207827
C       -1.25421778       4.96846770       7.52551523      -0.15897143      -0.53602691       0.31438075       0.87048639       0.39241345      -0.06312455       0.88716146       0.44428020      -0.06906677       0.88716146       0.44428020      -0.06906677
C        2.45259494      -0.00450901       7.48484489       0.48950153      -0.37390804      -0.01374897      -0.39986111       0.57493394       0.19704211      -0.45763657       0.52700647       0.17803990      -0.45763657       0.52700647       0.17803990
C        3.67155492       0.71306541       7.44179678       0.21097738      -0.43167186       0.00874158       0.59571958      -0.16505536       0.12566167       0.64755547      -0.15544298       0.12923213       0.64755547      -0.15544298       0.12923213
C        1.22799389       2.15669691       7.56113005       0.12761653       0.17231723      -0.63857680       0.49434871      -0.72002432      -0.61481410       0.47413251      -0.67721932      -0.59659492       0.47413251      -0.67721932      -0.59659492
C        2.47962075       2.84729612       7.49924249      -0.41223546       0.20179119      -0.45647025      -0.60676223      -0.84011992       0.03818956      -0.62142046      -0.96138509       0.07880688      -0.62142046      -0.96138509       0.07880688
C       -0.01303414       4.28490653       7.49869243       0.19130168      -0.09790214      -0.34374200       0.24857415      -1.01181789      -0.09890084       0.31041905      -0.97031556      -0.11391401       0.31041905      -0.97031556      -0.11391401
C        1.22018366       4.98158501       7.44977807       0.43089060      -0.37121746      -0.00473680       0.63610407      -0.78259354       0.26135026       0.50182457      -0.79020902       0.27533404       0.50182457      -0.79020902       0.27533404
C        4.90662113       0.00819606       7.44961271       0.07834855      -0.32785121       0.15711203       0.22344634      -0.59425531       0.05165434       0.18452859      -0.54091408       0.08725141       0.18452859      -0.54091408       0.08725141
C        6.13919503       0.68538819       7.50020300      -0.36744742      -0.24129887       0.09007366       0.80321004       1.23710508      -0.37482094       0.76274629       1.21236564      -0.37099013       0.76274629       1.21236564      -0.37099013
C        3.70105999       2.12606586       7.45737403       0.43806341       0.13903688       0.09995643      -0.10117916       0.18067191       0.24661288      -0.07101207       0.17200089       0.25348352      -0.07101207       0.17200089       0.25348352
C        4.94249657       2.83376874       7.49513808       0.03513430       0.18086585       0.09294423      -1.37581539      -0.02607662       0.01282654      -1.49725544       0.03619162       0.00907677      -1.49725544       0.03619162       0.00907677
C        2.46724694       4.22803250       7.47596912       0.21673241       0.11083146      -0.33203609      -0.21072321       2.52769640       0.28233702      -0.15423534       2.58882963       0.25707638      -0.15423534       2.58882963       0.25707638
C        3.71146689       4.95776826       7.54361203       0.23857406      -0.11261786       0.08058836      -0.98753576      -0.03573398      -0.33938601      -0.94955622      -0.00612334      -0.38117864      -0.94955622      -0.00612334      -0.38117864
18
Lattice="7.38 0.0 0.0 -3.69 6.391267479929157 0.0 0.0 -0.0 15.0" Properties=species:S:1:pos:R:3:momenta:R:3:mace_forces:R:3:forces:R:3:REF_forces:R:3 T=300.0 mace_forces_rms=1.0843440108668208 energy=-2791.755831432739 REF_energy=-2791.755831432739 pbc="T T T"
C       -0.00597968       0.02774708       7.46561760       0.79029738      -0.75954063      -0.58693145       0.82063122      -3.07868704       0.74931837       1.04131786      -2.87163041       0.81023765       1.04131786      -2.87163041       0.81023765
C        1.24764485       0.68985391       7.48424755       0.25147979      -0.11026758      -0.13558224      -0.65963041       0.66604125       0.03826329      -0.71883494       0.58722171       0.03031433      -0.71883494       0.58722171       0.03031433
C       -1.19186345       2.14332220       7.49463721      -0.08817221      -1.01474902      -0.60151350      -1.33475981      -1.12414951      -0.14348946      -1.38435728      -1.23307022      -0.14658450      -1.38435728      -1.23307022      -0.14658450
C        0.00084574       2.85400060       7.52506690       0.25409254       0.05935764       0.62653912       1.08044959      -0.29803180      -0.49118642       1.26463103      -0.35108619      -0.45518965       1.26463103      -0.35108619      -0.45518965
C       -2.44920996       4.24422521       7.56502789      -0.76222486       0.92076236       0.63981987      -0.81441088       0.53322012      -0.13560170      -0.85169515       0.49844640      -0.18523281      -0.85169515       0.49844640      -0.18523281
C       -1.22780586       4.98070296       7.58184057       0.75381534      -0.06021472      -0.29439821       0.50699301      -1.34248381      -0.05923165       0.47299479      -1.41648167      -0.10051111       0.47299479      -1.41648167      -0.10051111
C        2.46669539      -0.02926067       7.56867970       0.46683188      -1.27221214      -0.04749640       0.30721910       1.60262022      -0.44840367       0.26044581       1.70362581      -0.44599641       0.26044581       1.70362581      -0.44599641
C        3.70050902       0.71352846       7.50820406      -0.05685398      -0.17934704      -0.57715641      -1.12439181       0.96575235      -0.43301260      -0.99327012       0.80791158      -0.37516406      -0.99327012       0.80791158      -0.37516406
C        1.22109763       2.11182770       7.43550649       0.52692189       0.25014340       0.82611111       0.10401507       0.54007060       0.37762824       0.01774858       0.62391521       0.38440949       0.01774858       0.62391521       0.38440949
C        2.42153504       2.86723263       7.41981981      -0.99364742      -0.40977491      -0.12955137       0.90606655      -1.81175811       0.45633539       0.90039159      -1.89468577       0.40692927       0.90039159      -1.89468577       0.40692927
C        0.03294062       4.27885137       7.53948735       0.57336979       0.73494215       0.71183910      -2.38226395      -0.89025382       0.27472812      -2.61494073      -0.99629913       0.26900707      -2.61494073      -0.99629913       0.26900707
C        1.21683903       4.95301685       7.53169002      -0.37049538       0.02559820       0.35310028       0.37755960       2.40859974      -0.71666663       0.50648110       2.51179655      -0.76117046       0.50648110       2.51179655      -0.76117046
C        4.91048437       0.01632014       7.43529561      -0.04088636       0.59508860       0.42634542       1.14060403      -0.88455540       1.00988509       1.01190264      -0.76414214       1.01812908       1.01190264      -0.76414214       1.01812908
C        6.17165978       0.70630172       7.45671671      -0.59819897       0.18504835      -0.79659594      -1.17052166       1.07290978      -0.25852214      -1.26800843       1.18610337      -0.27514121      -1.26800843       1.18610337      -0.27514121
C        3.66665729       2.17015370       7.45039516      -0.16683905       0.46814515      -0.28455478       1.12027264      -1.70830483       0.01420251       1.18610800      -1.53720087       0.02813867       1.18610800      -1.53720087       0.02813867
C        4.95176994       2.81824195       7.47552419      -0.14306338      -1.04721587       0.36706859      -1.48018627       1.09846651       0.39110227      -1.57262425       1.10457497       0.40737458      -1.57262425       1.10457497       0.40737458
C        2.41035628       4.24480428       7.48758799      -0.55415801       1.15970626      -0.63106926       1.98877679       1.29963347       0.30621219       2.09282989       1.29583317       0.36203009       2.09282989       1.29583317       0.36203009
C        3.66582397       4.94800227       7.57465520       0.15773101       0.45452981       0.13402606       0.61357721       0.95091029      -0.93156120       0.64887959       0.74516817      -0.97158029       0.64887959       0.74516817      -0.97158029
18
Lattice="7.38 0.0 0.0 -3.69 6.391267479929157 0.0 0.0 -0.0 15.0" Properties=species:S:1:pos:R:3:momenta:R:3:mace_forces:R:3:forces:R:3:REF_forces:R:3 T=300.0 mace_forces_rms=1.0335802647892667 energy=-2791.657914125094 REF_energy=-2791.657914125094 pbc="T T T"
C       -0.02161673      -0.05763756       7.50461039      -0.83257483       0.02685028      -0.04476063       0.65065719       1.94607338       0.62937601       0.69925907       2.02451517       0.65206416       0.69925907       2.02451517       0.65206416
C        1.20312621       0.68218491       7.57110076       1.15460881       0.34105257      -0.02808533       0.57442958       1.05228442      -1.30129536       0.57743686       0.97001397      -1.35741674       0.57743686       0.97001397      -1.35741674
C       -1.18200173       2.11239881       7.47364264       0.47278508      -1.11422530       0.22185028      -1.93880579      -0.76478786       0.26647567      -1.85877260      -0.77505031       0.21475679      -1.85877260      -0.77505031       0.21475679
C        0.01791946       2.82718722       7.52958897       0.65526671       1.55377141      -0.09813935       0.31868961       1.63432550       0.01973764       0.27868856       1.53776137       0.07040298       0.27868856       1.53776137       0.07040298
C       -2.45084851       4.21948502       7.54288945       0.02364152      -0.19259791      -0.66219402       0.27491207       0.80494053       0.89272620       0.33511270       0.81136071       0.90130895       0.33511270       0.81136071       0.90130895
C       -1.24294430       5.00631897       7.60722293       0.71673752      -0.45373695       0.08662051       1.31250039      -2.71744430      -1.05809385       1.14215807      -2.53827532      -1.08541845       1.14215807      -2.53827532      -1.08541845
C        2.44946154       0.00292006       7.45213257      -0.37390359      -0.23326803       0.90485926      -0.25940785       0.85075622       1.23720159      -0.29071618       0.78223474       1.19584502      -0.29071618       0.78223474       1.19584502
C        3.67758214       0.73978054       7.41666835      -0.80789524       0.77924310      -0.12086296      -0.59402817      -0.78332066       0.40214079      -0.63421556      -0.77148856       0.42192600      -0.63421556      -0.77148856       0.42192600
C        1.24600218       2.13123482       7.49890578      -0.76649170       0.00248085      -0.51054675      -0.94518505      -0.68168642       0.08662833      -0.85559885      -0.63870188       0.10843190      -0.85559885      -0.63870188       0.10843190
C        2.43241421       2.88625439       7.44971876       0.20581990      -0.62412364      -0.14222545       1.64370128      -0.65225816       0.56232098       1.52092013      -0.63194810       0.57414173       1.52092013      -0.63194810       0.57414173
C        0.02989844       4.28521573       7.58246884      -0.19938970      -0.40736156      -0.26637759      -1.60218004      -0.62858927      -0.70083381      -1.34135043      -0.53668822      -0.70461699      -1.34135043      -0.53668822      -0.70461699
C        1.23708506       5.01645107       7.44605100      -0.38081501       0.39796966      -0.58230879      -0.23075810      -1.32816650       0.62493786      -0.40225115      -1.53116624       0.66314098      -0.40225115      -1.53116624       0.66314098
C        4.89560067       0.00654792       7.42896651      -0.10479880      -0.74938115      -0.10167371       0.11380490       1.35752487      -0.24027195       0.14211696       1.49125680      -0.25226687       0.14211696       1.49125680      -0.25226687
C        6.13353483       0.67899208       7.42929922      -0.02446164      -0.14858182       1.03480766       1.13526552       0.61738304       0.33289242       1.12613496       0.63359464       0.35059923       1.12613496       0.63359464       0.35059923
C        3.67861634       2.14990802       7.49381364      -0.67073323       0.24928256       0.20628878      -0.38347336      -0.15419897      -0.62804129      -0.31177043      -0.19851719      -0.60795560      -0.31177043      -0.19851719      -0.60795560
C        4.93190093       2.79098231       7.51788050       1.07828144      -0.48574068      -0.47222442       0.72979971       1.60187513      -0.14090400       0.66524672       1.61548814      -0.13040918       0.66524672       1.61548814      -0.13040918
C        2.47664600       4.31959990       7.47023768      -0.41701620       0.31455034       0.07850524      -1.57456206      -2.27323562       0.20429736      -1.62927131      -2.34391380       0.08681510      -1.62927131      -2.34391380       0.08681510
C        3.69762325       4.94104817       7.58480201       0.27093896       0.74381627       0.49646726       0.77464016       0.11852469      -1.18929459       0.83687300       0.09952432      -1.10134901       0.83687300       0.09952432      -1.10134901
18
Lattice="7.38 0.0 0.0 -3.69 6.391267479929157 0.0 0.0 -0.0 15.0" Properties=species:S:1:pos:R:3:momenta:R:3:mace_forces:R:3:forces:R:3:REF_forces:R:3 T=100.0 mace_forces_rms=0.6512326420578903 energy=-2792.1166909821077 REF_energy=-2792.1166909821077 pbc="T T T"
C       -0.00904471       0.01492692       7.46042814      -0.56178049      -0.25302308       0.19075614      -0.12019692      -0.66244490       0.02420462      -0.15422300      -0.67335366       0.03555424      -0.15422300      -0.67335366       0.03555424
C        1.23599980       0.69852697       7.42400034       0.50655681      -0.35414289      -0.08623496       0.16577730      -0.29685677       0.72545777       0.16741404      -0.25959374       0.73960688       0.16741404      -0.25959374       0.73960688
C       -1.25097106       2.15599251       7.46610121      -0.54732065      -0.08861509       0.39443847       0.61199153      -1.50427361       0.44051323       0.65119975      -1.41977011       0.43425727       0.65119975      -1.41977011       0.43425727
C       -0.00535948       2.82827733       7.47621033      -0.41779037       0.44276840      -0.41878931       0.68228490      -0.33451067       0.09893696       0.59878499      -0.31934901       0.10845556       0.59878499      -0.31934901       0.10845556
C       -2.45726676       4.27931082       7.51117689      -0.16422508      -0.22448636      -0.36108086       0.26917312       0.08562129       0.29336930       0.26380547       0.03187782       0.32004192       0.26380547       0.03187782       0.32004192
C       -1.20410428       4.97241059       7.54120658       0.14472593      -0.24729049      -0.01257758      -0.35333568      -0.56075678      -0.13843297      -0.32024093      -0.57063449      -0.16174219      -0.32024093      -0.57063449      -0.16174219
C        2.48386273      -0.00944636       7.52320312       0.25220207      -0.73195741       0.38320000      -1.38888832       0.16069780      -0.34251633      -1.43414335       0.11774033      -0.39344280      -1.43414335       0.11774033      -0.39344280
C        3.67052137       0.71955413       7.53643203       0.01395487       0.68168644       0.47560428       0.77875914      -0.11360458       0.00724747       0.80227855      -0.07296637       0.02464171       0.80227855      -0.07296637       0.02464171
C        1.23786044       2.09821263       7.47369232       0.32673455      -0.15040136      -0.07465824      -0.41798521       1.38679593      -0.58529182      -0.39716936       1.32869238      -0.55161836      -0.39716936       1.32869238      -0.55161836
C        2.46394729       2.84543191       7.45301152      -0.10461344      -0.09359225      -0.09398634      -0.30071332      -1.21700067       0.44347799      -0.25716045      -1.26316319       0.43194147      -0.25716045      -1.26316319       0.43194147
C        0.02352243       4.23835364       7.53260886      -0.13515583      -0.06712548       0.01889747      -0.48805458       0.78155103      -0.15358151      -0.49898350       0.77797314      -0.16014090      -0.49898350       0.77797314      -0.16014090
C        1.23810295       4.97373593       7.52139913       0.37698138       0.59638331      -0.05976333       0.01827615      -0.45485582       0.32401406      -0.01423337      -0.37263667       0.32188797      -0.01423337      -0.37263667       0.32188797
C        4.88972642       0.01055686       7.56885401      -0.27665229       0.15178776      -0.62267642       1.20671984      -0.69362490      -0.58057261       1.26752635      -0.74558675      -0.57268880       1.26752635      -0.74558675      -0.57268880
C        6.13056159       0.70264940       7.48154239       0.44748281      -0.05510695       0.11519000      -0.04863964       1.39815840       0.16606472      -0.04881265       1.29024487       0.15255641      -0.04881265       1.29024487       0.15255641
C        3.68324209       2.12532741       7.48777939       0.24351948       0.09911616       0.44422671       0.35155630       0.99020566       0.24647865       0.30127467       0.99530103       0.23193150       0.30127467       0.99530103       0.23193150
C        4.91692407       2.86300320       7.53583365      -0.09401652       0.05214488      -0.18866095      -0.61887675      -0.45861382      -0.64728326      -0.60583881      -0.39037702      -0.66152916      -0.60583881      -0.39037702      -0.66152916
C        2.47421008       4.24035409       7.49752502       0.60134624       0.15315106       0.01201627      -0.57180478       1.66367978      -0.07223913      -0.50152195       1.68801999      -0.06083719      -0.50152195       1.68801999      -0.06083719
C        3.68826504       4.98169437       7.50899506      -0.61194947       0.08870335      -0.11590133       0.22395692      -0.17016736      -0.24984715       0.18004330      -0.14241829      -0.23887580       0.18004330      -0.14241829      -0.23887580
18
Lattice="7.38 0.0 0.0 -3.69 6.391267479929157 0.0 0.0 -0.0 15.0" Properties=species:S:1:pos:R:3:momenta:R:3:mace_forces:R:3:forces:R:3:REF_forces:R:3 T=300.0 mace_forces_rms=1.2286336417614199 energy=-2791.6678439672373 REF_energy=-2791.6678439672373 pbc="T T T"
C        0.03343887       0.01121486       7.53133652      -0.62095143       0.91862092       0.34319809      -1.64513734      -1.41582638       0.13085788      -1.62901394      -1.51356704       0.08837010      -1.62901394      -1.51356704       0.08837010
C        1.25592634       0.66204442       7.54304425      -0.11646887      -0.49475514      -0.45454773      -0.42148871       3.59655406      -0.44862788      -0.40844493       3.23463161      -0.34528964      -0.40844493       3.23463161      -0.34528964
C       -1.25334410       2.07493544       7.50674910      -0.53837226       0.50700753       0.24448921       1.70105974       2.96192431      -0.09786216       1.36592401       2.89950323      -0.21992959       1.36592401       2.89950323      -0.21992959
C        0.02069506       2.82524697       7.42540615      -0.64111843      -0.49970484      -0.98683742      -1.60802534      -0.30318919       0.53843379      -1.14092754      -0.18037163       0.56625796      -1.14092754      -0.18037163       0.56625796
C       -2.46625000       4.25139452       7.50014670       1.01287324      -0.08179307       0.55261066      -0.47232950       0.39866750      -0.42362460      -0.45764299       0.53088087      -0.37284827      -0.45764299       0.53088087      -0.37284827
C       -1.24783662       4.96247731       7.40197724      -1.12014837      -0.08046111       0.21233430       1.04430022      -0.25072505      -0.06863622       0.92645203      -0.20220749      -0.06711222       0.92645203      -0.20220749      -0.06711222
C        2.46041836      -0.00791396       7.41899052      -0.55438577       1.49270884       0.43260711       0.27601114      -0.88214464       1.21724316       0.32131770      -0.92480370       1.11215484       0.32131770      -0.92480370       1.11215484
C        3.67178444       0.70487468       7.57412787      -0.09197583      -0.24673869      -0.54705605       0.38336169       0.94724889      -0.85300498       0.40068149       0.91622752      -0.86536596       0.40068149       0.91622752      -0.86536596
C        1.24640481       2.13963249       7.55712333       0.41518776       0.67650271      -0.11576011       0.61808883      -1.08305705      -0.79768846       0.43691167      -0.62078026      -0.77754710       0.43691167      -0.62078026      -0.77754710
C        2.47556202       2.89732926       7.50530520       0.69966274       0.12326464       0.32258790      -1.02260839      -2.93847046       0.18379444      -1.03168188      -2.94450910       0.20670872      -1.03168188      -2.94450910       0.20670872
C       -0.00526376       4.25466599       7.35575307      -0.76459683      -0.12532138      -0.02232386       0.86873906       0.57562064       0.87848542       0.81081358       0.43350059       0.98266432       0.81081358       0.43350059       0.98266432
C        1.25611585       5.01112554       7.49226770       0.82905326      -0.65624129       0.03843443      -3.41879720      -1.31960431      -0.56200228      -3.41798135      -1.17500443      -0.62460400      -3.41798135      -1.17500443      -0.62460400
C        4.89922108       0.02746127       7.57604936       0.21055012      -0.23164438       0.07237410       0.99794378      -0.95002808      -0.25686880       0.92326155      -0.91215130      -0.17416396       0.92326155      -0.91215130      -0.17416396
C        6.14847182       0.69856185       7.55978165       0.15320027      -0.21030341       0.79871158       0.25725098      -0.04901268       0.04079535       0.21057232      -0.07674486       0.05385536       0.21057232      -0.07674486       0.05385536
C        3.69847712       2.13250688       7.54155309       0.09026983      -0.49714737       0.51662811      -1.05266279       0.66428432       0.22575705      -0.94885791       0.61888536       0.17875466      -0.94885791       0.61888536       0.17875466
C        4.91257569       2.83963440       7.52308470       0.05218158       0.23825010      -0.75398813       0.66041661      -1.04995862      -0.06261105       0.64352681      -1.15693754      -0.03710899       0.64352681      -1.15693754      -0.03710899
C        2.41816606       4.27664053       7.47195692       1.02272128      -0.61078320      -0.43045429       2.91078440       1.24867766       0.48739132       2.87786919       1.12044768       0.42706975       2.87786919       1.12044768       0.42706975
C        3.68543695       4.97703991       7.51534663      -0.03768229      -0.22146086      -0.22300790      -0.07690717      -0.15096093      -0.13183198       0.11722071      -0.04699977      -0.13186571       0.11722071      -0.04699977      -0.13186571
18
Lattice="7.38 0.0 0.0 -3.69 6.391267479929157 0.0 0.0 -0.0 15.0" Properties=species:S:1:pos:R:3:momenta:R:3:mace_forces:R:3:forces:R:3:REF_forces:R:3 T=100.0 mace_forces_rms=0.642976161873903 energy=-2792.118380400875 REF_energy=-2792.118380400875 pbc="T T T"
C       -0.00602613      -0.00147049       7.42563830      -0.44025947       0.58843663       0.04162204       0.46722618       0.03501354       0.16408638       0.47341440      -0.00357718       0.15774104       0.47341440      -0.00357718       0.15774104
C        1.22207823       0.70230514       7.41726917      -0.05395345       0.27479488      -0.31663692      -0.14031947       1.01179079       0.38101974      -0.09621248       0.97379967       0.42187175      -0.09621248       0.97379967       0.42187175
C       -1.21900947       2.13211603       7.56218050      -0.35579486      -0.03416253       0.23810509      -0.70793286      -0.34354658      -0.58181141      -0.72971687      -0.39378785      -0.58952747      -0.72971687      -0.39378785      -0.58952747
C       -0.01695763       2.86749474       7.51691243      -0.12183959      -0.77904065      -0.48987626       0.44070957      -0.55502605       0.12818632       0.44743931      -0.50911056       0.13560281       0.44743931      -0.50911056       0.13560281
C       -2.45911258       4.24006329       7.51667643       0.11253923       0.65293519      -0.39378539      -0.02552954       0.68661673      -0.11642240      -0.01109020       0.62938343      -0.13617694      -0.01109020       0.62938343      -0.13617694
C       -1.22004453       4.97087873       7.50811954      -0.25471483      -0.06405987      -0.21453803      -0.69657666      -0.47333823       0.22357832      -0.65439101      -0.45887687       0.20829201      -0.65439101      -0.45887687       0.20829201
C        2.44927489      -0.01062617       7.48491941      -0.15408155       0.23551264      -0.31437540       0.36595487       0.59685387      -0.06918875       0.31343573       0.59912823      -0.06202169       0.31343573       0.59912823      -0.06202169
C        3.68080855       0.70960832       7.53679580      -0.17833214      -0.31875034       0.44660979       0.54438240      -0.90117621      -0.22474425       0.46362106      -0.83263222      -0.23139543       0.46362106      -0.83263222      -0.23139543
C        1.19070931       2.14769045       7.45888743       0.55394398       0.01116371       0.02279623       1.92292873      -0.50352244      -0.09813490       1.85765263      -0.53796914      -0.10670618       1.85765263      -0.53796914      -0.10670618
C        2.46004461       2.85999550       7.45966870      -0.03851230       0.20171798      -0.29975981      -0.89175566      -1.62154405       0.29573566      -0.79276366      -1.63872602       0.28261206      -0.79276366      -1.63872602       0.28261206
C        0.01318900       4.27791762       7.54746241       0.20550715      -0.01736633       0.03435784      -0.09372853       0.18289260      -0.11124240      -0.10898186       0.15503109      -0.11044559      -0.10898186       0.15503109      -0.11044559
C        1.25458315       4.97869874       7.54470598      -0.22134208      -0.05635488      -0.34950959      -0.52538159      -0.36774291      -0.47488763      -0.47451354      -0.35687760      -0.48454907      -0.47451354      -0.35687760      -0.48454907
C        4.94821871      -0.00183585       7.52267122       0.38264316      -0.24936599       0.04214642      -1.46167831       0.44595447       0.12441164      -1.39454604       0.35767696       0.12829908      -1.39454604       0.35767696       0.12829908
C        6.15981078       0.70478484       7.47323366      -0.48607126      -0.34767634       0.33611841       0.04129053       0.74484350       0.38122920       0.03096868       0.80667205       0.36785647       0.03096868       0.80667205       0.36785647
C        3.67403879       2.11180477       7.52298661      -0.22439196       0.19792509       0.12632558       0.34566188       0.66342215      -0.11287753       0.31169689       0.66802428      -0.12697599       0.31169689       0.66802428      -0.12697599
C        4.91999880       2.81045208       7.55720990       0.40993701      -0.13966777       0.19803955      -0.31285711       0.85108619      -0.05109368      -0.30040204       0.87185234      -0.05717979      -0.30040204       0.87185234      -0.05717979
C        2.47350626       4.25296758       7.47483102       0.29492457      -0.07159514       0.48346431      -0.21229653       0.95649332       0.24598554      -0.25239054       1.02764088       0.27323705      -0.25239054       1.02764088       0.27323705
C        3.68488926       4.98602705       7.46983148       0.56979838      -0.08444628       0.40889613       0.93990210      -1.40907068      -0.10382984       0.91677928      -1.35765148      -0.07053436       0.91677928      -1.35765148      -0.07053436
18
Lattice="7.38 0.0 0.0 -3.69 6.391267479929157 0.0 0.0 -0.0 15.0" Properties=species:S:1:pos:R:3:momenta:R:3:mace_forces:R:3:forces:R:3:REF_forces:R:3 T=300.0 mace_forces_rms=1.3936241515040688 energy=-2791.4394292981024 REF_energy=-2791.4394292981024 pbc="T T T"
C       -0.01676419       0.01057312       7.50122802       0.20601537       0.71593495       0.51337120       0.56308509      -0.30368021       0.30664121       0.71557195      -0.14829994       0.20224889       0.71557195      -0.14829994       0.20224889
C        1.19125532       0.69494674       7.61896588      -0.95453391      -1.13929024       0.25022539       2.67962322       1.77632353      -0.93646935       2.44663451       1.72812225      -0.95346173       2.44663451       1.72812225      -0.95346173
C       -1.25010049       2.09727090       7.45987169       0.16051893      -0.45236578      -0.09704939       0.04969777       2.73149451       0.42984207       0.26974575       2.92761952       0.56217248       0.26974575       2.92761952       0.56217248
C       -0.00904850       2.81085210       7.48812377      -0.44997592      -0.27451800      -0.20386470       0.89310059       1.19750702      -0.84057327       0.87661608       1.07203818      -0.88982872       0.87661608       1.07203818      -0.88982872
C       -2.48444425       4.24958173       7.54912689      -0.19105631       0.07040397       0.98391321       0.61588893       0.33590730       0.22880351       0.63183626       0.39434706       0.20890290       0.63183626       0.39434706       0.20890290
C       -1.26077944       4.92908742       7.57092243      -0.54009703       0.67544862      -0.56263178       1.85237277       2.00255448      -0.15409159       2.00364501       1.88235862      -0.17372687       2.00364501       1.88235862      -0.17372687
C        2.46818916       0.00340364       7.65010609       0.54258581       0.43046262      -1.14579986      -2.01775169      -1.93184998      -0.83298075      -1.79217177      -1.79873657      -0.80819003      -1.79217177      -1.79873657      -0.80819003
C        3.67404085       0.67208616       7.50459024       0.39818947      -0.70279922       0.58884425       2.16608786       2.21878924       0.09255742       1.95584306       1.85448863      -0.03285278       1.95584306       1.85448863      -0.03285278
C        1.27016608       2.15198586       7.46037557       0.23480614      -0.14238421      -0.05770958      -1.72448571      -1.29368387       0.81646540      -1.75042143      -1.24712747       0.92789133      -1.75042143      -1.24712747       0.92789133
C        2.49536384       2.87435209       7.45225491       0.09119133       0.64641704      -0.45854521      -0.50616948      -0.18728306      -0.31568398      -0.51716017      -0.18955509      -0.32772335      -0.51716017      -0.18955509      -0.32772335
C        0.01109397       4.26260902       7.42778358      -0.28426092       0.48881764      -0.20315989      -1.50383785      -1.22258873       1.22915209      -1.48921612      -1.04847350       1.22958021      -1.48921612      -1.04847350       1.22958021
C        1.22860915       4.97407312       7.48040839       1.15014031       0.01922029      -0.11109965       0.97575931       0.01605940      -0.30772164       0.81365902      -0.01456067      -0.23643762       0.81365902      -0.01456067      -0.23643762
C        4.95788967      -0.01620023       7.49110156       0.41381926       0.02284454       0.23287704      -2.86414123       0.77932704      -0.43239425      -2.75556644       0.73954774      -0.41021540      -2.75556644       0.73954774      -0.41021540
C        6.14612382       0.72957162       7.41760791      -1.30824724       0.74959411      -0.21107772       0.04052077      -1.62235811       0.65024433       0.01093567      -1.86849651       0.58106186       0.01093567      -1.86849651       0.58106186
C        3.71918613       2.15064161       7.40607047       0.39186479      -0.65145285      -0.29560792      -2.30916528      -2.15614685       1.29435674      -2.43185993      -1.90827354       1.19937129      -2.43185993      -1.90827354       1.19937129
C        4.87706229       2.85580743       7.54188335      -0.67864899      -0.09496260       0.16458728       2.88397459      -1.38253678      -1.25153737       2.78062441      -1.31550210      -1.12221428       2.78062441      -1.31550210      -1.12221428
C        2.49074602       4.31350860       7.46822658       0.67872956      -0.61124190      -0.14856156      -1.24460804      -2.29636348      -0.03030298      -1.27485219      -2.35997060      -0.02314584      -1.27485219      -2.35997060      -0.02314584
C        3.70141057       4.97472145       7.51135267       0.13895935       0.24987102       0.76128889      -0.54995162       1.33852853       0.05369242      -0.49386341       1.30047298       0.06656766      -0.49386341       1.30047298       0.06656766
18
Lattice="7.38 0.0 0.0 -3.69 6.391267479929157 0.0 0.0 -0.0 15.0" Properties=species:S:1:pos:R:3:momenta:R:3:mace_forces:R:3:forces:R:3:REF_forces:R:3 T=600.0 mace_forces_rms=1.3068896190822006 energy=-2791.393447093475 REF_energy=-2791.393447093475 pbc="T T T"
C        0.03462970       0.01487998       7.44104214       0.54713676       1.07004928       1.10572947      -0.59688307      -0.47702481       0.30868478      -0.48206050      -0.53668847       0.34677368      -0.48206050      -0.53668847       0.34677368
C        1.27382290       0.73641916       7.41364331       0.37323462      -0.02052006       1.02745664      -1.62608079      -0.59263156       0.72106150      -1.67613378      -0.58510440       0.73701161      -1.67613378      -0.58510440       0.73701161
C       -1.28350013       2.10971870       7.50840984      -0.20415587      -1.22476352       0.69444562      -0.19594709       1.33385956       0.41676587      -0.11436113       1.32061731       0.39058528      -0.11436113       1.32061731       0.39058528
C       -0.07425840       2.84811343       7.55802798      -0.06891064       0.28978546      -0.33100599       2.12833484      -0.98375821      -0.68830066       1.91337383      -0.82721927      -0.68113048       1.91337383      -0.82721927      -0.68113048
C       -2.38999545       4.28291200       7.38709997      -1.25320804       0.42166305      -2.03111832      -3.14521216      -0.19049480       0.78066139      -3.07156865      -0.21042937       0.81898146      -3.07156865      -0.21042937       0.81898146
C       -1.21409041       5.03337760       7.47740759      -0.86756163      -0.92829463      -0.46087886       0.82866547      -3.28466188      -0.47014437       0.69005118      -3.90407617      -0.45993230       0.69005118      -3.90407617      -0.45993230
C        2.48272202      -0.01443468       7.47456073       1.10538675       1.01602027       0.43782814       0.12343783       2.56692779      -0.16892810       0.12518933       3.21350486      -0.18053027       0.12518933       3.21350486      -0.18053027
C        3.70580252       0.70261464       7.53577152      -0.62096621      -0.11659306       0.96854447       0.30268364       0.04811295       0.53831327       0.34336594       0.16331673       0.59032606       0.34336594       0.16331673       0.59032606
C        1.21705419       2.15400956       7.53122125       1.06145400       1.17631723      -0.74546210      -1.76541131      -0.73801546      -0.82281670      -1.63014574      -0.91984558      -0.75740791      -1.63014574      -0.91984558      -0.75740791
C        2.43354305       2.80788725       7.44505831       0.89487345      -0.64216153       0.10614489       0.10068805       1.41351319       1.14826446      -0.07163016       1.60678290       1.05911710      -0.07163016       1.60678290       1.05911710
C       -0.00626151       4.25423633       7.50812489      -0.41400778       1.25497067      -0.34804844      -0.64244806       0.67856896       0.47807017      -0.54694512       0.55390535       0.45474690      -0.54694512       0.55390535       0.45474690
C        1.21907192       4.92311909       7.55108080      -0.22063229       0.69471763      -0.24497434       2.18818471       2.01492592       0.50980992       2.15262347       1.70540141       0.53147376       2.15262347       1.70540141       0.53147376
C        4.96251223       0.01772221       7.65110797      -1.21047271      -0.68325334      -0.24773776      -2.28604787      -2.95084900      -1.24279326      -2.47737720      -2.67730206      -1.24336286      -2.47737720      -2.67730206      -1.24336286
C        6.14342659       0.70143734       7.55527954       0.26131032       0.16245629       0.74415473       1.77523843       0.25644137      -0.03475530       1.85161979       0.38279715      -0.16277371       1.85161979       0.38279715      -0.16277371
C        3.62929591       2.11593131       7.51605268       0.19137314      -1.16561777       0.28058533       2.31510821       0.33749435      -0.66545042       2.50126429       0.09143126      -0.66118180       2.50126429       0.09143126      -0.66118180
C        4.86381100       2.86613096       7.47551216      -1.00377100      -0.53112048      -0.50347282       1.50791441      -1.40923070      -0.06817173       1.49190266      -1.33518313      -0.05058234       1.49190266      -1.33518313      -0.05058234
C        2.48728528       4.21736600       7.53047998      -0.03302584      -0.99728301      -0.85336839      -0.71114619       1.67722677      -0.75491644      -0.72914917       1.57242730      -0.77074422      -0.72914917       1.57242730      -0.77074422
C        3.72512859       4.96743148       7.44011934       1.46194297       0.22362751       0.40117773      -0.30107904       0.29959555       0.01464564      -0.27001957       0.38566470       0.03862954      -0.27001957       0.38566470       0.03862954
18
Lattice="7.38 0.0 0.0 -3.69 6.391267479929157 0.0 0.0 -0.0 15.0" Properties=species:S:1:pos:R:3:momenta:R:3:mace_forces:R:3:forces:R:3:REF_forces:R:3 T=600.0 mace_forces_rms=1.415476528782494 energy=-2791.272348680029 REF_energy=-2791.272348680029 pbc="T T T"
C        0.04696896       0.03422460       7.49126350      -0.34073928      -0.21008649      -0.10478928      -2.03896832      -2.11444777      -0.48651070      -2.03366058      -1.98116688      -0.38064617      -2.03366058      -1.98116688      -0.38064617
C        1.23533201       0.72462600       7.40850947       0.46879983       0.35484458      -0.44990214       0.70510579       2.40765336       0.58281775       0.83149296       2.01679260       0.48892201       0.83149296       2.01679260       0.48892201
C       -1.22516109       2.11932118       7.53065085       0.51174200       0.68210837      -1.16069968       0.94852251      -0.52033657      -0.90549873       0.89339510      -0.67911962      -0.92995824       0.89339510      -0.67911962      -0.92995824
C        0.02008749       2.86849493       7.44862417       0.62973691      -0.88211631      -0.01053032      -0.78262758      -0.60073629       0.45457611      -0.51985520      -0.66110364       0.53603336      -0.51985520      -0.66110364       0.53603336
C       -2.45137106       4.25610237       7.59639426       0.43230287      -0.52472598       0.67085306      -0.37124895      -1.69727001      -0.64645495      -0.46375553      -1.51632043      -0.76278306      -0.46375553      -1.51632043      -0.76278306
C       -1.25751525       4.98336537       7.56313303       0.00897942       0.55570451      -0.24393522       0.82340493      -0.54712101       0.61767104       0.87597768      -0.45440057       0.61412033       0.87597768      -0.45440057       0.61412033
C        2.44129266      -0.00602654       7.55693678       0.53929040      -0.76786091      -0.75919877      -1.00261290       0.05133984      -0.61387202      -1.33994918      -0.04590653      -0.58679336      -1.33994918      -0.04590653      -0.58679336
C        3.63215308       0.68760307       7.54806198      -0.19712880       0.74084793      -0.63707682       1.66892682      -0.11960259      -0.76334950       2.10300478      -0.19887097      -0.78575947       2.10300478      -0.19887097      -0.78575947
C        1.26510951       2.20049706       7.33353988      -0.03967911      -1.07520788      -0.36447368       0.29643806      -2.18938659       1.29495227       0.07796356      -1.77065396       1.34977157       0.07796356      -1.77065396       1.34977157
C        2.55220283       2.87624125       7.50176555       0.76841047      -0.08476624       0.07411459      -4.42317192      -1.30105040      -0.54328607      -4.43999511      -1.07066983      -0.67038147      -4.43999511      -1.07066983      -0.67038147
C       -0.02368300       4.28259663       7.57704184       1.50923581       1.29640615       0.55270640      -0.52151661      -1.08395982      -1.12490049      -0.47527150      -1.12807331      -1.03348731      -0.47527150      -1.12807331      -1.03348731
C        1.18241928       4.94242931       7.45869180      -0.43017527       0.00628377       1.53410127       1.49658788       1.53257770       0.37741726       1.48547362       1.50605093       0.29116689       1.48547362       1.50605093       0.29116689
C        4.85642023      -0.01554968       7.40014711      -1.98220683       1.34608862      -0.28059500       2.66701469       0.04225373       1.23426123       2.19403134       0.06985250       1.25201668       2.19403134       0.06985250       1.25201668
C        6.15403349       0.68696959       7.45530588      -0.89888744      -0.66993497      -0.82327199      -1.16117854       0.29382156      -0.01417947      -0.95159382       0.49247630      -0.02495461      -0.95159382       0.49247630      -0.02495461
C        3.67385469       2.07916644       7.54151824      -0.06800264      -0.47593042      -0.04898084       2.42759634       1.87467718      -0.12889566       2.51902984       1.82058581      -0.05087442       2.51902984       1.82058581      -0.05087442
C        4.93127620       2.79016491       7.52049574      -0.05424352      -0.56721369       1.18493926      -0.73201592       1.33152424       0.84984244      -0.73495241       1.10461971       0.82604942      -0.73495241       1.10461971       0.82604942
C        2.43728414       4.25759818       7.52031639       1.28503781       0.72570287       1.17511080       2.97352966       1.89240219      -0.22815448       2.53943334       1.65928328      -0.16688722       2.53943334       1.65928328      -0.16688722
C        3.73929581       4.97104768       7.54760353      -2.14247263      -0.45014391      -0.30837162      -2.97378592       0.74766124       0.04356398      -2.56076913       0.83662488       0.03444507      -2.56076913       0.83662488       0.03444507
18
Lattice="7.38 0.0 0.0 -3.69 6.391267479929157 0.0 0.0 -0.0 15.0" Properties=species:S:1:pos:R:3:momenta:R:3:mace_forces:R:3:forces:R:3:REF_forces:R:3 T=600.0 mace_forces_rms=1.5816816637885918 energy=-2791.0125956124944 REF_energy=-2791.0125956124944 pbc="T T T"
C       -0.00075760      -0.01156874       7.51763535       0.11441491      -1.91636850       0.42838841      -2.17724401      -1.21146918      -0.38740918      -2.02466918      -1.34483993      -0.39073415      -2.02466918      -1.34483993      -0.39073415
C        1.22451689       0.61879616       7.51754362       0.61092523       2.06607586      -0.12489328      -0.91091775       3.71255561       0.13366209      -1.21912199       3.74260215       0.04585331      -1.21912199       3.74260215       0.04585331
C       -1.21896622       2.12539326       7.53653768      -0.48193039      -0.64278835       1.50261237       0.73107013       2.17052825      -0.98706428       0.54186719       2.12526102      -1.01549293       0.54186719       2.12526102      -1.01549293
C        0.02620329       2.86704602       7.49699884      -0.12575481       0.08801670      -0.33593779      -0.28303810      -2.33765596       1.19883506      -0.07269589      -2.28919224       1.18902054      -0.07269589      -2.28919224       1.18902054
C       -2.48174738       4.26625436       7.48151653      -0.28681116       1.39090209       0.30602238       3.13121277       1.71836507       0.07473416       2.73002536       1.78290398       0.29512331       2.73002536       1.78290398       0.29512331
C       -1.19416413       5.00435374       7.63455668       0.97813986      -0.97586123      -0.97770002      -1.98088941      -0.88081355      -1.11395930      -1.72624200      -0.55756917      -1.19784482      -1.72624200      -0.55756917      -1.19784482
C        2.45037710       0.03235173       7.52633250      -0.34285092       0.50156938       0.30752686       1.95521542      -1.93719322       0.21751043       2.28345662      -2.29878451       0.23308387       2.28345662      -2.29878451       0.23308387
C        3.71240018       0.73949420       7.43464274       0.37838947      -0.24645457       0.42751550      -2.40823642       0.37223987       0.20614352      -2.91380190       0.84228902       0.08197448      -2.91380190       0.84228902       0.08197448
C        1.21561379       2.05895372       7.54169421      -1.04401873      -1.22409996      -0.06925047       0.64578069       1.32619680      -0.40449787       0.40277591       1.49269096      -0.41151817       0.40277591       1.49269096      -0.41151817
C        2.45000839       2.77940210       7.52460193      -0.86590502       1.85657582      -1.58722869       0.90969171       1.34756697      -0.73686371       0.93753554       1.43471182      -0.76444913       0.93753554       1.43471182      -0.76444913
C        0.03548753       4.28243644       7.59188283      -1.17109051      -0.69618780      -0.71945376      -1.96913361      -0.45902098      -0.69072062      -2.01150204      -0.60494535      -0.64330107      -2.01150204      -0.60494535      -0.64330107
C        1.19977847       4.99699181       7.47766029       0.96731377       0.12528665      -0.40612036       1.50435492      -0.46607419       1.19284594       1.59823321      -0.41448394       1.13254189       1.59823321      -0.41448394       1.13254189
C        4.83435314       0.02453249       7.50070868      -0.37864068      -0.92213927      -0.77638894       4.78865610      -0.46239653      -0.52879956       5.14325533      -0.97239096      -0.38582154       5.14325533      -0.97239096      -0.38582154
C        6.11953017       0.74071041       7.51529525       0.24906426       0.03439847       0.94225857       0.50983805      -2.15799191       0.08981645       0.51984363      -1.87357521       0.13747586       0.51984363      -1.87357521       0.13747586
C        3.77098666       2.14364084       7.35232559       0.14857204      -0.54829645       0.40009747      -2.95620282       0.75501376       0.98041730      -2.82843356       0.81929334       1.09098695      -2.82843356       0.81929334       1.09098695
C        4.96525216       2.89647330       7.38918180      -0.21854980       0.07632692       0.32567225      -0.81415026      -2.33466925       0.74741441      -0.73043370      -2.68583761       0.65836465      -0.73043370      -2.68583761       0.65836465
C        2.41295351       4.23287018       7.53260355       1.18443907       0.24909326       0.66827802       1.45058244       0.10836284      -1.02745543       1.39014200       0.02620854      -1.09613918       1.39014200       0.02620854      -1.09613918
C        3.68817406       4.94074035       7.42828195       0.28429342       0.78395097      -0.31139852      -2.12658986       0.73645561       1.03539058      -2.02023531       0.77565812       1.04087615      -2.02023531       0.77565812       1.04087615
18
Lattice="7.38 0.0 0.0 -3.69 6.391267479929157 0.0 0.0 -0.0 15.0" Properties=species:S:1:pos:R:3:momenta:R:3:mace_forces:R:3:forces:R:3:REF_forces:R:3 T=100.0 mace_forces_rms=0.6073017786763841 energy=-2792.1162692056578 REF_energy=-2792.1162692056578 pbc="T T T"
C       -0.00117391       0.03709442       7.51436850       0.18951532      -0.04105511       0.21038728      -0.42696548      -1.20379344       0.09441732      -0.45073727      -1.18817336       0.09238514      -0.45073727      -1.18817336       0.09238514
C        1.23100532       0.70295855       7.52677978       0.54033178      -0.37321857       0.73545888       0.66026570       0.39155520      -0.17935539       0.68763203       0.39001244      -0.18627308       0.68763203       0.39001244      -0.18627308
C       -1.26301655       2.15149702       7.44767231       0.27205504      -0.04369778      -0.00955812       1.27717863      -1.10510285       0.07032231       1.34509704      -1.11386668       0.12122957       1.34509704      -1.11386668       0.12122957
C       -0.00954363       2.82104525       7.47998865      -0.62521938       0.24448996       0.48169141       0.54592734       0.32555198      -0.24843920       0.49865826       0.33331447      -0.22843480       0.49865826       0.33331447      -0.22843480
C       -2.46277574       4.29272656       7.43709446       0.18132173       0.02757185      -0.05861159       0.27539418      -0.93313032       0.19452757       0.24063237      -0.81418095       0.18424911       0.24063237      -0.81418095       0.18424911
C       -1.21010032       4.97840193       7.42961071       0.05867067      -0.26257550       0.07988570      -0.42168338      -0.66047436       0.46490535      -0.42329048      -0.65235264       0.45318521      -0.42329048      -0.65235264       0.45318521
C        2.47484255      -0.00510518       7.52805042       0.04552416      -0.10061183       0.18323218      -1.22088367      -0.02180644      -0.37901054      -1.32024579      -0.11962237      -0.35004901      -1.32024579      -0.11962237      -0.35004901
C        3.66612894       0.70626750       7.52582836      -0.09601303       0.29570781      -0.60020641       1.34362733       0.06572413      -0.00919868       1.44449975       0.11315374       0.00276959       1.44449975       0.11315374       0.00276959
C        1.24774575       2.11813340       7.50487112       0.39161343       0.22504801      -0.59960206      -1.14989850       0.08500923       0.28667458      -1.10274409       0.08792864       0.26094409      -1.10274409       0.08792864       0.26094409
C        2.46886975       2.81952141       7.53731063       0.07320866      -0.74166206       0.25934597       0.14873144       0.71151303       0.09599890       0.12985125       0.70842325       0.08268976       0.12985125       0.70842325       0.08268976
C        0.00730369       4.23539064       7.46477615      -0.24965130       0.24718684      -0.27389605       0.27388015       0.61798986       0.06875412       0.27936861       0.64621387       0.08380768       0.27936861       0.64621387       0.08380768
C        1.24777525       4.95194015       7.52830245       0.07158483      -0.29044709      -0.02237818      -0.69779108       0.42831197       0.10857159      -0.68016169       0.36197404       0.08828577      -0.68016169       0.36197404       0.08828577
C        4.89549756       0.00170666       7.51980857      -0.44564299       0.38213067      -0.52065467       1.31801612      -0.65162053      -0.08381034       1.31940761      -0.61189607      -0.11472622       1.31940761      -0.61189607      -0.11472622
C        6.14360020       0.72184564       7.49217966       0.35394461       0.23173169      -0.21852210      -1.03061154       0.23859310       0.09145371      -1.03508654       0.23283627       0.07212639      -1.03508654       0.23283627       0.07212639
C        3.69298526       2.11789892       7.51730440       0.31470000       0.40585635       0.15171583      -0.22021196       0.38140927      -0.21788167      -0.18257249       0.40280753      -0.22426447      -0.18257249       0.40280753      -0.22426447
C        4.90891945       2.84445176       7.43106570      -0.59539077       0.19250801      -0.09802222      -0.39825974       1.09683868       0.36959043      -0.48718857       1.02510911       0.36898519      -0.48718857       1.02510911       0.36898519
C        2.47978784       4.24466376       7.58241147       0.04263298       0.27637274       0.27328526      -0.25005700       0.61397618      -0.57991657      -0.26634752       0.63739756      -0.57386123      -0.26634752       0.63739756      -0.57386123
C        3.69214859       4.99843397       7.53257667      -0.52318573      -0.67533599       0.02644889      -0.02665852      -0.38054468      -0.14760348       0.00322776      -0.43907886      -0.13304893       0.00322776      -0.43907886      -0.13304893
18
Lattice="7.38 0.0 0.0 -3.69 6.391267479929157 0.0 0.0 -0.0 15.0" Properties=species:S:1:pos:R:3:momenta:R:3:mace_forces:R:3:forces:R:3:REF_forces:R:3 T=600.0 mace_forces_rms=1.5093154768987505 energy=-2791.1702351048784 REF_energy=-2791.1702351048784 pbc="T T T"
C        0.02616109       0.05932877       7.37793623      -0.29580908      -0.93724468      -0.04316264      -1.39512234      -1.01699657       0.32119884      -1.15854371      -1.14544574       0.38633370      -1.15854371      -1.14544574       0.38633370
C        1.26092312       0.71203443       7.39844390      -0.61668607      -1.35404598       0.11020971      -0.87705498       1.97985044       0.74374757      -0.98596253       1.76808337       0.74192576      -0.98596253       1.76808337       0.74192576
C       -1.26088723       2.13232490       7.48622135       1.33119342      -0.24066656      -0.33342645       2.50806557       2.39450076      -0.60761486       2.19714906       2.44250969      -0.38614858       2.19714906       2.44250969      -0.38614858
C        0.03212148       2.85289701       7.52740443      -0.15058572       0.43168114      -0.26802259      -1.81040239      -0.17004792       0.16477539      -1.35396529       0.02987519       0.15792873      -1.35396529       0.02987519       0.15792873
C       -2.49813420       4.23151144       7.61464374       0.55459893       0.73995564       0.16216877       0.44447982       2.00707365      -0.07742659       0.27852323       2.10920422      -0.07685773       0.27852323       2.10920422      -0.07685773
C       -1.27625558       5.01132120       7.66930931      -0.97394465       0.51743568       1.57976819       1.03656161      -4.46435086      -1.20032267       0.80240916      -4.53371774      -1.14845907       0.80240916      -4.53371774      -1.14845907
C        2.42971152      -0.03778703       7.51467613       0.91667188       1.03419897       0.61214462       1.20922561       1.66290996       0.17730637       1.15267466       1.78449600       0.12662323       1.15267466       1.78449600       0.12662323
C        3.70245836       0.62545584       7.46916936      -1.97765689       0.21714444      -0.04058959      -1.58679538       2.05459093      -0.40795600      -1.89937366       2.32744357      -0.36853704      -1.89937366       2.32744357      -0.36853704
C        1.27773850       2.18247452       7.51311371      -1.76996635      -1.55153478       0.51041057      -1.32130642      -3.00501468      -0.64192723      -1.60593366      -2.82306150      -0.72057506      -1.60593366      -2.82306150      -0.72057506
C        2.49682674       2.80861927       7.54273557       0.29762160       0.07143322      -0.19129719       0.42769948       1.66522283      -0.40955456       0.60137434       1.75520060      -0.38838622       0.60137434       1.75520060      -0.38838622
C       -0.00840610       4.25696485       7.56325389       1.19690114      -0.10202376      -0.18679552      -0.38743291       1.41621180       0.66468329      -0.09490919       1.23150416       0.65192043      -0.09490919       1.23150416       0.65192043
C        1.23964147       4.97394688       7.52910577      -0.20533261       1.25818476       1.24752139      -0.98225835      -0.64880464      -0.15462028      -0.98557275      -0.77691744      -0.13654769      -0.98557275      -0.77691744      -0.13654769
C        4.89161574      -0.00632487       7.43391224       0.10972962      -0.19864411      -0.47936329       3.50785236       0.16001343      -0.05098957       3.50135682      -0.20875326      -0.15110013       3.50135682      -0.20875326      -0.15110013
C        6.15049717       0.79856722       7.32675765      -0.61598962       0.99911743      -0.61709145      -0.87714979      -4.56060249       1.04293102      -0.58809691      -4.58272733       0.97062847      -0.58809691      -4.58272733       0.97062847
C        3.71536434       2.04872455       7.42050476       1.54300367      -0.28057858      -0.50831051      -1.03768647       1.52173014       0.96155090      -0.89396640       1.60563644       0.98554344      -0.89396640       1.60563644       0.98554344
C        4.89672387       2.82328432       7.51049369      -0.08146487       0.57535240      -1.32787072       0.15687227      -0.35056514       0.09950683      -0.05428602      -0.38754007       0.05982623      -0.05428602      -0.38754007       0.05982623
C        2.44955196       4.26243423       7.55823049       0.47704097      -1.15849784       0.07577947       1.59201548      -0.27291040      -0.20457484       1.44101436      -0.29711257      -0.21257290       1.44101436      -0.29711257      -0.21257290
C        3.68434774       5.00309484       7.54408778       0.26067465      -0.02126740      -0.30207278      -0.60756317      -0.37281123      -0.42071363      -0.35389152      -0.29867811      -0.49154556      -0.35389152      -0.29867811      -0.49154556
18
Lattice="7.38 0.0 0.0 -3.69 6.391267479929157 0.0 0.0 -0.0 15.0" Properties=species:S:1:pos:R:3:momenta:R:3:mace_forces:R:3:forces:R:3:REF_forces:R:3 T=300.0 mace_forces_rms=1.3153481938759233 energy=-2791.5639436926217 REF_energy=-2791.5639436926217 pbc="T T T"
C        0.01831922      -0.05439724       7.60054341      -0.28648833      -0.95988328       0.06893329      -0.10526575       1.96487147       0.06616255      -0.15478838       1.99136002       0.03486776      -0.15478838       1.99136002       0.03486776
C        1.22895554       0.72983660       7.49266357      -0.85431838      -0.21346985      -0.19793848      -0.62180894      -1.37233647       0.14273497      -0.59550117      -1.36130785       0.18868786      -0.59550117      -1.36130785       0.18868786
C       -1.23211201       2.11652049       7.52213801      -0.33290263      -0.66633374       0.54176412       1.37769175      -0.18922329       0.34528559       1.25842130      -0.18357008       0.32840006       1.25842130      -0.18357008       0.32840006
C        0.01217786       2.84215373       7.45959233       0.04122515      -0.77618241       0.11423246      -1.24901685      -0.82845839       0.01235294      -1.22027539      -0.83057174       0.06738296      -1.22027539      -0.83057174       0.06738296
C       -2.42251007       4.26051610       7.52377892       0.34255286      -0.07795703      -0.20491504      -1.80661500      -0.20832276       0.72363182      -1.83009323      -0.27175481       0.69001030      -1.83009323      -0.27175481       0.69001030
C       -1.21197379       4.95227994       7.51210175      -0.15173457      -0.04012994      -0.88755859      -1.22235283       2.20246808      -0.69260251      -1.19317467       2.04891391      -0.62652102      -1.19317467       2.04891391      -0.62652102
C        2.42405329       0.03164812       7.45019806      -0.12177814       0.23926054       0.48231453       2.67140391      -1.30720910       0.33965928       2.57304717      -1.18573184       0.34049916       2.57304717      -1.18573184       0.34049916
C        3.69342124       0.74688569       7.45441578      -0.42790971      -0.51124233      -0.97323749      -1.58146298      -0.31449541       0.16671059      -1.50902698      -0.09265202       0.20923946      -1.50902698      -0.09265202       0.20923946
C        1.22755174       2.13130803       7.43992977       0.35574807       0.00387986      -0.47261708       0.04505564      -0.04800955       0.17572537       0.03597076      -0.01441823       0.13150498       0.03597076      -0.01441823       0.13150498
C        2.45518658       2.82833417       7.46489295       0.62261572       0.23899957       0.21062837      -0.73072347       0.66727471       0.32429219      -0.67720698       0.60060867       0.34230999      -0.67720698       0.60060867       0.34230999
C       -0.03713664       4.22861920       7.43403541      -0.67861899      -0.12397079      -0.72327351       3.25331041       2.32984509      -0.10551666       2.88875601       2.04025855      -0.17694563       2.88875601       2.04025855      -0.17694563
C        1.23905139       5.00432784       7.39195859       0.67599494       1.05210986       0.43366369      -2.70671361      -1.74070685       0.47271674      -2.10987399      -1.52812514       0.47069468      -2.10987399      -1.52812514       0.47069468
C        4.89209423       0.03116215       7.43654922       0.64691084      -0.32325828       0.56537433       2.62978016      -0.59595931       0.78653125       2.60845615      -0.68735563       0.89349743       2.60845615      -0.68735563       0.89349743
C        6.20400444       0.68718906       7.61462562      -0.48570681       0.21913842       0.31004796      -2.97535167       0.39570197      -1.16055374      -2.91421714       0.47028331      -1.28363071      -2.91421714       0.47028331      -1.28363071
C        3.68228738       2.16666480       7.55722981       0.43769781       1.09148437       0.05347079       0.91660833      -0.88589080      -0.86228828       0.82089230      -1.03420182      -0.82873468       0.82089230      -1.03420182      -0.82873468
C        4.93738440       2.84858094       7.52913226      -0.07352382      -0.27729154       0.27686644      -0.40384078      -0.40694023       0.15066684      -0.26632438      -0.37817816       0.11665095      -0.26632438      -0.37817816       0.11665095
C        2.41147510       4.23584492       7.48845053       0.38203205       1.27457343       0.92898394       2.47049484       1.70384598       0.17450492       2.14335747       1.75805606       0.26613257       2.14335747       1.75805606       0.26613257
C        3.68777011       4.95139780       7.62776399      -0.09179606      -0.14972685      -0.52673975       0.03880684      -1.36645515      -1.06001385       0.14158140      -1.34161320      -1.16404613       0.14158140      -1.34161320      -1.16404613
18
Lattice="7.38 0.0 0.0 -3.69 6.391267479929157 0.0 0.0 -0.0 15.0" Properties=species:S:1:pos:R:3:momenta:R:3:mace_forces:R:3:forces:R:3:REF_forces:R:3 T=300.0 mace_forces_rms=1.3146056396028234 energy=-2791.4682886033747 REF_energy=-2791.4682886033747 pbc="T T T"
C        0.02904281       0.03530693       7.38028051       0.23616601       0.13943357       0.65022004      -2.20740967      -0.23844336       1.37359227      -1.82311449      -0.12178904       1.47482360      -1.82311449      -0.12178904       1.47482360
C        1.25295956       0.75545263       7.61857268      -0.63550676       0.49562641       0.14534040      -1.17507013      -2.02219522      -1.05990570      -1.41798165      -2.13582979      -1.12457250      -1.41798165      -2.13582979      -1.12457250
C       -1.20437356       2.13449278       7.48706584      -0.01942059       0.68279806      -0.38911375      -0.60172874      -0.34381715       0.17299603      -0.56448467      -0.38306737       0.25269316      -0.56448467      -0.38306737       0.25269316
C        0.03791623       2.83482628       7.51722485      -0.17208946      -0.48737316       0.20246069      -2.07515373       0.30298449      -0.39016847      -2.27064045       0.36826990      -0.45131191      -2.27064045       0.36826990      -0.45131191
C       -2.45447326       4.25274213       7.50231708      -0.78161096       0.61245155       0.98867555       0.32529141       0.28727217       0.25209009       0.17429328       0.11723151       0.24786334       0.17429328       0.11723151       0.24786334
C       -1.17523552       4.95008862       7.58270270       0.23591562       0.05981439      -0.57469695      -3.90320260       0.25191162      -0.35628946      -3.94030173       0.51894863      -0.30670175      -3.94030173       0.51894863      -0.30670175
C        2.44378590      -0.02205354       7.65886285      -0.33706676      -0.83730124       0.15973479       0.28087368       0.72611297      -0.79752589       0.33794400       0.67757953      -0.76112650       0.33794400       0.67757953      -0.76112650
C        3.63521664       0.69106293       7.51869441      -0.68999680      -0.06075850      -0.27550574       1.01651414       1.04188915       0.33224154       1.01186845       0.90145217       0.29582444       1.01186845       0.90145217       0.29582444
C        1.22629838       2.15312074       7.53352199      -0.08413743       0.87022906      -0.39117503       1.55533625      -0.55409574       0.14457130       1.70196333      -0.70685771       0.13359452       1.70196333      -0.70685771       0.13359452
C        2.46493688       2.83854707       7.46471282       0.26639109      -0.64953156      -0.02473042      -0.20350607       0.36481810       0.50696733      -0.15333057       0.35845600       0.49015896      -0.15333057       0.35845600       0.49015896
C       -0.01915135       4.24040607       7.48546734       1.10738002      -0.11061150      -0.47111316       3.41525488       0.62076126       0.88120175       3.38097855       0.43548317       0.75600023       3.38097855       0.43548317       0.75600023
C        1.25286551       4.97469712       7.50744521      -1.14705858      -0.86291551      -0.25933300      -2.23786712      -1.43728521      -0.77487727      -1.98627489      -1.20509919      -0.70510422      -1.98627489      -1.20509919      -0.70510422
C        4.84682198      -0.02231440       7.44070387       1.13978363       0.36960088       0.76944767       3.30022118       1.66584766       0.40051678       2.84555788       1.40504951       0.34055675       2.84555788       1.40504951       0.34055675
C        6.12054723       0.73595294       7.41905557       0.30593375       0.17861608      -0.52364889       0.63115678      -1.84173583      -0.20808897       0.85791156      -1.57773766      -0.25023879       0.85791156      -1.57773766      -0.25023879
C        3.66910961       2.13897358       7.48663345       0.50301517      -0.53525966      -0.59769757       1.32027196      -1.34712870       0.12194491       1.27532733      -1.27930483       0.08298493       1.27532733      -1.27930483       0.08298493
C        4.94250441       2.81886343       7.52521622      -1.07451362       0.37851516       0.47144714      -1.34388673       1.22884065      -0.59908533      -1.32754001       1.31782561      -0.53483034      -1.32754001       1.31782561      -0.53483034
C        2.45956290       4.23623438       7.45277086       0.83804362       0.06147393      -0.21576295       0.58515061       2.08690444      -0.16438921       0.60090280       2.11270838      -0.12704489       0.60090280       2.11270838      -0.12704489
C        3.68166567       4.99247264       7.41875175       0.30877205      -0.30480794       0.33545115       1.31775391      -0.79264131       0.16420830       1.29692151      -0.80331881       0.18643069       1.29692151      -0.80331881       0.18643069
18
Lattice="7.38 0.0 0.0 -3.69 6.391267479929157 0.0 0.0 -0.0 15.0" Properties=species:S:1:pos:R:3:momenta:R:3:mace_forces:R:3:forces:R:3:REF_forces:R:3 T=100.0 mace_forces_rms=0.6962057825631791 energy=-2792.0982457455543 REF_energy=-2792.0982457455543 pbc="T T T"
C       -0.00319828      -0.00064495       7.50890319      -0.12092760      -0.06543365      -0.05059942      -0.32919931       0.99909182       0.10364222      -0.34852897       1.05066511       0.10441867      -0.34852897       1.05066511       0.10441867
C        1.22649976       0.71468883       7.51908146       0.29474767      -0.00589968      -0.36029361      -0.53261903       0.22542983      -0.21383269      -0.57100884       0.28738840      -0.22286065      -0.57100884       0.28738840      -0.22286065
C       -1.23798130       2.13122386       7.44737391       0.24077423       0.05325378       0.42154727      -0.16385695      -0.27498668       0.44409194      -0.14717406      -0.30587283       0.44624684      -0.14717406      -0.30587283       0.44624684
C       -0.00607658       2.82415002       7.53995953      -0.08855234      -0.07945962       0.09020894       0.52621147       0.44424610      -0.89291681       0.53405284       0.42515325      -0.90490284       0.53405284       0.42515325      -0.90490284
C       -2.46004569       4.25460596       7.51743841      -0.16860541       0.19665328       0.10399815       1.15894552       1.14589511      -0.13799703       0.97171553       1.02010421      -0.12842995       0.97171553       1.02010421      -0.12842995
C       -1.18749898       4.98208177       7.53425111       0.21712357       0.20414983      -0.18901614      -2.35614203      -0.75395199      -0.26525903      -2.20143561      -0.61012407      -0.25976395      -2.20143561      -0.61012407      -0.25976395
C        2.43669098       0.01450546       7.51786087       0.19835246       0.18135840      -0.12580060       1.06759444      -0.73434142      -0.10927911       1.10382909      -0.80880015      -0.12218911       1.10382909      -0.80880015      -0.12218911
C        3.66400863       0.71610139       7.45642835      -0.27281671       0.40380305      -0.36038296       0.61347524      -0.60407994       0.29159918       0.63479843      -0.63633286       0.29970990       0.63479843      -0.63633286       0.29970990
C        1.23916240       2.13303468       7.48879779      -0.51348270      -0.35307953      -0.12309504       0.25320091       0.16115798       0.75025680       0.16777837       0.12905061       0.75573129       0.16777837       0.12905061       0.75573129
C        2.49959365       2.84510064       7.53709340       0.38894527       0.76503765      -0.05470386      -1.79330023      -0.22600612      -0.54680300      -1.72223031      -0.14302790      -0.54315428      -1.72223031      -0.14302790      -0.54315428
C        0.01511482       4.25007490       7.50505748       0.00702198      -0.05067605       0.12899996      -0.40340722      -0.13702043       0.50753623      -0.44635482      -0.19109313       0.50193102      -0.44635482      -0.19109313       0.50193102
C        1.22634287       4.95415250       7.52226792      -0.84998536      -0.30875340       0.74325521       0.50314100       0.51836912      -0.35730670       0.55147977       0.57166165      -0.37478945       0.55147977       0.57166165      -0.37478945
C        4.88706549      -0.00927261       7.46613985       0.32741229       0.03482994       0.09170410       0.77725574       0.09648009       0.13724435       0.74096468       0.06467739       0.14122195       0.74096468       0.06467739       0.14122195
C        6.12871516       0.70815607       7.47606348       0.21969614      -0.20808355       0.33425138       0.11782504      -0.27329144      -0.18958686       0.13984796      -0.20676040      -0.15965959       0.13984796      -0.20676040      -0.15965959
C        3.70182754       2.11603655       7.47617978      -0.08604493      -0.09832478       0.13472730      -0.35221006       0.77693973      -0.10283448      -0.37048620       0.78953590      -0.10159766      -0.37048620       0.78953590      -0.10159766
C        4.90563581       2.84459646       7.44332872       0.42283025      -0.28543392       0.11045868       0.95238080      -0.25442546       0.39347633       0.96946556      -0.19460037       0.38086137       0.96946556      -0.19460037       0.38086137
C        2.46579666       4.26179657       7.51869639       0.06000995      -0.34326101      -0.71771384       0.78071779       0.40152528       0.25076483       0.73093712       0.33241279       0.24732855       0.73093712       0.33241279       0.24732855
C        3.70834706       4.99848425       7.52507834      -0.27649875      -0.04068073      -0.17754552      -0.82001312      -1.51103157      -0.06279617      -0.73765078      -1.57403733      -0.06010211      -0.73765078      -1.57403733      -0.06010211
18
Lattice="7.38 0.0 0.0 -3.69 6.391267479929157 0.0 0.0 -0.0 15.0" Properties=species:S:1:pos:R:3:momenta:R:3:mace_forces:R:3:forces:R:3:REF_forces:R:3 T=600.0 mace_forces_rms=1.200840457443206 energy=-2791.3534015964665 REF_energy=-2791.3534015964665 pbc="T T T"
C        0.00406928       0.01735570       7.55868950      -0.91593335      -0.52522192       0.30725525      -0.86408642      -0.53989595      -0.37979775      -0.81131469      -0.80656792      -0.42838847      -0.81131469      -0.80656792      -0.42838847
C        1.25688529       0.73846470       7.58838429      -1.25880902      -1.01972822       0.39206738      -1.63451967      -0.92837761       0.41547741      -1.62021768      -0.89855659       0.32492548      -1.62021768      -0.89855659       0.32492548
C       -1.22562893       2.10134464       7.55020825       1.30932964       0.71991070      -0.57798697       0.36872700       1.16644840      -0.39468807       0.05306088       1.06768838      -0.42616421       0.05306088       1.06768838      -0.42616421
C        0.03418025       2.85999631       7.51099719       0.63111206       0.52433403      -1.00860933      -0.79470626      -1.15848837      -0.14034825      -0.60293603      -0.89377871      -0.14853571      -0.60293603      -0.89377871      -0.14853571
C       -2.44368528       4.24222227       7.31070736      -0.28713533      -1.04765578      -0.14432360      -2.36536509       1.18928477       1.59652387      -1.79165884       1.30112012       1.64192242      -1.79165884       1.30112012       1.64192242
C       -1.26484410       4.98197398       7.54099755       1.30845181      -0.45932238       0.05671886       2.11023767      -0.37519959      -1.69760447       1.65285681      -0.50906351      -1.77107973       1.65285681      -0.50906351      -1.77107973
C        2.43868692       0.00245153       7.60909921      -0.16149608      -0.97025392      -0.26573666       1.13477838       0.35746363      -0.44533606       1.06233098       0.20397770      -0.41947985       1.06233098       0.20397770      -0.41947985
C        3.70168542       0.72272950       7.55989930      -0.92667372       0.44874372      -0.91322781      -1.92054805      -1.65401516       0.24539350      -1.96202991      -1.61761135       0.27445755      -1.96202991      -1.61761135       0.27445755
C        1.28759310       2.14185482       7.59531305      -0.44124869       0.19434415      -0.23190538      -1.80173144       0.72126012      -0.36186365      -1.78656266       0.74434568      -0.43039881      -1.78656266       0.74434568      -0.43039881
C        2.49534447       2.84359880       7.54319183      -0.09878651       0.66097691       0.18342871      -0.10595963      -0.19481488      -0.17019961      -0.18343561      -0.00535432      -0.10525659      -0.18343561      -0.00535432      -0.10525659
C        0.02673042       4.29627849       7.38025045      -0.49264868      -0.50817443       0.65389333      -2.83849150      -1.82001472       1.05729532      -3.11550829      -2.18670910       1.24995800      -3.11550829      -2.18670910       1.24995800
C        1.20512591       4.96783906       7.35955505       1.62050628      -0.66858692       0.39832601       1.04773275       0.30369929       1.13150701       1.46575557       0.53153701       1.06781282       1.46575557       0.53153701       1.06781282
C        4.86847691      -0.01660484       7.50545327      -0.45275919       0.55576829       0.32775973       1.54315623      -0.00850358      -0.13413352       1.73982617      -0.14370204      -0.21777732       1.73982617      -0.14370204      -0.21777732
C        6.08938953       0.66441615       7.60285381      -0.27723054       1.13393257      -1.06782949       2.61077712       1.69956291      -0.48237959       2.43317145       1.70584647      -0.40264170       2.43317145       1.70584647      -0.40264170
C        3.71535949       2.09875520       7.53789238       0.74848523       1.09935118       0.25050404      -0.43570410       2.14411117      -0.46885194      -0.20565611       2.30622580      -0.51901137      -0.20565611       2.30622580      -0.51901137
C        4.92083319       2.83385937       7.39803528      -0.41922830      -1.35919553       1.26242805       1.20012042      -0.81361218       0.51410558       1.18085497      -0.97954300       0.54186153       1.18085497      -0.97954300       0.54186153
C        2.43882971       4.25717992       7.45548497       0.65540867       0.03628215       0.32921576       0.89090184       0.49858000      -0.73040406       0.82004024       0.44497517      -0.69780074       0.82004024       0.44497517      -0.69780074
C        3.66096842       4.98515676       7.39298725      -0.54134428       1.18449540       0.04802212       1.85468076      -0.58748825       0.44530427       1.67142274      -0.26482980       0.46559670       1.67142274      -0.26482980       0.46559670
18
Lattice="7.38 0.0 0.0 -3.69 6.391267479929157 0.0 0.0 -0.0 15.0" Properties=species:S:1:pos:R:3:momenta:R:3:mace_forces:R:3:forces:R:3:REF_forces:R:3 T=300.0 mace_forces_rms=1.2159107483843314 energy=-2791.578798659188 REF_energy=-2791.578798659188 pbc="T T T"
C       -0.02581698      -0.02058936       7.44738470      -0.46897688      -0.68912443      -0.09930562       0.15793377       1.94422694      -0.12005612       0.16563998       1.86955452      -0.06476763       0.16563998       1.86955452      -0.06476763
C        1.19021931       0.71483272       7.49136376       1.43420109      -0.17328098      -0.26017267       0.95847403      -0.25471494       0.33126670       1.10005343      -0.23582904       0.31284052       1.10005343      -0.23582904       0.31284052
C       -1.28438169       2.12814328       7.44619746       0.60448346      -0.14094122      -0.06515062       3.29538006       0.98595210       0.18107937       3.19376830       0.88123095       0.16309793       3.19376830       0.88123095       0.16309793
C       -0.00032228       2.85481911       7.50410602       0.11842179       0.53404434      -0.25621390      -1.67141216      -0.37127177       0.35089091      -1.42676119      -0.05101917       0.33529911      -1.42676119      -0.05101917       0.33529911
C       -2.46303629       4.27368137       7.47450204      -0.25508621       0.12443411      -0.20539135       0.12756890      -0.66305397       0.07712050       0.24006467      -0.61020686       0.10289915       0.24006467      -0.61020686       0.10289915
C       -1.25893249       4.98683326       7.56297606       0.68184111       0.00004788       1.04424538       0.80631830       0.26793881      -0.54812428       0.67428697       0.29070564      -0.54396341       0.67428697       0.29070564      -0.54396341
C        2.43947841       0.02079890       7.51897841       0.32822081       0.14316258       0.28191878       0.70130247       0.07097218       0.84887547       0.53288530       0.05606985       0.81896243       0.53288530       0.05606985       0.81896243
C        3.71705152       0.71111484       7.62170728      -0.75688576       0.98356987       0.35449570      -1.04241083      -1.11603691      -1.00624810      -0.86981320      -1.04967292      -1.09521024      -0.86981320      -1.04967292      -1.09521024
C        1.22134121       2.13318282       7.56222884      -0.54223264      -0.11726260      -0.00674542       0.11341577       0.12313907      -0.48672596       0.14940886       0.11221991      -0.49748815       0.14940886       0.11221991      -0.49748815
C        2.48550927       2.80442429       7.56399227      -0.76874849      -1.29642571       0.13630932      -0.82544011       0.85035351      -0.33668935      -0.87030222       0.94267543      -0.36473695      -0.87030222       0.94267543      -0.36473695
C       -0.04625461       4.26928318       7.57905240      -0.17978473       0.43288703       0.26511936       4.09039713       0.80788099      -0.90763743       3.27381985       0.15269679      -0.94341283       3.27381985       0.15269679      -0.94341283
C        1.31118399       4.97039795       7.43980608      -0.00250579       0.10809431      -0.06553155      -4.42773722      -1.41306865       0.43823394      -3.50668569      -1.01850575       0.51787674      -3.50668569      -1.01850575       0.51787674
C        4.95740651      -0.01171130       7.45426256      -0.04123065      -0.28342742      -1.12383059      -1.43994587       0.28411108       0.60788642      -1.56788108       0.29568123       0.65249122      -1.56788108       0.29568123       0.65249122
C        6.12234574       0.73761846       7.43894617      -0.05708508       0.25816118       0.15286064       1.40872867      -1.55018416      -0.11687266       1.42131380      -1.61910028      -0.08953661       1.42131380      -1.61910028      -0.08953661
C        3.71393934       2.11913345       7.60851392      -0.92585366      -0.43656098      -0.10027669      -0.43025318      -0.26766401      -0.68161865      -0.35463766      -0.28293730      -0.64632134      -0.35463766      -0.28293730      -0.64632134
C        4.92314062       2.83800462       7.45245329       1.00554971       0.17120403      -0.70368952      -0.82871092       1.11846686       0.72813313      -1.03895631       1.10501180       0.71939775      -1.03895631       1.10501180       0.71939775
C        2.49980912       4.23162228       7.39586621      -0.35553331       0.23940253      -0.38707020      -0.36946432      -0.01924274       0.90810561      -0.48161210      -0.12220530       0.89363678      -0.48161210      -0.12220530       0.89363678
C        3.70731929       4.97728251       7.43766251       0.18120520       0.14201547       1.03842897      -0.62414448      -0.79780437      -0.26761950      -0.63459171      -0.71636950      -0.27106446      -0.63459171      -0.71636950      -0.27106446
18
Lattice="7.38 0.0 0.0 -3.69 6.391267479929157 0.0 0.0 -0.0 15.0" Properties=species:S:1:pos:R:3:momenta:R:3:mace_forces:R:3:forces:R:3:REF_forces:R:3 T=600.0 mace_forces_rms=1.6870368534974773 energy=-2791.0729776732924 REF_energy=-2791.0729776732924 pbc="T T T"
C        0.01560352      -0.01989086       7.53943903      -0.51914801      -0.23333680      -1.13573289      -1.67610062       3.02625839      -0.02028455      -1.50049580       2.88627773      -0.02400510      -1.50049580       2.88627773      -0.02400510
C        1.22074541       0.78311479       7.46539540      -0.44594294      -1.58350075      -1.35055575       0.54244988      -5.98347829       0.28690902       0.42413535      -7.07653799       0.26592303       0.42413535      -7.07653799       0.26592303
C       -1.22400882       2.20553240       7.59413162       1.30140048       0.72268654      -0.36655761       1.76717171      -2.24562464      -0.61374568       1.93666854      -2.36481661      -0.69767887       1.93666854      -2.36481661      -0.69767887
C        0.06338176       2.86256853       7.42619659       0.80810069      -0.07803338      -0.47033565      -2.73480991      -0.75218663       0.77080470      -2.75961207      -0.69588733       0.88931630      -2.75961207      -0.69588733       0.88931630
C       -2.53000537       4.22820060       7.58378821       0.61470750      -0.03433466       0.76841867       2.58717379       1.08412146      -1.05513865       2.41473304       0.95453593      -1.12754032       2.41473304       0.95453593      -1.12754032
C       -1.25227716       4.94700528       7.44801852       0.00797810       2.50713542       0.76260562      -0.97881003      -0.46271719      -0.04587212      -0.85835148      -0.21095567       0.01334480      -0.85835148      -0.21095567       0.01334480
C        2.42912556      -0.03480107       7.40644868       0.61194441      -1.45449547       0.79131371       1.15433839       1.94590906       0.96931063       1.09588207       1.69158405       1.05147835       1.09588207       1.69158405       1.05147835
C        3.69989266       0.69496793       7.55639621       0.46091282       0.75349790      -0.79910644      -1.70632431      -1.66752280      -0.78322137      -1.53565307      -1.73778343      -0.92331040      -1.53565307      -1.73778343      -0.92331040
C        1.23613025       2.10146805       7.47789055      -0.04188777       0.51986687       0.52138919       1.52266689       4.13453111      -0.94775487       1.34483196       5.13115752      -0.92023382       1.34483196       5.13115752      -0.92023382
C        2.48823861       2.87048216       7.40945972       0.20375021      -1.94986267       0.64198613      -0.47223826      -3.68768164       1.38773077      -0.24936590      -3.78736505       1.47351773      -0.24936590      -3.78736505       1.47351773
C        0.01446488       4.25200046       7.37448494       0.25019615       0.18764914      -0.44814465      -0.42210797       1.15789776       0.59803917      -0.34475459       1.14775254       0.63012313      -0.34475459       1.14775254       0.63012313
C        1.22533387       4.97390083       7.44468797      -0.48854527       0.66737838       0.50653757       0.94842129       0.11569844      -0.49323805       0.83965313       0.22134010      -0.50949726       0.83965313       0.22134010      -0.50949726
C        4.92805929       0.00878539       7.50348290      -1.67198296       1.17433697       0.16406169       0.62011971       0.07735378       0.78348129       0.61205985       0.02384004       0.85685690       0.61205985       0.02384004       0.85685690
C        6.15586161       0.77048758       7.60678593      -0.26456021       1.04107988       0.21616504       0.61225134      -1.95541603      -0.56455336       0.48885464      -1.78797393      -0.66197062       0.48885464      -1.78797393      -0.66197062
C        3.69410455       2.06923664       7.61181647       0.32874233      -0.74464326       0.86980559      -0.09631185       2.90885364      -1.16117903      -0.16232891       3.04761599      -1.22279789      -0.16232891       3.04761599      -1.22279789
C        4.92178784       2.82390029       7.57665866       0.21162450       0.05778291      -0.70205264      -1.35821808       0.43433560       0.70389542      -1.51273117       0.54051068       0.70337515      -1.51273117       0.54051068       0.70337515
C        2.47325667       4.23903896       7.45108855      -0.38889932      -0.49412104       0.98578969      -1.93437840       1.52646373      -0.03558443      -2.02855231       1.52530824      -0.04574018      -2.02855231       1.52530824      -0.04574018
C        3.65030485       4.96287441       7.52383004      -0.97839070      -1.05908598      -0.95558726       1.62470643       0.34320424       0.22040109       1.79502673       0.49139669       0.24883856       1.79502673       0.49139669       0.24883856
18
Lattice="7.38 0.0 0.0 -3.69 6.391267479929157 0.0 0.0 -0.0 15.0" Properties=species:S:1:pos:R:3:momenta:R:3:mace_forces:R:3:forces:R:3:REF_forces:R:3 T=600.0 mace_forces_rms=1.6775314498390046 energy=-2790.9875780103957 REF_energy=-2790.9875780103957 pbc="T T T"
C       -0.03711849      -0.03747388       7.35025841       0.10556761      -0.03963140      -0.96925576       1.03057023       0.16820843       0.90679037       1.21220572       0.10619762       0.90090015       1.21220572       0.10619762       0.90090015
C        1.19587992       0.64044686       7.42229524       0.25169459      -0.21346996      -0.83039342       2.36325217       1.34964987      -0.16984200       2.08917687       1.18776121      -0.07152989       2.08917687       1.18776121      -0.07152989
C       -1.20768850       2.13269034       7.46323240       0.11053575       0.56806753       0.83439182      -0.20282916       0.58291390       0.68047976      -0.06895313       0.66195956       0.62910961      -0.06895313       0.66195956       0.62910961
C        0.02951774       2.82049539       7.62099177       0.22581501      -0.69466730       0.04403336      -1.01383574       0.65918576      -0.80018688      -1.13903572       0.50308827      -0.83771169      -1.13903572       0.50308827      -0.83771169
C       -2.45992822       4.28532434       7.53046169       1.62595392       0.63959242       0.11306452      -0.41309117      -0.41983110       0.22443963      -0.37543788      -0.51665315       0.26471281      -0.37543788      -0.51665315       0.26471281
C       -1.18819097       4.96546373       7.53572741       0.42557773       0.19270978       0.30928392      -1.97154598      -1.08877446      -0.39560464      -1.97531068      -1.26757648      -0.29744450      -1.97531068      -1.26757648      -0.29744450
C        2.47851636      -0.07330497       7.40066334      -0.24540515       0.12239869       0.61644391       0.11410336       3.78861880       0.54623307       0.07485021       3.89070875       0.42652802       0.07485021       3.89070875       0.42652802
C        3.72150951       0.72482859       7.40108855       0.15205230       0.89768727      -0.30681247      -2.09842406       0.86552669       0.55519487      -1.78798191       0.82985954       0.59485711      -1.78798191       0.82985954       0.59485711
C        1.23540359       2.10773418       7.56782253      -1.18138731       0.55633741       0.55661516      -0.75269574      -1.12906178      -0.07615140      -0.75618998      -0.94835577      -0.11134548      -0.75618998      -0.94835577      -0.11134548
C        2.40668456       2.88662578       7.61299584       0.09874876      -0.40928421       0.63084941       1.79381391      -2.77486242      -1.08865677       1.82602806      -2.88803302      -1.07839651       1.82602806      -2.88803302      -1.07839651
C        0.01788143       4.26548321       7.60991459      -2.02210271       0.03461916       1.09999637       0.51656032      -1.18404580       0.13281862       0.61791117      -1.20731548       0.13307721       0.61791117      -1.20731548       0.13307721
C        1.22954138       4.95409748       7.58020692       0.04430734      -0.39767852       0.66604743       0.29026044       4.39590836      -0.43879411       0.14511152       3.34414904      -0.47089214       0.14511152       3.34414904      -0.47089214
C        4.97915733       0.09761751       7.48775973      -0.14912430      -0.08374713      -0.44278987      -2.83887125      -5.87943903      -0.58225096      -3.47458058      -4.84061849      -0.37922872      -3.47458058      -4.84061849      -0.37922872
C        6.17083668       0.71114328       7.38553106       0.86010959       0.54148178      -0.62163865       0.24179266       1.79964332       0.37533367       0.69942362       2.09466643       0.28853768       0.69942362       2.09466643       0.28853768
C        3.63473212       2.17313243       7.45822109       0.51100640       0.59200813      -0.33766251       2.45584107      -0.50419351       0.70962988       2.24721255      -0.58114233       0.70636894       2.24721255      -0.58114233       0.70636894
C        4.94173083       2.87137007       7.54527077      -1.38832878      -0.15299516       0.11497584      -1.76291959      -1.09353540      -0.77835257      -1.56990119      -1.01852529      -0.83372545      -1.56990119      -1.01852529      -0.83372545
C        2.44573060       4.26854462       7.54074495      -0.10204029      -0.84316640      -1.36040757      -1.76244807      -0.26184862       0.72004933      -2.10146494      -0.51352823       0.70147099      -2.10146494      -0.51352823       0.70147099
C        3.61580413       4.94465339       7.48681370       0.67701953      -1.31026208      -0.11674150       4.01046659       0.72593698      -0.52112988       4.33693604       1.16335759      -0.56528763       4.33693604       1.16335759      -0.56528763
18
Lattice="7.38 0.0 0.0 -3.69 6.391267479929157 0.0 0.0 -0.0 15.0" Properties=species:S:1:pos:R:3:momenta:R:3:mace_forces:R:3:forces:R:3:REF_forces:R:3 T=600.0 mace_forces_rms=1.6512887527875848 energy=-2790.989865263267 REF_energy=-2790.989865263267 pbc="T T T"
C       -0.05226220      -0.05561033       7.35778239       1.86479945      -0.52617031       0.48042923       2.03309480       2.41798398       0.97312201       2.05402835       2.78993721       1.02023122       2.05402835       2.78993721       1.02023122
C        1.20387988       0.65167370       7.48424423      -1.29236105       0.39231141       0.72894424       0.83592771      -0.05888887       0.09079407       0.67191102       0.12536802      -0.01018234       0.67191102       0.12536802      -0.01018234
C       -1.23653071       2.07522380       7.44154674      -0.61558225       1.67942109       0.23589685       1.80529001       5.05881759       0.54698365       1.46246456       5.30341501       0.60627024       1.46246456       5.30341501       0.60627024
C        0.00520680       2.88294036       7.63603387       0.28346475      -1.24445318       0.47412934      -0.03255107      -3.40056761      -0.10850958       0.14076893      -3.22122614      -0.24498345       0.14076893      -3.22122614      -0.24498345
C       -2.46191151       4.28850369       7.50281143      -0.24718604      -0.17568148      -0.25882690       1.25921400      -1.29332728      -1.00006213       1.10989304      -1.24658754      -0.92517831       1.10989304      -1.24658754      -0.92517831
C       -1.20165588       4.95754996       7.54290305       0.28877653       0.20094633       1.04249299      -0.96306593       1.70025989      -0.11594317      -1.07183069       1.88765895      -0.17413310      -1.07183069       1.88765895      -0.17413310
C        2.49279242      -0.00979966       7.46293411      -0.86487182       0.33921772       0.36199729      -1.62074639      -0.24771408      -0.10228056      -1.50823534      -0.46653361      -0.07337388      -1.50823534      -0.46653361      -0.07337388
C        3.70924097       0.71039200       7.37053352       1.20696085       0.74725081       1.04179639      -1.10531965       1.79625146       0.99773656      -1.10819097       1.76003864       0.94007476      -1.10819097       1.76003864       0.94007476
C        1.22156509       2.04506233       7.68958505      -0.81784467       0.07600431      -0.98062674      -0.93560584       4.15407843      -1.23365361      -0.83852467       3.81022987      -1.22601640      -0.83852467       3.81022987      -1.22601640
C        2.41937043       2.88308398       7.58104958      -1.15376765       0.59827113      -0.32107549       2.02170381      -4.30928084       0.16999123       1.71361789      -4.37009376       0.16076054       1.71361789      -4.37009376       0.16076054
C        0.03466845       4.31949654       7.65505916       1.21649644      -0.64519067      -0.80916743      -1.05511582      -2.98766777      -0.26979684      -1.06194788      -2.93815462      -0.27489618      -1.06194788      -2.93815462      -0.27489618
C        1.23165216       4.99788507       7.62217343      -0.59270639      -1.47159056      -0.27217558       1.17095012       0.87152010      -0.54571368       1.21159431       0.99433841      -0.56155516       1.21159431       0.99433841      -0.56155516
C        4.91417501       0.03892135       7.44976954       0.78869244      -0.48762342       0.58279425       0.75289397      -1.66467858       0.07151601       0.68834679      -1.72896557       0.18912829       0.68834679      -1.72896557       0.18912829
C        6.14728823       0.72749677       7.43091556      -0.60357608      -0.84234706      -0.34809160      -0.35890053      -2.13148399      -0.52874181      -0.27844353      -2.53574638      -0.50521329      -0.27844353      -2.53574638      -0.50521329
C        3.70776531       2.16199719       7.42340316      -0.18172176       0.31136109      -0.38715140      -1.79252318      -0.20815230      -0.22971573      -1.37550934      -0.27426934      -0.23082850      -1.37550934      -0.27426934      -0.23082850
C        4.93871286       2.84919138       7.38880369       0.04211998       0.53940177       0.03353792      -0.75223129      -0.03255586       0.85070566      -0.84868362      -0.03881466       0.91475994      -0.84868362      -0.03881466       0.91475994
C        2.44838932       4.24060864       7.57717612       0.95713852       1.42211931      -1.47088028      -0.28346471       2.24235471      -0.51619007      -0.14318191       2.43234561      -0.60536650      -0.14318191       2.43234561      -0.60536650
C        3.68765336       4.97425561       7.38327538      -0.27883122      -0.91324830      -0.13402308      -0.97955002      -1.90694899       0.94975798      -0.81807746      -2.28294009       1.00050186      -0.81807746      -2.28294009       1.00050186
18
Lattice="7.38 0.0 0.0 -3.69 6.391267479929157 0.0 0.0 -0.0 15.0" Properties=species:S:1:pos:R:3:momenta:R:3:mace_forces:R:3:forces:R:3:REF_forces:R:3 T=300.0 mace_forces_rms=1.3386803135056444 energy=-2791.502846652713 REF_energy=-2791.502846652713 pbc="T T T"
C       -0.01671850       0.02127407       7.46924163      -0.44089284      -1.37157951       0.12978738       1.56359798      -0.89091699       0.62301797       1.79733224      -1.03550383       0.57509381       1.79733224      -1.03550383       0.57509381
C        1.22236978       0.70223771       7.46662642       0.25386244      -0.77086931      -0.81247757       0.40995271       0.66927661      -0.13224136       0.41412707       0.72746484      -0.10462590       0.41412707       0.72746484      -0.10462590
C       -1.28143203       2.16234307       7.46519370      -0.05401049      -0.02994643      -0.85605586       2.39139180      -0.85638650       0.35731985       2.43827174      -1.02570690       0.33291826       2.43827174      -1.02570690       0.33291826
C       -0.02857033       2.81759340       7.49498654       0.15183016       0.68059570       1.08353331       0.93685618       1.72794414       0.43713191       1.08429128       1.66358525       0.48068445       1.08429128       1.66358525       0.48068445
C       -2.51907589       4.27659321       7.45843377       0.34565291      -0.17912806      -0.12047359       2.38933469       0.07631230       0.06083433       2.31980637      -0.00094539       0.05116187       2.31980637      -0.00094539       0.05116187
C       -1.25329002       4.99410253       7.43410299      -0.17478146       0.18581405       0.49784798      -0.02787380      -1.71994135      -0.00253601       0.09881495      -1.65118353       0.04230416       0.09881495      -1.65118353       0.04230416
C        2.43429777      -0.01351368       7.38634002       0.14884487       0.48585471       0.63491054       2.58942945       0.89517139       1.13815275       2.18104213       0.70050168       1.17021138       2.18104213       0.70050168       1.17021138
C        3.76112795       0.66451869       7.52070095       1.43809131       0.00758211      -0.04616465      -3.81602341       0.57841753      -0.51219793      -3.56597687       0.80946272      -0.61368839      -3.56597687       0.80946272      -0.61368839
C        1.22505249       2.11949690       7.56447960      -0.21834656      -0.40394624       0.17340889       0.54095395       1.04954286      -1.12124564       0.20697766       0.90433052      -1.16405616       0.20697766       0.90433052      -1.16405616
C        2.49617291       2.86762091       7.48345380      -0.32031500       0.07881620      -0.11799687      -1.70808376      -3.80428219       0.96580217      -1.46060000      -3.78522821       0.98309189      -1.46060000      -3.78522821       0.98309189
C       -0.00353313       4.26558622       7.52645000      -0.72758156       0.09371455       1.19173725      -0.21250635      -0.11889946      -0.29789453      -0.18158416      -0.08904913      -0.30434482      -0.18158416      -0.08904913      -0.30434482
C        1.25152255       4.96213168       7.58672709       0.71845937       0.50064277      -0.15594993      -0.85896422       0.15912793      -0.52504483      -0.87583369       0.09874630      -0.56300757      -0.87583369       0.09874630      -0.56300757
C        4.96416120       0.01042050       7.54657908      -0.49401970      -0.01269002      -0.00589995       0.82518979      -1.58781618       0.26898944       0.90314858      -1.66263600       0.31333391       0.90314858      -1.66263600       0.31333391
C        6.20352641       0.73861110       7.53383361       0.27373407      -0.17113412      -0.42241645      -3.21256885       0.13991618      -0.44874629      -3.39496123       0.46450372      -0.41804183      -3.39496123       0.46450372      -0.41804183
C        3.70544777       2.06721795       7.52555000       0.32069266       0.29849572       0.97318239      -0.03335612       2.70495133      -0.49456083      -0.01225645       2.79791740      -0.53958456      -0.01225645       2.79791740      -0.53958456
C        4.90161290       2.86379411       7.47282593      -0.18605345      -0.94869030      -1.17540663      -1.06970377      -1.02331421       0.18971388      -1.15926311      -1.04794360       0.23858526      -1.15926311      -1.04794360       0.23858526
C        2.46814317       4.23965538       7.54030033      -0.46041391       0.53001686      -0.30824423       0.18816682       1.38314970       0.07142641       0.06341677       1.48032139       0.06301414       0.06341677       1.48032139       0.06301414
C        3.67918500       4.97918862       7.52417454      -0.57475281       1.02645131      -0.66332201      -0.89579306       0.61774693      -0.57792128      -0.85675277       0.65136353      -0.54304990      -0.85675277       0.65136353      -0.54304990
18
Lattice="7.38 0.0 0.0 -3.69 6.391267479929157 0.0 0.0 -0.0 15.0" Properties=species:S:1:pos:R:3:momenta:R:3:mace_forces:R:3:forces:R:3:REF_forces:R:3 T=600.0 mace_forces_rms=1.5490456974244742 energy=-2791.1527526070863 REF_energy=-2791.1527526070863 pbc="T T T"
C        0.04822543       0.03270732       7.52362279      -0.74196535       1.03459096      -0.07302443      -1.70412911      -0.79479304      -0.56422571      -1.59447143      -0.94004520      -0.56427821      -1.59447143      -0.94004520      -0.56427821
C        1.28626791       0.73018323       7.44069926      -0.38958589      -0.77710799       0.32709237      -1.14635557      -1.13457152       0.52523840      -1.11767037      -1.16369826       0.47748111      -1.11767037      -1.16369826       0.47748111
C       -1.30207893       2.07414356       7.49470258       0.97211427       0.31767055      -0.21579203       2.63728579       1.48128269      -0.52899397       2.62942272       1.35266663      -0.46298549       2.62942272       1.35266663      -0.46298549
C       -0.06274770       2.83904454       7.53667678      -1.08658557      -0.32722246       1.66659675       0.92379831      -1.19081134      -0.41431182       0.85425802      -1.00392374      -0.43749249       0.85425802      -1.00392374      -0.43749249
C       -2.45500275       4.26315985       7.48743203       0.76614032      -0.21682203      -1.34644752       0.86961617      -0.01959509      -0.45364244       0.91195178       0.02018573      -0.51561108       0.91195178       0.02018573      -0.51561108
C       -1.20541777       4.98762163       7.36532439      -0.16420161       0.03918856       0.23012030      -1.62155844      -0.97966887       0.87203231      -1.75610511      -1.07198367       0.81882154      -1.75610511      -1.07198367       0.81882154
C        2.51124028      -0.02452387       7.41549890      -0.05867247      -1.39690220      -0.59811057      -1.11367936       2.14510428      -0.26980967      -1.11451794       2.27593743      -0.18185258      -1.11451794       2.27593743      -0.18185258
C        3.71588543       0.72934390       7.44197482       0.36796735      -0.10611378      -0.20391517      -1.33597357      -1.77555742       0.26188918      -1.43626965      -1.96090993       0.18693668      -1.43626965      -1.96090993       0.18693668
C        1.20875669       2.12489157       7.52269523       0.81647658       1.75537624      -0.04279144      -0.36229417       1.98182696       0.01324259      -0.17708499       1.94342695       0.02914525      -0.17708499       1.94342695       0.02914525
C        2.42920135       2.85380548       7.57379186       0.87643665      -0.18069841       1.39913893       1.49001312       0.00794548       0.66792582       1.36792176       0.02539941       0.65817773       1.36792176       0.02539941       0.65817773
C       -0.01798077       4.27883052       7.46629812      -1.58621568       0.61753478       0.55975469       1.12054627      -1.95945317       0.11969970       1.20888308      -2.03526058       0.20635520       1.20888308      -2.03526058       0.20635520
C        1.21858333       4.96682146       7.53142428       0.47643418      -0.08733142       0.73156363       1.64358436       0.42499576       0.29532092       1.52374655       0.46295489       0.34866087       1.52374655       0.46295489       0.34866087
C        4.91294960       0.01397439       7.45435797       1.43668057      -0.28426878      -0.28615206      -0.24380361      -2.62650418       0.05540628      -0.60982556      -2.90216817       0.05083482      -0.60982556      -2.90216817       0.05083482
C        6.10233977       0.64848647       7.45161075      -0.04670599      -1.63093325      -1.50884339       3.46921798       2.23201214       0.74959497       3.80222552       2.53660153       0.73309839       3.80222552       2.53660153       0.73309839
C        3.64937799       2.08204702       7.55922377      -0.69775815       0.12768657      -0.90486194       1.31070632       3.88098810      -0.96041527       1.07179006       3.93805818      -0.90301411       1.07179006       3.93805818      -0.90301411
C        4.92531641       2.83280631       7.45723567       0.03833945      -0.60362706      -0.17676207      -2.95030494      -0.29371299       0.99627975      -2.75670853      -0.08334514       1.01878831      -2.75670853      -0.08334514       1.01878831
C        2.53334563       4.30521847       7.69851172       0.57532925       1.68320152       0.30937906      -4.52996270      -1.61268637      -1.52513885      -4.52123889      -1.79631639      -1.54683943      -4.52123889      -1.79631639      -1.54683943
C        3.71173811       5.00031051       7.57891909      -1.55422791       0.03577820       0.13305488       1.54329314       0.23319858       0.15990783       1.71369322       0.40242033       0.08377374       1.71369322       0.40242033       0.08377374
18
Lattice="7.38 0.0 0.0 -3.69 6.391267479929157 0.0 0.0 -0.0 15.0" Properties=species:S:1:pos:R:3:momenta:R:3:mace_forces:R:3:forces:R:3:REF_forces:R:3 T=300.0 mace_forces_rms=0.9108683245804766 energy=-2791.91516388137 REF_energy=-2791.91516388137 pbc="T T T"
C       -0.00898794      -0.04573941       7.52071506       0.83022504       0.68872513      -0.58650245       1.08172318       1.49431410      -0.26394970       0.94775928       1.55982761      -0.25899031       0.94775928       1.55982761      -0.25899031
C        1.23114026       0.68281035       7.51885525      -0.88255019      -1.31314262      -0.18247206       0.37359099      -0.93310930      -0.22602962       0.33175021      -0.83220336      -0.21973136       0.33175021      -0.83220336      -0.21973136
C       -1.23236905       2.14219673       7.56320462       0.12533647       0.21275364       0.57202615      -0.09802862      -0.05893139      -0.73578745       0.02173122      -0.19585738      -0.74944160       0.02173122      -0.19585738      -0.74944160
C        0.00973557       2.83002142       7.53496028       1.62485695       0.00704321       0.16286587      -0.39578179      -0.07465788       0.05417208      -0.38768893      -0.12372071       0.08244885      -0.38768893      -0.12372071       0.08244885
C       -2.48764963       4.24290274       7.47641252       0.26307674      -0.64972439       0.97630418       2.02471228       1.27547167       0.38606315       1.97094135       1.13211534       0.33573388       1.97094135       1.13211534       0.33573388
C       -1.22613201       4.98167983       7.50625958      -0.45123227      -1.06959190      -0.31338561      -0.45096358      -1.58168355      -0.11165028      -0.22605962      -1.48559215      -0.15750784      -0.22605962      -1.48559215      -0.15750784
C        2.50025592      -0.01499165       7.49486006       0.43579992       0.58839798      -0.09942371      -1.57569622       1.13289352       0.43629341      -1.44071354       1.12034792       0.47168070      -1.44071354       1.12034792       0.47168070
C        3.69539502       0.74949762       7.53737038       0.10803786       0.31131364      -0.26522915       0.00817378      -1.06604981      -1.00506238       0.04467009      -1.13816104      -0.97171167       0.04467009      -1.13816104      -0.97171167
C        1.22765966       2.07614002       7.49062351      -0.59244012       0.56893109       1.12273459       0.49761319       2.28583522      -0.03866167       0.30856632       2.16042934      -0.09668736       0.30856632       2.16042934      -0.09668736
C        2.46559851       2.85187239       7.42340712      -0.25122922       0.90206935      -0.63291077      -1.87877641      -0.88649853       0.80672637      -1.73175548      -0.68316808       0.78714220      -1.73175548      -0.68316808       0.78714220
C       -0.01239424       4.25343322       7.52093042      -0.36858951      -1.09776822       0.40815321       1.42715216       0.78677859      -0.06693009       1.27676355       0.76015848      -0.07460236       1.27676355       0.76015848      -0.07460236
C        1.23630744       5.00426637       7.49976000      -0.02187363      -0.11478365       0.93275454      -0.93577942      -0.60853028      -0.03159194      -0.87352870      -0.45791630      -0.02467796      -0.87352870      -0.45791630      -0.02467796
C        4.92520849       0.04946174       7.45933294      -0.37741921       0.92133181       0.01210636       0.17564621      -1.23361619       0.64486517       0.06720992      -1.29845878       0.63330462       0.06720992      -1.29845878       0.63330462
C        6.17479923       0.71750346       7.47315211       0.21221248       0.06822649      -1.04755578      -0.78484467       0.07389362       0.61101262      -0.64164245       0.15290659       0.59025175      -0.64164245       0.15290659       0.59025175
C        3.66840364       2.15307590       7.46182277       0.16817440       0.63861480      -0.23484401       0.60207648      -0.03273986       0.27822979       0.58632234      -0.04986783       0.28720945       0.58632234      -0.04986783       0.28720945
C        4.88799354       2.85914956       7.50154873      -0.69719883      -0.46345242      -0.43223672       1.56063603      -1.26924560      -0.00727297       1.47909831      -1.25198814       0.02902133       1.47909831      -1.25198814       0.02902133
C        2.45348121       4.26515663       7.51264350      -1.16784650      -0.05011381      -0.41395585      -0.15801702       0.05023007      -0.65841710      -0.11267500      -0.05398494      -0.63134852      -0.11267500      -0.05398494      -0.63134852
C        3.70155437       4.94043543       7.50414115       1.04265961      -0.14883012       0.02157123      -1.47343656       0.64564561      -0.07200938      -1.62074939       0.68513369      -0.03209380      -1.62074939       0.68513369      -0.03209380
18
Lattice="7.38 0.0 0.0 -3.69 6.391267479929157 0.0 0.0 -0.0 15.0" Properties=species:S:1:pos:R:3:momenta:R:3:mace_forces:R:3:forces:R:3:REF_forces:R:3 T=100.0 mace_forces_rms=0.7753973860648322 energy=-2792.0471377325484 REF_energy=-2792.0471377325484 pbc="T T T"
C       -0.01135022      -0.00373684       7.50190458      -0.17618979       0.57678237      -0.29257233       0.37703361       0.06637063      -0.13943030       0.42345658       0.12404441      -0.12479441       0.42345658       0.12404441      -0.12479441
C        1.21661921       0.70399453       7.53540917       0.10610350       0.15593813      -0.30843975      -0.01312859       1.20576587      -0.34381740      -0.07565522       1.05422686      -0.35068459      -0.07565522       1.05422686      -0.35068459
C       -1.20276247       2.11537703       7.51441131      -0.14291180      -0.02880508       0.63661415      -1.39043418       0.36679061       0.08096479      -1.37034708       0.39273498       0.04023211      -1.37034708       0.39273498       0.04023211
C       -0.00198362       2.84127249       7.57016920       0.04486755      -0.28897143       0.47510783       0.35339252       0.81412118      -0.63634531       0.33810675       0.74602847      -0.65155534       0.33810675       0.74602847      -0.65155534
C       -2.45744086       4.25057676       7.58501517      -0.05581947       0.59549152      -0.28189028      -0.52018532      -0.50788349      -0.85507744      -0.49955532      -0.42169614      -0.89744304      -0.49955532      -0.42169614      -0.89744304
C       -1.23334309       4.95899927       7.55285043       0.19895468       0.30557005       0.16661601      -0.10797206       0.88689905      -0.07331018      -0.16369725       0.86372791      -0.10258907      -0.16369725       0.86372791      -0.10258907
C        2.43698125       0.00349871       7.49498942      -0.23257371       0.16423908      -0.03877882       0.91500832      -0.53549196       0.10114352       0.94377227      -0.51333232       0.08254167       0.94377227      -0.51333232       0.08254167
C        3.68673645       0.70106796       7.43297846      -0.73255085       0.12933281       0.54841768      -0.03004694       0.15941564       0.71391732      -0.03897304       0.10970332       0.74700317      -0.03897304       0.10970332       0.74700317
C        1.21846839       2.15665638       7.51521860      -0.18924020      -0.53605683      -0.47788818       1.23988718      -1.01041433       0.22742995       1.24599593      -0.89915000       0.24189196       1.24599593      -0.89915000       0.24189196
C        2.47573904       2.86986003       7.47972497       0.48011470       0.38938413      -0.19338791      -0.74578591      -0.79953008      -0.01439423      -0.74247494      -0.79475653      -0.00216435      -0.74247494      -0.79475653      -0.00216435
C        0.01035804       4.28160901       7.52068640       0.29705525      -0.38033579      -0.03100418      -1.01566461      -1.49342055       0.16854857      -1.05160150      -1.44864514       0.21646477      -1.05160150      -1.44864514       0.21646477
C        1.21996664       4.95339456       7.45287920      -0.18674340       0.05107219       0.19245848       0.99868847       1.68713726       0.23186852       1.04734839       1.65297096       0.21192575       1.04734839       1.65297096       0.21192575
C        4.93801476      -0.00357875       7.47921150       0.51106734      -0.41721395       0.01477782      -1.60900458      -0.23810922      -0.70511959      -1.62368044      -0.17513583      -0.68344781      -1.62368044      -0.17513583      -0.68344781
C        6.14645403       0.70611936       7.46092881      -0.38020813      -0.04382146      -0.07831384       0.65696261      -0.10295192       0.43557675       0.64644090      -0.11518234       0.43600125       0.64644090      -0.11518234       0.43600125
C        3.69553645       2.13087395       7.48614492      -0.16020758      -0.36847630      -0.02949853      -0.37177957      -0.46789308      -0.39381593      -0.33195102      -0.42682061      -0.41437698      -0.33195102      -0.42682061      -0.41437698
C        4.92614189       2.80749240       7.50592277       0.17096789      -0.22592494       0.05214486       0.53596692       1.38487106       0.44339286       0.50316052       1.31076742       0.46790889       0.50316052       1.31076742       0.46790889
C        2.47110023       4.29202854       7.43932960       0.41109692      -0.19463912      -0.33374676      -0.83744718      -1.59408871       0.24422129      -0.93737305      -1.65240686       0.21490463      -0.93737305      -1.65240686       0.21490463
C        3.67476388       4.97336696       7.47222548       0.03621709       0.11643463      -0.02061624       1.56450930       0.17841204       0.51424683       1.68702754       0.19292118       0.56818166       1.68702754       0.19292118       0.56818166
18
Lattice="7.38 0.0 0.0 -3.69 6.391267479929157 0.0 0.0 -0.0 15.0" Properties=species:S:1:pos:R:3:momenta:R:3:mace_forces:R:3:forces:R:3:REF_forces:R:3 T=100.0 mace_forces_rms=0.5672361185379572 energy=-2792.1664418273426 REF_energy=-2792.1664418273426 pbc="T T T"
C        0.00290318      -0.03435142       7.48476465      -0.06779416      -0.10663414      -0.41677673       0.15959739       1.36547412       0.12045924       0.08563676       1.40710845       0.15705866       0.08563676       1.40710845       0.15705866
C        1.23950745       0.69270448       7.47361499      -0.85066010      -0.34424961       0.11036450      -0.77525333       0.70632449       0.08032318      -0.74679928       0.72820609       0.08094064      -0.74679928       0.72820609       0.08094064
C       -1.21634552       2.13233569       7.54993224       0.02219159       0.40746581      -0.52697595      -0.60857369       0.01371126      -0.17293251      -0.57582709       0.00216667      -0.16146194      -0.57582709       0.00216667      -0.16146194
C       -0.01030654       2.85460091       7.47927869       0.28711468      -0.27359712       0.06375887       0.80372440      -0.56578255       0.46965624       0.78373806      -0.54517183       0.45491325       0.78373806      -0.54517183       0.45491325
C       -2.46219084       4.23328238       7.49336130       0.06908626      -0.12948040       0.03984511       0.07631631       1.62582734       0.47723283       0.07343379       1.62133123       0.42312799       0.07343379       1.62133123       0.42312799
C       -1.22272613       4.96308106       7.53870916      -0.07554450       0.19961156       0.05673196      -0.81534652       0.16718855      -0.03524048      -0.75332114       0.18731746      -0.04538023      -0.75332114       0.18731746      -0.04538023
C        2.45859096      -0.00295307       7.52320307       0.20204363       0.35193660      -0.22173081       0.85630808       0.00627465      -0.18567329       0.84329433      -0.00999645      -0.17126812       0.84329433      -0.00999645      -0.17126812
C        3.70226416       0.72232620       7.52309906      -0.12267286      -0.18670656       0.02929140      -0.92597568       0.02488769      -0.14955816      -0.90407958       0.02634481      -0.15884327      -0.90407958       0.02634481      -0.15884327
C        1.21978319       2.13477933       7.43947958      -0.33023289       0.26376742      -0.17716480       0.49827602      -0.49617133       0.20361074       0.46581756      -0.52761299       0.18749024       0.46581756      -0.52761299       0.18749024
C        2.46494562       2.84855148       7.45043511       0.05382325       1.08597862       0.13154182      -1.12753914      -0.17294090       0.02350896      -1.06265031      -0.17107683       0.03262576      -1.06265031      -0.17107683       0.03262576
C       -0.00085779       4.26566991       7.55122456      -0.13099889       0.46013443      -0.19582904       0.07908021       0.19583019      -0.64477621       0.05452307       0.17158591      -0.63138683       0.05452307       0.17158591      -0.63138683
C        1.22386579       4.98259616       7.48783027      -0.35937618      -0.30759497       0.38071164      -0.04533630      -0.18100077      -0.04672628      -0.03158369      -0.12811884      -0.03497343      -0.03158369      -0.12811884      -0.03497343
C        4.91920847       0.00856639       7.48478067       0.51248494       0.00197657       0.45317555       0.58959957       0.28890352       0.58998941       0.56099568       0.25179327       0.55934889       0.56099568       0.25179327       0.55934889
C        6.16982784       0.71602223       7.53288400       0.53679522      -0.54205249       0.24934433      -0.51281469      -0.61672654      -0.44678418      -0.44458462      -0.63661568      -0.47210493      -0.44458462      -0.63661568      -0.47210493
C        3.68261976       2.15340541       7.51025848      -0.08638689      -0.29379096       0.43413660       0.65390843      -0.95698219       0.07627401       0.59852865      -0.95078855       0.10864248       0.59852865      -0.95078855       0.10864248
C        4.92328776       2.84768542       7.55875499       0.73694180      -0.87884673      -0.30868785       0.03533038      -0.94421987      -0.47010830       0.04123972      -0.95742071      -0.44762160       0.04123972      -0.95742071      -0.44762160
C        2.44372930       4.26479636       7.44007533       0.00715845       0.01843705      -0.13292470       0.18353376      -0.06328905       0.34692311       0.17741692      -0.06326122       0.36101888       0.17741692      -0.06326122       0.36101888
C        3.67189334       4.95577342       7.47831384      -0.40397335       0.27364493       0.03118811       0.87516479      -0.39730860      -0.23617833       0.83422116      -0.40579104      -0.24212670       0.83422116      -0.40579104      -0.24212670
18
Lattice="7.38 0.0 0.0 -3.69 6.391267479929157 0.0 0.0 -0.0 15.0" Properties=species:S:1:pos:R:3:momenta:R:3:mace_forces:R:3:forces:R:3:REF_forces:R:3 T=300.0 mace_forces_rms=1.1844014684153699 energy=-2791.559598170675 REF_energy=-2791.559598170675 pbc="T T T"
C        0.00575992      -0.02294801       7.55916963       0.21428005      -0.11393667       0.69953463       0.36019065       0.86886852      -0.77156206       0.23817466       0.74387748      -0.78051030       0.23817466       0.74387748      -0.78051030
C        1.27406002       0.69679095       7.56649206       0.83141533       0.45546711      -0.14817444      -3.44471927       0.31806684       0.19139002      -3.48942948       0.49568786       0.23150573      -3.48942948       0.49568786       0.23150573
C       -1.16400689       2.10901805       7.46665732       1.03078283       0.07586572       0.55810905      -1.00605338       1.03249190       0.86992028      -1.06499721       0.99261834       0.91241972      -1.06499721       0.99261834       0.91241972
C        0.06342643       2.86569336       7.60474566      -0.28994026       0.44967244      -0.21342828      -3.15371368      -0.28880726      -1.00958555      -3.39240941      -0.05828614      -1.02903262      -3.39240941      -0.05828614      -1.02903262
C       -2.47568944       4.22744819       7.57549657      -0.38029606       0.45524597       0.67023918       1.14377194       1.28910334      -0.92622486       0.99280680       1.27266495      -0.95347895       0.99280680       1.27266495      -0.95347895
C       -1.24154609       4.98906799       7.50705742       0.23635206      -0.23438411       0.16841651      -0.57492552      -1.72081782       0.78414783      -0.49980034      -1.76253133       0.76306691      -0.49980034      -1.76253133       0.76306691
C        2.45578684      -0.00882153       7.53714313      -0.38183690       0.29041216       0.45072050       0.27749663       0.47704664      -0.53041646       0.36691956       0.39332736      -0.56373699       0.36691956       0.39332736      -0.56373699
C        3.66161837       0.69906115       7.44362682      -1.12461723      -0.01440703      -0.16885512       1.39560747       1.18212987       0.19079554       1.55029190       1.18760489       0.19539767       1.55029190       1.18760489       0.19539767
C        1.20456606       2.12809278       7.56029174       0.04435606       0.16205558       0.02190071       3.03743342      -0.44775308      -0.05077195       3.32555970      -0.66174693      -0.10027611       3.32555970      -0.66174693      -0.10027611
C        2.43183434       2.84651998       7.46893533      -0.33563893       0.02304540      -0.15139822       1.38443496       0.68394341       0.28663071       1.26602174       0.72727330       0.28226830       1.26602174       0.72727330       0.28226830
C       -0.00596159       4.29959298       7.52827027      -0.15639933      -0.62618531       0.02714464      -0.17821152      -1.19228122       0.01405955      -0.22312882      -1.21799996       0.05142283      -0.22312882      -1.21799996       0.05142283
C        1.20295000       5.00391589       7.45478704      -0.28985056      -0.16249231      -0.57280314      -0.16167730      -0.77996920      -0.27645516      -0.19619137      -0.94510461      -0.21501004      -0.19619137      -0.94510461      -0.21501004
C        4.89148794      -0.01645918       7.38991647      -0.62617990       0.66189580      -0.43905654       0.49459255       2.26452682       0.48194583       0.36139966       2.54570503       0.47274591       0.36139966       2.54570503       0.47274591
C        6.13630804       0.70136790       7.44679499      -0.63349945      -0.67191343      -0.04528832       1.30703864      -0.61538529       0.11551229       1.32352960      -0.56201513       0.11425185       1.32352960      -0.56201513       0.11425185
C        3.71237779       2.14364976       7.48027149      -0.00254301      -0.36180262      -0.46578123      -1.11072630      -0.59445412      -0.27626755      -1.02499342      -0.67025343      -0.25365578      -1.02499342      -0.67025343      -0.25365578
C        4.98120378       2.82031530       7.50681701       1.29356117       0.10734297      -0.88532861      -1.52080854      -0.09532077      -0.13810487      -1.42893172      -0.08448182      -0.15981489      -1.42893172      -0.08448182      -0.15981489
C        2.39500275       4.29632449       7.42368688      -0.35174656      -0.18188399       0.61742171       2.49052331      -1.81347547       0.47557416       2.52743580      -1.88934148       0.46066970       2.52743580      -1.88934148       0.46066970
C        3.68082172       4.96024230       7.47984017       0.92180072      -0.31399769      -0.12337303      -0.74025404      -0.56791307       0.56941225      -0.63225741      -0.50699815       0.57176655      -0.63225741      -0.50699815       0.57176655
