27
Lattice="10.32 0.0 0.0 -5.16 8.937382167055407 0.0 0.0 0.0 18.34" Properties=species:S:1:pos:R:3:REF_forces:R:3 REF_energy=-18627.98820105554 config_type=scan_A-0.180 pbc="T T T"
Nb       0.00000000       0.10903731       9.17000000       0.01001085      -1.11535638       0.00000000
Nb       3.51115994       0.34854211       9.17000000      -0.46339918      -3.43892555       0.00000000
Nb       6.80884006       0.30391802       9.17000000       0.39131187      -3.02029751       0.00000000
Nb      -1.92435162       2.73762329       9.17000000       1.31710776       2.07975686       0.00000000
Nb       1.96299721       2.75993534       9.17000000      -1.75354943       1.89853883       0.00000000
Nb       5.12135441       2.79574938       9.17000000       0.60291701       2.29201248       0.00000000
Nb      -3.61183727       5.87352881       9.17000000       1.38592308       0.80862403       0.00000000
Nb       0.03864559       6.03259548       9.17000000      -0.37542760      -0.15212395       0.00000000
Nb       3.57319168       5.85121677       9.17000000      -1.15054450       0.93555579       0.00000000
Se       1.68474508       0.93385932      10.95159673       0.20542112       0.24213210       0.06932543
Se       5.16870830       0.97919634      11.00554936      -0.04155288       0.18740720       0.23663816
Se       8.62654662       0.92665778      10.95481300      -0.16888343       0.21627837       0.07752956
Se       0.00188256       3.91683164      10.64219224       0.03040638      -0.26185220       0.78376198
Se       3.46598970       3.97363258      10.87020459       0.11015172      -0.34605789       0.29103499
Se       6.85212774       3.96249020      10.83488401      -0.16238342      -0.34708530       0.40165028
Se      -1.77253632       7.01621919      10.69498241      -0.04764666       0.08595892       0.96536490
Se       1.78312719       7.02016003      10.73351926       0.08945665       0.10583483       0.80605267
Se       5.14940913       7.02048157      10.87225840       0.00285547      -0.02650859       0.13774582
Se       1.68474508       0.93385932       7.38840327       0.20542112       0.24213210      -0.06932543
Se       5.16870830       0.97919634       7.33445064      -0.04155288       0.18740720      -0.23663816
Se       8.62654662       0.92665778       7.38518700      -0.16888343       0.21627837      -0.07752956
Se       0.00188256       3.91683164       7.69780776       0.03040638      -0.26185220      -0.78376198
Se       3.46598970       3.97363258       7.46979541       0.11015172      -0.34605789      -0.29103499
Se       6.85212774       3.96249020       7.50511599      -0.16238342      -0.34708530      -0.40165028
Se      -1.77253632       7.01621919       7.64501759      -0.04764666       0.08595892      -0.96536490
Se       1.78312719       7.02016003       7.60648074       0.08945665       0.10583483      -0.80605267
Se       5.14940913       7.02048157       7.46774160       0.00285547      -0.02650859      -0.13774582
27
Lattice="10.32 0.0 0.0 -5.16 8.937382167055407 0.0 0.0 0.0 18.34" Properties=species:S:1:pos:R:3:REF_forces:R:3 REF_energy=-18628.8151222215 config_type=scan_A-0.150 pbc="T T T"
Nb       0.00000000       0.09086442       9.17000000       0.00037744      -0.97230920       0.00000000
Nb       3.49929995       0.29045176       9.17000000      -0.36698024      -2.54903590       0.00000000
Nb       6.82070005       0.25326502       9.17000000       0.34319676      -2.28130975       0.00000000
Nb      -1.89029302       2.77787398       9.17000000       1.04458908       1.63182647       0.00000000
Nb       1.92249768       2.79646735       9.17000000      -1.32604311       1.48841419       0.00000000
Nb       5.12779534       2.82631238       9.17000000       0.41502182       1.64098422       0.00000000
Nb      -3.58319773       5.88764980       9.17000000       1.00011876       0.65023379       0.00000000
Nb       0.03220466       6.02020537       9.17000000      -0.27426369      -0.17132623       0.00000000
Nb       3.55099307       5.86905643       9.17000000      -0.82315925       0.75104443       0.00000000
Se       1.69062090       0.94372318      10.93299728       0.17292520       0.19435714       0.06105650
Se       5.16725692       0.98150403      10.97795780      -0.03966107       0.17855180       0.22681398
Se       8.62212218       0.93772190      10.93567750      -0.14238255       0.17154555       0.07805432
Se       0.00156880       3.92605468      10.67516020       0.01209755      -0.19392674       0.88434790
Se       3.46165808       3.97338879      10.86517049       0.07573056      -0.27887985       0.28803657
Se       6.85677311       3.96410348      10.83573667      -0.12014071      -0.27019543       0.37335580
Se      -1.76378027       7.00539887      10.71915201      -0.05679978       0.04797036       0.78027942
Se       1.77260599       7.00868290      10.75126605       0.09183081       0.07550147       0.67264970
Se       5.15117428       7.00895085      10.86688200      -0.00002905      -0.01918583       0.15451841
Se       1.69062090       0.94372318       7.40700272       0.17292520       0.19435714      -0.06105650
Se       5.16725692       0.98150403       7.36204220      -0.03966107       0.17855180      -0.22681398
Se       8.62212218       0.93772190       7.40432250      -0.14238255       0.17154555      -0.07805432
Se       0.00156880       3.92605468       7.66483980       0.01209755      -0.19392674      -0.88434790
Se       3.46165808       3.97338879       7.47482951       0.07573056      -0.27887985      -0.28803657
Se       6.85677311       3.96410348       7.50426333      -0.12014071      -0.27019543      -0.37335580
Se      -1.76378027       7.00539887       7.62084799      -0.05679978       0.04797036      -0.78027942
Se       1.77260599       7.00868290       7.58873395       0.09183081       0.07550147      -0.67264970
Se       5.15117428       7.00895085       7.47311800      -0.00002905      -0.01918583      -0.15451841
27
Lattice="10.32 0.0 0.0 -5.16 8.937382167055407 0.0 0.0 0.0 18.34" Properties=species:S:1:pos:R:3:REF_forces:R:3 REF_energy=-18629.431770003717 config_type=scan_A-0.120 pbc="T T T"
Nb       0.00000000       0.07269154       9.17000000      -0.00544123      -0.76136407       0.00000000
Nb       3.48743996       0.23236141       9.17000000      -0.26841983      -1.71390585       0.00000000
Nb       6.83256004       0.20261201       9.17000000       0.27304730      -1.53684529       0.00000000
Nb      -1.85623441       2.81812466       9.17000000       0.70907863       1.14349119       0.00000000
Nb       1.88199814       2.83299935       9.17000000      -0.87639779       1.03756894       0.00000000
Nb       5.13423627       2.85687538       9.17000000       0.24948031       1.03865369       0.00000000
Nb      -3.55455818       5.90177080       9.17000000       0.63988561       0.46240828       0.00000000
Nb       0.02576373       6.00781525       9.17000000      -0.18257146      -0.12098017       0.00000000
Nb       3.52879445       5.88689610       9.17000000      -0.51110548       0.53651287       0.00000000
Se       1.69649672       0.95358704      10.91439782       0.13328162       0.14591010       0.08387478
Se       5.16580553       0.98381172      10.95036624      -0.03144793       0.14645466       0.23470907
Se       8.61769775       0.94878601      10.91654200      -0.10824190       0.12221790       0.10422789
Se       0.00125504       3.93527771      10.70812816       0.00084255      -0.13037936       0.83250006
Se       3.45732647       3.97314501      10.86013639       0.04027530      -0.19209175       0.29160346
Se       6.86141849       3.96571675      10.83658934      -0.07002117      -0.18157748       0.34961475
Se      -1.75502421       6.99457854      10.74332161      -0.05310974       0.01837465       0.63416054
Se       1.76208479       6.99720577      10.76901284       0.07804095       0.04067819       0.56239951
Se       5.15293942       6.99742013      10.86150560      -0.00339797      -0.01235698       0.17883874
Se       1.69649672       0.95358704       7.42560218       0.13328162       0.14591010      -0.08387478
Se       5.16580553       0.98381172       7.38963376      -0.03144793       0.14645466      -0.23470907
Se       8.61769775       0.94878601       7.42345800      -0.10824190       0.12221790      -0.10422789
Se       0.00125504       3.93527771       7.63187184       0.00084255      -0.13037936      -0.83250006
Se       3.45732647       3.97314501       7.47986361       0.04027530      -0.19209175      -0.29160346
Se       6.86141849       3.96571675       7.50341066      -0.07002117      -0.18157748      -0.34961475
Se      -1.75502421       6.99457854       7.59667839      -0.05310974       0.01837465      -0.63416054
Se       1.76208479       6.99720577       7.57098716       0.07804095       0.04067819      -0.56239951
Se       5.15293942       6.99742013       7.47849440      -0.00339797      -0.01235698      -0.17883874
27
Lattice="10.32 0.0 0.0 -5.16 8.937382167055407 0.0 0.0 0.0 18.34" Properties=species:S:1:pos:R:3:REF_forces:R:3 REF_energy=-18629.818167845013 config_type=scan_A-0.090 pbc="T T T"
Nb       0.00000000       0.05451865       9.17000000      -0.00698183      -0.47555535       0.00000000
Nb       3.47557997       0.17427105       9.17000000      -0.16152390      -0.94261990       0.00000000
Nb       6.84442003       0.15195901       9.17000000       0.16923515      -0.85335351       0.00000000
Nb      -1.82217581       2.85837534       9.17000000       0.33014019       0.62088619       0.00000000
Nb       1.84149861       2.86953136       9.17000000      -0.40795411       0.55952321       0.00000000
Nb       5.14067720       2.88743838       9.17000000       0.11987203       0.54978105       0.00000000
Nb      -3.52591864       5.91589179       9.17000000       0.32032911       0.27262075       0.00000000
Nb       0.01932280       5.99542513       9.17000000      -0.09033160       0.01515537       0.00000000
Nb       3.50659584       5.90473577       9.17000000      -0.25254738       0.30912373       0.00000000
Se       1.70237254       0.96345089      10.89579837       0.08509966       0.08683310       0.14996628
Se       5.16435415       0.98611940      10.92277468      -0.01993968       0.09390749       0.25441631
Se       8.61327331       0.95985012      10.89740650      -0.06906857       0.06905160       0.16927912
Se       0.00094128       3.94450075      10.74109612      -0.00265286      -0.09010534       0.54759895
Se       3.45299485       3.97290122      10.85510230       0.01635324      -0.11244643       0.29200507
Se       6.86606387       3.96733003      10.83744200      -0.03055139      -0.10554867       0.32305191
Se      -1.74626816       6.98375822      10.76749121      -0.03733627       0.01083231       0.48804654
Se       1.75156359       6.98572864      10.78675963       0.05161515       0.02511711       0.45333434
Se       5.15470457       6.98588941      10.85612920      -0.00363837      -0.00542169       0.23134221
Se       1.70237254       0.96345089       7.44420163       0.08509966       0.08683310      -0.14996628
Se       5.16435415       0.98611940       7.41722532      -0.01993968       0.09390749      -0.25441631
Se       8.61327331       0.95985012       7.44259350      -0.06906857       0.06905160      -0.16927912
Se       0.00094128       3.94450075       7.59890388      -0.00265286      -0.09010534      -0.54759895
Se       3.45299485       3.97290122       7.48489770       0.01635324      -0.11244643      -0.29200507
Se       6.86606387       3.96733003       7.50255800      -0.03055139      -0.10554867      -0.32305191
Se      -1.74626816       6.98375822       7.57250879      -0.03733627       0.01083231      -0.48804654
Se       1.75156359       6.98572864       7.55324037       0.05161515       0.02511711      -0.45333434
Se       5.15470457       6.98588941       7.48387080      -0.00363837      -0.00542169      -0.23134221
27
Lattice="10.32 0.0 0.0 -5.16 8.937382167055407 0.0 0.0 0.0 18.34" Properties=species:S:1:pos:R:3:REF_forces:R:3 REF_energy=-18629.995795867584 config_type=scan_A-0.060 pbc="T T T"
Nb       0.00000000       0.03634577       9.17000000      -0.00660516      -0.21455033       0.00000000
Nb       3.46371998       0.11618070       9.17000000      -0.06178129      -0.34903985       0.00000000
Nb       6.85628002       0.10130601       9.17000000       0.06843300      -0.32334836       0.00000000
Nb      -1.78811721       2.89862602       9.17000000       0.07876292       0.23543900       0.00000000
Nb       1.80099907       2.90606337       9.17000000      -0.10134363       0.21141564       0.00000000
Nb       5.14711814       2.91800139       9.17000000       0.03692464       0.20724891       0.00000000
Nb      -3.49727909       5.93001279       9.17000000       0.09307471       0.10315523       0.00000000
Nb       0.01288186       5.98303501       9.17000000      -0.02502583       0.04366042       0.00000000
Nb       3.48439723       5.92257544       9.17000000      -0.07339343       0.11704819       0.00000000
Se       1.70824836       0.97331475      10.87719891       0.03414374       0.03522617       0.23368422
Se       5.16290277       0.98842709      10.89518312      -0.00851909       0.04117210       0.28498107
Se       8.60884887       0.97091424      10.87827100      -0.02704672       0.02618437       0.24742780
Se       0.00062752       3.95372378      10.77406408      -0.00328638      -0.04936364       0.38511474
Se       3.44866323       3.97265743      10.85006820       0.00132977      -0.04735304       0.30012513
Se       6.87070925       3.96894330      10.83829467      -0.00467144      -0.04426206       0.31129014
Se      -1.73751211       6.97293789      10.79166080      -0.02287356       0.00671341       0.37329127
Se       1.74104240       6.97425150      10.80450642       0.02873619       0.01409402       0.36426361
Se       5.15646971       6.97435868      10.85075280      -0.00233559       0.00207385       0.28035077
Se       1.70824836       0.97331475       7.46280109       0.03414374       0.03522617      -0.23368422
Se       5.16290277       0.98842709       7.44481688      -0.00851909       0.04117210      -0.28498107
Se       8.60884887       0.97091424       7.46172900      -0.02704672       0.02618437      -0.24742780
Se       0.00062752       3.95372378       7.56593592      -0.00328638      -0.04936364      -0.38511474
Se       3.44866323       3.97265743       7.48993180       0.00132977      -0.04735304      -0.30012513
Se       6.87070925       3.96894330       7.50170533      -0.00467144      -0.04426206      -0.31129014
Se      -1.73751211       6.97293789       7.54833920      -0.02287356       0.00671341      -0.37329127
Se       1.74104240       6.97425150       7.53549358       0.02873619       0.01409402      -0.36426361
Se       5.15646971       6.97435868       7.48924720      -0.00233559       0.00207385      -0.28035077
27
Lattice="10.32 0.0 0.0 -5.16 8.937382167055407 0.0 0.0 0.0 18.34" Properties=species:S:1:pos:R:3:REF_forces:R:3 REF_energy=-18630.039415851978 config_type=scan_A-0.030 pbc="T T T"
Nb       0.00000000       0.01817288       9.17000000      -0.00290612      -0.04001228       0.00000000
Nb       3.45185999       0.05809035       9.17000000      -0.00461847      -0.03015313       0.00000000
Nb       6.86814001       0.05065300       9.17000000       0.00721580      -0.03343951       0.00000000
Nb      -1.75405860       2.93887671       9.17000000      -0.01750073       0.02387501       0.00000000
Nb       1.76049954       2.94259538       9.17000000       0.01915626       0.02112984       0.00000000
Nb       5.15355907       2.94856439       9.17000000       0.00047025       0.02239097       0.00000000
Nb      -3.46863955       5.94413378       9.17000000      -0.00476991       0.00892044       0.00000000
Nb       0.00644093       5.97064490       9.17000000       0.00313109       0.02382718       0.00000000
Nb       3.46219861       5.94041511       9.17000000       0.00318148       0.01106191       0.00000000
Se       1.71412418       0.98317861      10.85859946       0.00359286       0.00445289       0.29900259
Se       5.16145138       0.99073478      10.86759156      -0.00126730       0.00710781       0.31375686
Se       8.60442444       0.98197835      10.85913550      -0.00277473       0.00260633       0.30390157
Se       0.00031376       3.96294682      10.80703204      -0.00152775      -0.01446168       0.31691160
Se       3.44433162       3.97241364      10.84503410      -0.00150898      -0.00856589       0.31077490
Se       6.87535462       3.97055658      10.83914733       0.00170336      -0.00822496       0.31158068
Se      -1.72875605       6.96211757      10.81583040      -0.00860497       0.00346919       0.31718080
Se       1.73052120       6.96277437      10.82225321       0.00967249       0.00554201       0.31806552
Se       5.15823486       6.96282796      10.84537640      -0.00096468       0.00427394       0.30910882
Se       1.71412418       0.98317861       7.48140054       0.00359286       0.00445289      -0.29900259
Se       5.16145138       0.99073478       7.47240844      -0.00126730       0.00710781      -0.31375686
Se       8.60442444       0.98197835       7.48086450      -0.00277473       0.00260633      -0.30390157
Se       0.00031376       3.96294682       7.53296796      -0.00152775      -0.01446168      -0.31691160
Se       3.44433162       3.97241364       7.49496590      -0.00150898      -0.00856589      -0.31077490
Se       6.87535462       3.97055658       7.50085267       0.00170336      -0.00822496      -0.31158068
Se      -1.72875605       6.96211757       7.52416960      -0.00860497       0.00346919      -0.31718080
Se       1.73052120       6.96277437       7.51774679       0.00967249       0.00554201      -0.31806552
Se       5.15823486       6.96282796       7.49462360      -0.00096468       0.00427394      -0.30910882
27
Lattice="10.32 0.0 0.0 -5.16 8.937382167055407 0.0 0.0 0.0 18.34" Properties=species:S:1:pos:R:3:REF_forces:R:3 REF_energy=-18630.03614313884 config_type=scan_A+0.000 pbc="T T T"
Nb       0.00000000       0.00000000       9.17000000       0.00000000       0.00000000       0.00000000
Nb       3.44000000       0.00000000       9.17000000       0.00000566      -0.00000746      -0.00000000
Nb       6.88000000       0.00000000       9.17000000      -0.00000566      -0.00000746      -0.00000000
Nb      -1.72000000       2.97912739       9.17000000       0.00000360       0.00000874      -0.00000000
Nb       1.72000000       2.97912739       9.17000000      -0.00000360       0.00000874      -0.00000000
Nb       5.16000000       2.97912739       9.17000000       0.00000000       0.00000000       0.00000000
Nb      -3.44000000       5.95825478       9.17000000       0.00000926      -0.00000103       0.00000000
Nb       0.00000000       5.95825478       9.17000000       0.00000000       0.00000000       0.00000000
Nb       3.44000000       5.95825478       9.17000000      -0.00000926      -0.00000103      -0.00000000
Se       1.72000000       0.99304246      10.84000000       0.00000180       0.00000103       0.31473594
Se       5.16000000       0.99304246      10.84000000       0.00000000      -0.00000051       0.31472694
Se       8.60000000       0.99304246      10.84000000      -0.00000180       0.00000103       0.31473594
Se       0.00000000       3.97216985      10.84000000       0.00000000       0.00000180       0.31473157
Se       3.44000000       3.97216985      10.84000000      -0.00000051       0.00000026       0.31472694
Se       6.88000000       3.97216985      10.84000000       0.00000051       0.00000026       0.31472694
Se      -1.72000000       6.95129724      10.84000000       0.00000154      -0.00000077       0.31473157
Se       1.72000000       6.95129724      10.84000000      -0.00000154      -0.00000077       0.31473157
Se       5.16000000       6.95129724      10.84000000       0.00000000      -0.00000206       0.31473594
Se       1.72000000       0.99304246       7.50000000       0.00000180       0.00000103      -0.31473594
Se       5.16000000       0.99304246       7.50000000       0.00000000      -0.00000051      -0.31472694
Se       8.60000000       0.99304246       7.50000000      -0.00000180       0.00000103      -0.31473594
Se       0.00000000       3.97216985       7.50000000       0.00000000       0.00000180      -0.31473157
Se       3.44000000       3.97216985       7.50000000      -0.00000051       0.00000026      -0.31472694
Se       6.88000000       3.97216985       7.50000000       0.00000051       0.00000026      -0.31472694
Se      -1.72000000       6.95129724       7.50000000       0.00000154      -0.00000077      -0.31473157
Se       1.72000000       6.95129724       7.50000000      -0.00000154      -0.00000077      -0.31473157
Se       5.16000000       6.95129724       7.50000000       0.00000000      -0.00000206      -0.31473594
27
Lattice="10.32 0.0 0.0 -5.16 8.937382167055407 0.0 0.0 0.0 18.34" Properties=species:S:1:pos:R:3:REF_forces:R:3 REF_energy=-18630.039490139057 config_type=scan_A+0.030 pbc="T T T"
Nb      -0.00000000      -0.01817288       9.17000000      -0.00217104      -0.01559477       0.00000000
Nb       3.42814001      -0.05809035       9.17000000       0.00715949       0.04975136       0.00000000
Nb       6.89185999      -0.05065300       9.17000000      -0.00351521       0.03208917       0.00000000
Nb      -1.68594140       3.01937807       9.17000000      -0.04973876      -0.01711429       0.00000000
Nb       1.67950046       3.01565940       9.17000000       0.05889009      -0.01966174       0.00000000
Nb       5.16644093       3.00969039       9.17000000      -0.01016948      -0.02392771       0.00000000
Nb      -3.41136045       5.97237577       9.17000000      -0.01119073      -0.01743054       0.00000000
Nb      -0.00644093       5.94586466       9.17000000       0.00132206      -0.00374533       0.00000000
Nb       3.41780139       5.97609445       9.17000000       0.00787477      -0.01029933       0.00000000
Se       1.72587582       1.00290632      10.82140054      -0.00563586       0.00464264       0.29668808
Se       5.15854862       0.99535015      10.81240844       0.00086132      -0.00568908       0.29919182
Se       8.59557556       1.00410658      10.82086450       0.00466450       0.00845456       0.30128058
Se      -0.00031376       3.98139289      10.87296796      -0.00227954       0.00674169       0.33001677
Se       3.43566838       3.97192606      10.83496590      -0.01110279       0.00918090       0.30472638
Se       6.88464538       3.97378313      10.84085267       0.01427862       0.01033095       0.30969966
Se      -1.71124395       6.94047692      10.86416960       0.00009025      -0.00891479       0.32621103
Se       1.70947880       6.93982011      10.85774679      -0.00157043      -0.00810926       0.32387852
Se       5.16176514       6.93976652      10.83462360       0.00146321      -0.00367102       0.31100012
Se       1.72587582       1.00290632       7.51859946      -0.00563586       0.00464264      -0.29668808
Se       5.15854862       0.99535015       7.52759156       0.00086132      -0.00568908      -0.29919182
Se       8.59557556       1.00410658       7.51913550       0.00466450       0.00845456      -0.30128058
Se      -0.00031376       3.98139289       7.46703204      -0.00227954       0.00674169      -0.33001677
Se       3.43566838       3.97192606       7.50503410      -0.01110279       0.00918090      -0.30472638
Se       6.88464538       3.97378313       7.49914733       0.01427862       0.01033095      -0.30969966
Se      -1.71124395       6.94047692       7.47583040       0.00009025      -0.00891479      -0.32621103
Se       1.70947880       6.93982011       7.48225321      -0.00157043      -0.00810926      -0.32387852
Se       5.16176514       6.93976652       7.50537640       0.00146321      -0.00367102      -0.31100012
27
Lattice="10.32 0.0 0.0 -5.16 8.937382167055407 0.0 0.0 0.0 18.34" Properties=species:S:1:pos:R:3:REF_forces:R:3 REF_energy=-18629.992826697435 config_type=scan_A+0.060 pbc="T T T"
Nb      -0.00000000      -0.03634577       9.17000000      -0.00387337       0.06622185       0.00000000
Nb       3.41628002      -0.11618070       9.17000000       0.07374104       0.43261845       0.00000000
Nb       6.90371998      -0.10130601       9.17000000      -0.06165300       0.34492223       0.00000000
Nb      -1.65188279       3.05962875       9.17000000      -0.30793948      -0.22894954       0.00000000
Nb       1.63900093       3.05219141       9.17000000       0.36310739      -0.22665329       0.00000000
Nb       5.17288186       3.04025339       9.17000000      -0.06149333      -0.24361974       0.00000000
Nb      -3.38272091       5.98649677       9.17000000      -0.12327668      -0.13616408       0.00000000
Nb      -0.01288186       5.93347454       9.17000000       0.02860764       0.00838308       0.00000000
Nb       3.39560277       5.99393412       9.17000000       0.09372391      -0.11863404       0.00000000
Se       1.73175164       1.01277018      10.80280109      -0.04492000      -0.00928451       0.29758745
Se       5.15709723       0.99765784      10.78481688       0.00797762      -0.04399235       0.31672083
Se       8.59115113       1.01517069      10.80172900       0.03449161       0.00747574       0.31350335
Se      -0.00062752       3.99061592      10.90593592      -0.00873687       0.03309138       0.31861008
Se       3.43133677       3.97168228      10.82993180      -0.04309915       0.05677047       0.28571924
Se       6.88929075       3.97539640      10.84170533       0.05525584       0.05852011       0.29549483
Se      -1.70248789       6.92965659      10.88833920      -0.00716669      -0.02455969       0.32458840
Se       1.69895760       6.92834298      10.87549358       0.00172392      -0.02247710       0.32540473
Se       5.16353029       6.92823580      10.82924720       0.00400166      -0.00460665       0.31796241
Se       1.73175164       1.01277018       7.53719891      -0.04492000      -0.00928451      -0.29758745
Se       5.15709723       0.99765784       7.55518312       0.00797762      -0.04399235      -0.31672083
Se       8.59115113       1.01517069       7.53827100       0.03449161       0.00747574      -0.31350335
Se      -0.00062752       3.99061592       7.43406408      -0.00873687       0.03309138      -0.31861008
Se       3.43133677       3.97168228       7.51006820      -0.04309915       0.05677047      -0.28571924
Se       6.88929075       3.97539640       7.49829467       0.05525584       0.05852011      -0.29549483
Se      -1.70248789       6.92965659       7.45166080      -0.00716669      -0.02455969      -0.32458840
Se       1.69895760       6.92834298       7.46450642       0.00172392      -0.02247710      -0.32540473
Se       5.16353029       6.92823580       7.51075280       0.00400166      -0.00460665      -0.31796241
27
Lattice="10.32 0.0 0.0 -5.16 8.937382167055407 0.0 0.0 0.0 18.34" Properties=species:S:1:pos:R:3:REF_forces:R:3 REF_energy=-18629.81016266405 config_type=scan_A+0.090 pbc="T T T"
Nb      -0.00000000      -0.05451865       9.17000000      -0.00349387       0.27796016       0.00000000
Nb       3.40442003      -0.17427105       9.17000000       0.19883575       1.06047284       0.00000000
Nb       6.91557997      -0.15195901       9.17000000      -0.17402126       0.89107519       0.00000000
Nb      -1.61782419       3.09987944       9.17000000      -0.72214163      -0.59978000       0.00000000
Nb       1.59850139       3.08872342       9.17000000       0.83762839      -0.57530876       0.00000000
Nb       5.17932280       3.07081639       9.17000000      -0.13425992      -0.61933350       0.00000000
Nb      -3.35408136       6.00061776       9.17000000      -0.32932386      -0.34521405       0.00000000
Nb      -0.01932280       5.92108443       9.17000000       0.08106688       0.04429059       0.00000000
Nb       3.37340416       6.01177378       9.17000000       0.25297830      -0.32121177       0.00000000
Se       1.73762746       1.02263403      10.78420163      -0.10917778      -0.04618704       0.33130978
Se       5.15564585       0.99996552      10.75722532       0.01913235      -0.10821208       0.39098740
Se       8.58672669       1.02623480      10.78259350       0.08437898      -0.01292185       0.36223038
Se      -0.00094128       3.99983896      10.93890388      -0.01799644       0.07529090       0.28997493
Se       3.42700515       3.97143849      10.82489770      -0.09053600       0.13392156       0.26637657
Se       6.89393613       3.97700968      10.84255800       0.11546002       0.13711745       0.27924520
Se      -1.69373184       6.91883627      10.91250879      -0.01749301      -0.03961350       0.32276678
Se       1.68843641       6.91686585      10.89324037       0.00484370      -0.03836189       0.32928838
Se       5.16529543       6.91670508      10.82387080       0.00775342      -0.00750839       0.33994355
Se       1.73762746       1.02263403       7.55579837      -0.10917778      -0.04618704      -0.33130978
Se       5.15564585       0.99996552       7.58277468       0.01913235      -0.10821208      -0.39098740
Se       8.58672669       1.02623480       7.55740650       0.08437898      -0.01292185      -0.36223038
Se      -0.00094128       3.99983896       7.40109612      -0.01799644       0.07529090      -0.28997493
Se       3.42700515       3.97143849       7.51510230      -0.09053600       0.13392156      -0.26637657
Se       6.89393613       3.97700968       7.49744200       0.11546002       0.13711745      -0.27924520
Se      -1.69373184       6.91883627       7.42749121      -0.01749301      -0.03961350      -0.32276678
Se       1.68843641       6.91686585       7.44675963       0.00484370      -0.03836189      -0.32928838
Se       5.16529543       6.91670508       7.51612920       0.00775342      -0.00750839      -0.33994355
27
Lattice="10.32 0.0 0.0 -5.16 8.937382167055407 0.0 0.0 0.0 18.34" Properties=species:S:1:pos:R:3:REF_forces:R:3 REF_energy=-18628.81712906106 config_type=scan_A+0.150 pbc="T T T"
Nb      -0.00000000      -0.09086442       9.17000000      -0.00563329       0.97122753       0.00000000
Nb       3.38070005      -0.29045176       9.17000000       0.60041789       2.69094948       0.00000000
Nb       6.93929995      -0.25326502       9.17000000      -0.52870597       2.36593838       0.00000000
Nb      -1.54970698       3.18038080       9.17000000      -1.83809990      -1.54049446       0.00000000
Nb       1.51750232       3.16178743       9.17000000       2.07415031      -1.41393756       0.00000000
Nb       5.19220466       3.13194240       9.17000000      -0.28402925      -1.42146164       0.00000000
Nb      -3.29680227       6.02885975       9.17000000      -1.00198333      -0.98830223       0.00000000
Nb      -0.03220466       5.89630419       9.17000000       0.26298580       0.27509981       0.00000000
Nb       3.32900693       6.04745312       9.17000000       0.77383469      -0.97446224       0.00000000
Se       1.74937910       1.04236175      10.74700272      -0.28192300      -0.16850984       0.52377202
Se       5.15274308       1.00458090      10.70204220       0.04075224      -0.28760926       0.62650456
Se       8.57787782       1.04836303      10.74432250       0.22534228      -0.10650563       0.59238680
Se      -0.00156880       4.01828502      11.00483980      -0.04402526       0.14614330       0.28148129
Se       3.41834192       3.97095091      10.81482951      -0.23201429       0.30115974       0.23694644
Se       6.90322689       3.98023623      10.84426333       0.28625300       0.30842465       0.25571626
Se      -1.67621973       6.89719562      10.96084799      -0.04722834      -0.08042256       0.34805281
Se       1.66739401       6.89391158      10.92873395       0.00909888      -0.08264811       0.35377762
Se       5.16882572       6.89364363      10.81311800       0.01727627      -0.01231096       0.43205306
Se       1.74937910       1.04236175       7.59299728      -0.28192300      -0.16850984      -0.52377202
Se       5.15274308       1.00458090       7.63795780       0.04075224      -0.28760926      -0.62650456
Se       8.57787782       1.04836303       7.59567750       0.22534228      -0.10650563      -0.59238680
Se      -0.00156880       4.01828502       7.33516020      -0.04402526       0.14614330      -0.28148129
Se       3.41834192       3.97095091       7.52517049      -0.23201429       0.30115974      -0.23694644
Se       6.90322689       3.98023623       7.49573667       0.28625300       0.30842465      -0.25571626
Se      -1.67621973       6.89719562       7.37915201      -0.04722834      -0.08042256      -0.34805281
Se       1.66739401       6.89391158       7.41126605       0.00909888      -0.08264811      -0.35377762
Se       5.16882572       6.89364363       7.52688200       0.01727627      -0.01231096      -0.43205306
27
Lattice="10.32 0.0 0.0 -5.16 8.937382167055407 0.0 0.0 0.0 18.34" Properties=species:S:1:pos:R:3:REF_forces:R:3 REF_energy=-18627.98921427142 config_type=scan_A+0.180 pbc="T T T"
Nb      -0.00000000      -0.10903731       9.17000000      -0.01854897       1.30150348       0.00000000
Nb       3.36884006      -0.34854211       9.17000000       0.85727007       3.29779307       0.00000000
Nb       6.95115994      -0.30391802       9.17000000      -0.78169815       2.96465935       0.00000000
Nb      -1.51564838       3.22063148       9.17000000      -2.35504051      -1.97742567       0.00000000
Nb       1.47700279       3.19831944       9.17000000       2.60337411      -1.73590318       0.00000000
Nb       5.19864559       3.16250540       9.17000000      -0.33763058      -1.62430548       0.00000000
Nb      -3.26816273       6.04298075       9.17000000      -1.42696508      -1.34572696       0.00000000
Nb      -0.03864559       5.88391407       9.17000000       0.39112598       0.51241803       0.00000000
Nb       3.30680832       6.06529279       9.17000000       1.07581358      -1.37110350       0.00000000
Se       1.75525492       1.05222560      10.72840327      -0.37660773      -0.22635324       0.52541162
Se       5.15129170       1.00688858      10.67445064       0.05188898      -0.38636533       0.52642540
Se       8.57345338       1.05942714      10.72518700       0.32064742      -0.15452767       0.64168899
Se      -0.00188256       4.02750806      11.03780776      -0.05301049       0.18664358       0.34239792
Se       3.41401030       3.97070712      10.80979541      -0.30147110       0.38725930       0.23215596
Se       6.90787226       3.98184950      10.84511599       0.37421172       0.39975975       0.25910806
Se      -1.66746368       6.88637529      10.98501759      -0.07799853      -0.09322769       0.38311545
Se       1.65687281       6.88243445      10.94648074       0.03136463      -0.09916205       0.37635834
Se       5.17059087       6.88211291      10.80774160       0.02712514      -0.02498135       0.49518521
Se       1.75525492       1.05222560       7.61159673      -0.37660773      -0.22635324      -0.52541162
Se       5.15129170       1.00688858       7.66554936       0.05188898      -0.38636533      -0.52642540
Se       8.57345338       1.05942714       7.61481300       0.32064742      -0.15452767      -0.64168899
Se      -0.00188256       4.02750806       7.30219224      -0.05301049       0.18664358      -0.34239792
Se       3.41401030       3.97070712       7.53020459      -0.30147110       0.38725930      -0.23215596
Se       6.90787226       3.98184950       7.49488401       0.37421172       0.39975975      -0.25910806
Se      -1.66746368       6.88637529       7.35498241      -0.07799853      -0.09322769      -0.38311545
Se       1.65687281       6.88243445       7.39351926       0.03136463      -0.09916205      -0.37635834
Se       5.17059087       6.88211291       7.53225840       0.02712514      -0.02498135      -0.49518521
27
Lattice="10.32 0.0 0.0 -5.16 8.937382167055407 0.0 0.0 0.0 18.34" Properties=species:S:1:pos:R:3:REF_forces:R:3 REF_energy=-18624.847448163517 config_type=therm_T100_00 pbc="T T T"
Nb      -0.13424640       0.00536537       9.23201503       1.20883963      -0.11752050      -0.70729968
Nb       3.45277473       0.07229820       9.41383596       0.28012220      -0.37153649      -3.50900277
Nb       6.75621764       0.07913919       9.03053900       4.88502941      -3.46171273       3.67343639
Nb      -1.69122745       2.93623417       9.28080296      -0.09911526       0.22831936      -1.91866928
Nb       1.64799173       3.02261067       9.06410332      -1.05589936      -1.48444904       1.12551815
Nb       4.97927299       3.01551605       9.31508200       3.67805717      -0.83906178      -3.75349360
Nb      -3.39646307       5.87437022       9.19246140      -0.03473740       2.37618475      -1.78738927
Nb       0.06421504       6.05796815       9.07312092       1.19333691      -1.77409255       1.21622873
Nb       3.49828087       5.98766674       9.16728675      -1.51432423      -0.62486729       2.74274512
Se       1.72119674       0.93137430      10.78366276      -1.37777294       0.93639860       1.37556513
Se       5.28085910       1.01654205      10.79628674      -0.33781390       0.00930122       2.29212047
Se       8.37377387       0.91346045      10.79410553       1.09214086       0.50416196       1.31502594
Se      -0.11649352       3.85139118      10.91499072       1.01176278       0.88894323       0.00531627
Se       3.41755569       3.81785589      10.71878332      -2.69876409       2.07389809       4.05934792
Se       6.85279620       4.07338163      10.70323523      -0.08579668      -1.76736012       2.98825257
Se      -1.57563593       6.90705366      10.68465140      -0.74190802      -0.03073934       2.60167383
Se       1.76658275       7.08176883      10.81986271      -0.35230438      -0.87395962       0.18849580
Se       5.21890515       6.92243634      10.83900330      -0.30741729       0.20254148       0.88973616
Se       1.87120086       1.07436967       7.39081750      -0.45481144      -0.64643653       1.00266107
Se       5.41417427       0.90032947       7.57699846      -5.41601673       3.30013406      -4.93288844
Se       8.64522023       0.98537612       7.51838409       0.08976904       0.32600431      -0.92265862
Se      -0.01487170       4.04816534       7.43531859      -0.60113960      -0.36046841      -0.06960002
Se       3.33340056       4.01531877       7.65773567       1.00037844      -0.18842741      -2.95088004
Se       6.86759431       4.12681162       7.49199078      -0.05605725      -1.34765195      -0.57638939
Se      -1.57862014       7.03876389       7.54745758      -1.46066967       0.54292006      -0.89233401
Se       1.80508259       6.87531540       7.50890347      -0.03998477       0.72079643      -1.35860228
Se       5.01741163       6.78970459       7.58341988       2.19509604       1.77868017      -2.09691589
27
Lattice="10.32 0.0 0.0 -5.16 8.937382167055407 0.0 0.0 0.0 18.34" Properties=species:S:1:pos:R:3:REF_forces:R:3 REF_energy=-18626.02670994695 config_type=therm_T100_01 pbc="T T T"
Nb      -0.01247746       0.08417507       9.18096663       0.31097930      -0.43216182       0.40211951
Nb       3.37529342       0.24226302       9.28526598      -0.71454865      -2.23632085      -3.42224758
Nb       6.89435141       0.00186175       9.30833522       0.97656026      -0.35254092      -1.70702841
Nb      -1.74694201       3.10673845       9.22479261       0.20345242      -3.08946456       0.25029098
Nb       1.60935883       3.04133946       9.26352843       3.23873406      -2.08727862      -3.13975482
Nb       5.20574045       3.05982179       9.28507348      -0.98912678      -0.44315251      -3.48472282
Nb      -3.48112199       6.14691573       9.18352764       0.77552082      -1.08450083      -0.28220583
Nb       0.06979002       5.82599443       9.25458930      -0.97247812       4.03144965      -2.12550810
Nb       3.50042271       5.90940286       9.22715640      -0.25838533      -0.70134861      -0.79152362
Se       1.76588146       1.08396343      10.90498614      -1.26147886       0.03918901       1.21126521
Se       5.10967000       0.99802499      10.68578220       1.33728680       0.60205672       3.46381049
Se       8.60194859       0.94622129      10.93703844       0.28031761       0.66646722       0.17985432
Se       0.12189044       4.03039346      10.67186903      -2.33434081      -1.00624159       6.50613413
Se       3.48729739       3.87185604      10.87975291      -0.52704092       0.90156067       0.90317918
Se       6.89436875       3.87315925      10.72018482       0.18827649       2.32895589       2.89176755
Se      -1.64385999       7.14374767      10.83549939      -0.42602562      -0.88953485       0.30090700
Se       1.74956966       6.90151572      10.81545811      -0.10120608       0.21217592       1.41435716
Se       5.00812831       6.95881743      10.85726734       1.48673218       0.66760108       0.78515808
Se       1.69201830       1.00276487       7.46759027       0.22032117       0.60480728       0.08260723
Se       5.28143221       0.98612274       7.52391129      -0.52910295       0.43327613       0.16433206
Se       8.68724224       1.01030878       7.53668533      -0.85726390       0.12109459      -0.10135726
Se      -0.16572247       3.94957229       7.67381458       2.03089819       0.57137548      -3.84428696
Se       3.47546280       4.06513204       7.53568900      -0.13323225      -0.76063850      -0.32617118
Se       7.05085761       3.90423646       7.42673085      -1.43784496       0.99936826       0.27395824
Se      -1.66031778       7.02268081       7.52880535      -0.29286973       0.16552299       0.56713085
Se       1.74688139       6.89086379       7.59400097      -0.11927219       0.59460077      -0.46122531
Se       5.16330494       6.99655930       7.45660391      -0.09486188       0.14368224       0.28916015
27
Lattice="10.32 0.0 0.0 -5.16 8.937382167055407 0.0 0.0 0.0 18.34" Properties=species:S:1:pos:R:3:REF_forces:R:3 REF_energy=-18627.145259323388 config_type=therm_T100_02 pbc="T T T"
Nb       0.17165392      -0.03766199       9.18395673      -0.88359997       0.34553004       1.27192499
Nb       3.34770271      -0.06796564       9.16617449       0.77493204       0.29008471      -0.05231372
Nb       6.81114955       0.01054468       9.09971364       1.63568312      -0.63212422      -0.08405579
Nb      -1.70980382       2.98146689       9.27310545      -0.62471508       0.78594484      -0.26973855
Nb       1.67774407       2.88704195       9.10286047       0.19750160       0.36961176       2.51447230
Nb       4.97888593       2.79593552       9.25421308       0.62180664       3.91497302      -2.53442278
Nb      -3.26209695       5.92620308       9.17773573      -2.08993972      -0.29068507       0.50464250
Nb      -0.03783505       6.03792482       9.15550353      -0.01958769      -0.64201629       0.51084092
Nb       3.42961104       5.94541861       9.03450608       1.18064337      -0.51272965       0.62882267
Se       1.79512678       0.88206903      11.04082596      -0.25283843       0.61314357      -0.99383679
Se       5.28230073       1.01024831      10.59214333      -1.31976139      -2.17183938       4.81966863
Se       8.60332702       1.06011175      10.87402004       0.26322414      -0.81553901      -0.07923343
Se      -0.05867441       4.15535259      10.90638361       0.68546150      -0.98585814      -0.30934973
Se       3.41915066       4.16683081      10.87605632      -0.21038823      -1.39449231      -0.42728649
Se       6.89447775       4.00736536      10.95027830      -0.37053865      -0.34054004      -0.72363133
Se      -1.69158029       6.97125060      10.86281920       0.11077238      -0.17520603       0.84318403
Se       1.89242480       6.95844415      10.71726101      -1.09340250       0.27828052       1.20870491
Se       5.09002551       6.90675386      10.93801350       0.56087458       0.11417678      -1.19300138
Se       1.82663584       0.96267197       7.50006818      -0.95484935      -0.27655377      -1.06676073
Se       5.13324861       0.86279063       7.40003426      -0.52674216       0.54166639      -0.19833387
Se       8.48094822       1.01781395       7.57253074       1.38059807      -0.05346738      -0.63954854
Se      -0.01326744       3.92811469       7.56244222      -0.10992237       0.20481382      -0.53914362
Se       3.35541230       3.79151506       7.49331930       0.49724904       0.77003563      -0.74487481
Se       6.90936152       3.87370052       7.36980953      -0.41434896       0.16742715       1.61748228
Se      -1.78366081       6.82406167       7.47198096       0.61609134       0.84440761      -1.16666300
Se       1.69408343       6.96400995       7.58104963      -0.16927166      -0.36255897      -2.29133243
Se       5.15732910       7.00181497       7.53970353       0.51506807      -0.58648534      -0.60621676
27
Lattice="10.32 0.0 0.0 -5.16 8.937382167055407 0.0 0.0 0.0 18.34" Properties=species:S:1:pos:R:3:REF_forces:R:3 REF_energy=-18627.475913012157 config_type=therm_T100_03 pbc="T T T"
Nb      -0.13570810      -0.02047351       9.07864569       2.03486309      -0.52929295       2.49355766
Nb       3.34112266       0.00479499       9.25763628      -0.39348060       0.32882970      -1.81390197
Nb       6.93196579       0.03595143       9.28833919      -0.19700692       0.38209755      -1.69504501
Nb      -1.72489480       2.92143055       9.13123045      -0.21697951       0.71696883      -0.04789194
Nb       1.67382422       2.81815507       9.27113240       0.30880209       0.61375961      -0.94062395
Nb       5.14541088       2.96904425       9.13022758       0.24290034       0.60616302      -0.39111853
Nb      -3.43797065       5.90989003       9.24725889      -0.95089885      -0.89919654      -1.37355607
Nb      -0.13631487       6.01413910       9.17643956       2.65949255      -1.54149693      -1.54286784
Nb       3.53550780       6.07420205       9.28400096      -1.14340634      -0.30939884      -2.28523994
Se       1.71968449       0.91322285      10.97154008      -0.57351927       0.32990596       0.03426226
Se       5.06453614       1.01834806      10.79485725       0.44350115      -0.00667536       1.20306905
Se       8.61621096       1.16868521      10.89751681       0.07668392      -1.19637750       0.36418956
Se       0.03301890       3.96740860      10.87590543      -0.37253845       0.18932292      -0.10066255
Se       3.51595901       4.02627317      10.75951534      -0.89802694      -0.25000044       0.68895460
Se       6.82229643       3.97611905      10.90985300       0.42946550      -0.41040411      -0.24709947
Se      -1.68031951       6.93687677      10.67040595      -1.28654634       0.47301408       4.10272654
Se       1.60985427       7.08159241      10.79650396       0.56450858      -1.16581659       1.10625467
Se       5.27525540       6.97688062      10.78635786      -0.60479314       0.61005285       1.76199062
Se       1.56578235       0.96509441       7.44088451       1.06819669       0.17750742       0.16192114
Se       5.05245207       0.96085644       7.62413639       0.50263087      -0.47434257      -1.01406674
Se       8.75435173       0.82239720       7.47408793      -2.83811711       1.62155465      -1.82861793
Se      -0.03263319       4.00163944       7.56857576       0.26961950      -0.44424060      -0.41506244
Se       3.47287292       3.97702168       7.36123601      -0.52236794       0.01830857       1.53966425
Se       6.79534504       3.93386620       7.44288215       0.60629158      -0.10207948       0.26846456
Se      -1.86358633       6.83748127       7.56486142       0.48942054       1.02386830      -1.63159867
Se       1.61702708       6.90984682       7.44171043       0.53307196       0.42794804       0.96355639
Se       5.19032462       6.90094332       7.39718529      -0.23176695      -0.18997958       0.63874122
27
Lattice="10.32 0.0 0.0 -5.16 8.937382167055407 0.0 0.0 0.0 18.34" Properties=species:S:1:pos:R:3:REF_forces:R:3 REF_energy=-18627.317202479702 config_type=therm_T100_04 pbc="T T T"
Nb      -0.04700001       0.08074307       9.29601875       1.42512314      -1.33622417      -2.45277508
Nb       3.49591491       0.02540990       9.12694032      -0.27899889       0.18578869       0.15400985
Nb       6.92936761       0.12968386       9.32480037      -1.98935662      -2.02642318      -3.09323585
Nb      -1.83377428       2.90039582       9.37371821       0.68642078       0.62638758      -1.56791039
Nb       1.69428536       3.07454482       9.11996904       0.33173196      -2.41905866      -1.08277305
Nb       5.25009436       3.09167171       9.04331330      -0.31818173      -1.18833843       1.58151178
Nb      -3.62801451       5.96633054       9.07530899       0.97649315       0.80457685       1.15484647
Nb      -0.01954009       6.05085188       9.25344084       0.72749852      -0.76876730      -0.26975552
Nb       3.53447362       5.81885727       9.22172297       0.10529002       0.76161192      -0.82166029
Se       1.60241580       0.92922152      10.90485379       1.34592854       1.03427433      -0.03656700
Se       5.24005039       1.01721843      10.88615349      -1.18240175       0.64839082       0.02065753
Se       8.58637262       0.88475075      10.78269782       0.60353099       1.07632575       4.12975552
Se       0.04341166       3.87868255      10.75350160      -0.50066089       1.02707215       1.61331221
Se       3.30225670       3.87629770      10.82095852       1.39485072       0.23567966       0.67747720
Se       6.86305122       4.13592625      10.96512699      -0.32892868      -0.54953345      -0.32486403
Se      -1.84119188       7.08036292      10.80907344       0.33204100      -0.65021425       0.17805455
Se       1.88477325       6.89417508      10.85849652      -0.86378653       0.49387164       0.19691231
Se       5.21065336       7.04722578      10.93651764      -0.57389774      -0.80968281      -0.13140394
Se       1.75620592       0.89223613       7.45032594      -0.44853023       0.69235694       0.54126298
Se       5.09959931       0.95718401       7.41274622       0.77574450       0.46932660       0.48509826
Se       8.60051331       0.80401582       7.47829302      -0.23064544       1.41177166       0.24424015
Se      -0.02041379       3.97356872       7.53156659      -0.39990681       0.24422138       0.06576085
Se       3.48875654       3.96770395       7.42761279      -0.32515122       0.43491984      -0.36258648
Se       7.10032306       4.00327692       7.63840082      -0.70681169      -0.57573865      -2.05721369
Se      -1.65869908       6.81152389       7.48237522      -0.55302706       1.04291478      -0.05897108
Se       1.69144729       7.01817796       7.49432900       0.09161946      -0.33596605       1.05942383
Se       5.12304617       7.07540397       7.44500986      -0.09598802      -0.52954286       0.15739265
27
Lattice="10.32 0.0 0.0 -5.16 8.937382167055407 0.0 0.0 0.0 18.34" Properties=species:S:1:pos:R:3:REF_forces:R:3 REF_energy=-18627.717682892435 config_type=therm_T100_05 pbc="T T T"
Nb      -0.00437804       0.00817380       9.12527193       0.83688122      -0.18563879       1.41858046
Nb       3.55091758       0.21410608       9.03764946      -0.21324087      -1.60106553       2.41202849
Nb       6.87333632       0.11570874       9.16265204      -0.60133578      -1.63294670       2.02185022
Nb      -1.66756916       2.92904344       9.17517434       0.00509901      -0.32902664       0.68521468
Nb       1.75313295       2.99720719       9.12064201      -0.01651908      -0.81621058       0.10932536
Nb       5.13485575       2.96774838       9.21879260      -0.58828152      -0.38868781      -0.99255304
Nb      -3.37255433       6.01015552       9.15450865      -0.23104910      -0.68897003       0.26425258
Nb       0.04728874       5.92918666       9.22559744      -1.44297457      -0.57890779       1.93310988
Nb       3.40326090       5.99830186       9.15922164      -0.66971324      -1.17955862       1.01233459
Se       1.86797188       1.04073168      11.00601324      -0.44536829      -0.17661653      -1.76088916
Se       5.16856945       0.97319440      10.99091596       0.01070145       0.27822139      -0.91922312
Se       8.63011556       0.95114331      11.00751272       0.10909088       0.03203440      -1.17258271
Se       0.00020825       3.83907355      10.85150664       0.26068441       0.81953450       0.16236748
Se       3.37807573       3.98924977      10.82319845       0.31828226       0.17186976       0.15617446
Se       6.80954698       3.83456895      10.79000933       0.89851057       1.02106271       0.71894395
Se      -1.76906520       6.81024521      10.90922828       0.44884108       0.86316201      -0.22521552
Se       1.80333396       6.98650928      10.99397344      -0.54899506       0.07642861      -0.84247672
Se       5.15596818       6.90983502      10.81146656       0.24050690       0.52038485       0.17984815
Se       1.89544531       0.98644858       7.46802001      -1.82316719       0.43471518      -0.77561852
Se       5.23505409       1.11557978       7.40699652       0.26374788      -0.16620048      -0.28021451
Se       8.56256421       0.91803492       7.62994153       0.75502835       0.42465034      -2.00824394
Se      -0.06673667       4.07311624       7.43654925       0.34419024      -0.78149555       0.32221708
Se       3.41780594       3.98342391       7.36901724       0.24251288      -0.00153701       0.78366247
Se       7.02823419       3.98376883       7.53682979      -0.95099707       0.07967874      -0.30389514
Se      -1.74024919       7.00705245       7.47236576       0.43252409       0.12492399       0.07407014
Se       1.57062234       6.76188916       7.62905992       1.25467932       2.22344733      -2.05267543
Se       5.04173487       6.75165772       7.52358419       1.11036098       1.45674848      -0.92039194
27
Lattice="10.32 0.0 0.0 -5.16 8.937382167055407 0.0 0.0 0.0 18.34" Properties=species:S:1:pos:R:3:REF_forces:R:3 REF_energy=-18626.661236968936 config_type=therm_T100_06 pbc="T T T"
Nb      -0.04500320       0.02420050       9.30297939      -2.44667822      -0.03476363      -3.10916640
Nb       3.50136216      -0.05500785       9.30968370      -0.58326761       1.71325433      -2.99395579
Nb       6.91159265       0.09058806       9.25044120       1.00845608      -1.11034530      -1.37358307
Nb      -1.58127553       3.06612239       9.26412521      -1.61553827      -1.48964266      -1.85361651
Nb       1.66925370       2.88021470       9.23092224       0.56188888       2.01395025      -0.07224954
Nb       5.21533772       3.06524065       9.20909575      -1.22419915      -0.83152510      -2.32007453
Nb      -3.39536651       5.82926653       9.25762457      -0.16609121       0.49209295      -0.61872055
Nb      -0.15196434       6.04855468       9.10161469       2.09122964      -0.95687152       1.10968478
Nb       3.43727145       6.13162040       9.19019991      -1.96574026      -1.47661308      -0.24590545
Se       1.54941119       0.85791787      10.79258948       2.58543989       1.49288148       2.89579184
Se       5.18624483       0.95653020      10.77369176      -0.08209635       1.07330187       1.54328153
Se       8.68716463       0.90346834      11.10369434      -0.91498414       0.67154695      -0.95119838
Se      -0.03826843       3.96104553      10.79971658       0.83457674       1.09613147       1.88463636
Se       3.40772071       4.10845283      10.82457371       0.20673521      -0.75814967      -0.19449418
Se       6.79401375       3.91431402      10.87483696       0.97387166       0.12136944       1.18448614
Se      -1.81039870       7.08499956      10.83162010       0.39420359      -2.05387511       2.03970525
Se       1.64659976       6.84304775      11.00115110      -0.06988695       0.86544027      -1.23179521
Se       5.10514137       7.02729584      10.82609283       0.62063731      -1.14866193       1.65364074
Se       1.69515603       1.08856623       7.65918468       0.39383181      -1.80350648      -1.72318393
Se       5.21273637       0.96842474       7.35764007      -0.02534311       0.38012320       1.60441979
Se       8.69007524       0.94808412       7.34377270      -0.21838822       0.31121044       1.66813919
Se       0.02411677       3.96795105       7.42836652      -0.01980109       0.16806479       0.50539326
Se       3.34969336       3.90030911       7.35392644       0.59399245       0.51004285       1.65918635
Se       7.01752057       4.04075916       7.42558482      -0.53665891      -0.50477389       0.59670728
Se      -1.69374691       6.95618684       7.52549697      -1.20916102       0.75220863      -1.24975874
Se       1.71799596       7.05574008       7.41394118      -0.06611026      -0.20588726       1.14073137
Se       5.17603471       6.87773713       7.66137184       0.87908151       0.71299699      -1.54810184
27
Lattice="10.32 0.0 0.0 -5.16 8.937382167055407 0.0 0.0 0.0 18.34" Properties=species:S:1:pos:R:3:REF_forces:R:3 REF_energy=-18625.914404892203 config_type=therm_T100_07 pbc="T T T"
Nb      -0.12774097      -0.10096462       9.26808300       2.13429845       2.79958913      -2.19333714
Nb       3.42202891       0.05825743       9.10024377      -0.35727561      -0.28505795      -0.10823830
Nb       7.03301944      -0.00721753       9.17220215      -2.30738922      -1.06500209       0.11975736
Nb      -1.73634899       2.83297412       9.05803812      -0.21590556       4.22789221       3.97525793
Nb       1.70054836       2.90758782       9.27887419      -0.30362800      -0.79269219       0.31857742
Nb       5.23041154       3.02969439       9.33671455      -1.11668564      -1.45213695      -2.30769261
Nb      -3.34879667       5.99642996       9.30667063      -0.23909100      -0.71061075      -3.23261998
Nb      -0.16586950       5.98601435       9.15320827       1.55744934      -0.92452062       1.35446897
Nb       3.45802338       5.96371023       9.14317587      -1.34267944      -0.73299657      -0.30430009
Se       1.82543739       0.88958341      10.94986150      -0.65789645       0.35820764      -0.36920784
Se       5.03656630       0.87856456      10.76199390       1.24426069       0.33081022       1.09511537
Se       8.60974875       0.99206386      10.81315155      -0.46258671       0.44998393       2.24967953
Se      -0.02354828       3.85232291      11.01475452      -0.04736769       0.47436211      -1.09432887
Se       3.48707534       3.97044659      10.81180629      -0.86870685       0.38813399       1.04515729
Se       6.82496519       4.02352196      10.74274160       1.56230512      -0.41181668       2.64861781
Se      -1.83095070       6.83888829      10.97998591       1.64607064       1.10249803       0.56724269
Se       1.78622620       6.95446447      10.79965921      -0.69262202      -0.35793818       0.46535939
Se       5.24368240       7.03139893      10.67178744      -0.89818764      -1.97182684       4.57367396
Se       1.72244077       0.89272171       7.40234520      -0.44300519       0.35605845       0.74687513
Se       5.34032069       1.15726777       7.53829292      -0.83214499      -0.99669663      -0.17167153
Se       8.56344808       1.09525230       7.65987776       0.94697123      -3.22917033      -4.96519127
Se      -0.00047312       3.85696393       7.65036123       0.40621862       1.04448289      -1.29122292
Se       3.29784702       3.76345257       7.46585108       0.70216365       0.97415628       0.75521090
Se       6.76810601       3.91367466       7.50033031       0.54039318       0.88840330      -0.26001849
Se      -1.65576509       7.02321388       7.52062591      -0.80115035      -0.44648903      -1.26067333
Se       1.71046354       6.92384774       7.43240958      -0.05120712      -0.06221298       0.46168271
Se       5.13016044       6.90649413       7.68072105       0.89739856       0.04458987      -2.81817435
27
Lattice="10.32 0.0 0.0 -5.16 8.937382167055407 0.0 0.0 0.0 18.34" Properties=species:S:1:pos:R:3:REF_forces:R:3 REF_energy=-18627.589612786385 config_type=therm_T100_08 pbc="T T T"
Nb      -0.00871061      -0.01379236       9.24304886      -0.10164574      -0.70887757      -1.89346347
Nb       3.42798709      -0.04591942       9.08548016       0.12599460       1.29982275       1.00793466
Nb       6.94830593      -0.02601848       9.22719696      -0.32861449      -0.48309511      -0.32476787
Nb      -1.86446507       2.98568150       9.21138198       1.78840819       1.06883561       0.23825950
Nb       1.71178754       3.14234709       9.14318011      -0.19669068      -1.15243606      -0.67775565
Nb       5.05256431       3.22143908       9.23727061       2.22283258      -2.01193965      -0.04374218
Nb      -3.43786236       6.14040840       9.25824578      -1.18154583      -1.78297185      -1.13221227
Nb      -0.02497186       5.97975480       9.16083895       1.98152247      -0.30907514      -0.03420261
Nb       3.48062475       5.94911550       9.24391528      -0.31083249       0.84289915      -0.73311304
Se       1.53776066       1.05280340      10.82674808       1.87947795       0.46361952       0.35030484
Se       5.15425721       0.95759828      10.81529390      -0.25327294       0.49111927      -0.43708265
Se       8.76679579       1.03843201      10.89285424      -1.66082928      -0.03012022       0.53707491
Se       0.08244030       4.06098001      10.77044633      -1.11166967      -0.52170434       1.12543793
Se       3.38073836       4.00683361      10.89084435      -0.09437131      -0.19144048       1.11775059
Se       6.92266545       3.96185234      10.91776643      -0.64352372       0.59727421       0.24066991
Se      -1.70694626       6.84027085      10.87162317       0.04657990       1.07384489       0.76676390
Se       1.60598681       6.90075890      10.93067521       0.80994738       0.52635470      -0.34776921
Se       5.12523022       6.98700490      10.90866780      -0.09247512      -0.03432808       0.56760239
Se       1.70880462       1.07473051       7.54838077      -0.22621028      -0.08334694      -0.28778743
Se       5.21826250       1.08742076       7.41901375      -0.19193954      -0.32934469       1.30892985
Se       8.51992988       1.14651106       7.54933290       0.54751128      -1.11883765      -0.44805149
Se      -0.06856854       4.10323616       7.38168248       0.37046460      -0.71352406       0.59822320
Se       3.53026192       3.92311531       7.51407109      -0.82342870       1.10559081      -1.27025814
Se       7.04921979       3.95150283       7.44091352      -1.68458139       1.00693193       0.36460094
Se      -1.66504510       6.88587869       7.63363081      -1.10950532       0.81341168      -2.31181409
Se       1.87157703       6.90794312       7.42328324      -1.03713339       0.51468292       0.91743440
Se       4.94532230       7.07724188       7.38572200       1.27553122      -0.33334584       0.80103259
27
Lattice="10.32 0.0 0.0 -5.16 8.937382167055407 0.0 0.0 0.0 18.34" Properties=species:S:1:pos:R:3:REF_forces:R:3 REF_energy=-18626.746405879298 config_type=therm_T100_10 pbc="T T T"
Nb      -0.09105899       0.04776854       9.12573053       2.95165805      -2.22586597       1.02179496
Nb       3.40778249      -0.03117021       9.27674659      -0.45229587      -0.65602263       0.42210521
Nb       6.90360779      -0.03134600       9.29291878      -0.80380270      -0.02543849      -1.47671567
Nb      -1.68992362       3.06644304       9.03509854      -0.35216940      -0.89415332       1.29426582
Nb       1.60154441       3.13255084       9.14768381       1.80919582      -2.17936603      -0.00092277
Nb       5.03607354       2.98415194       9.22022901       0.45221899      -0.69206075      -1.09451167
Nb      -3.38242068       5.99493523       9.16189960       0.47618579       0.28766119       0.04041594
Nb       0.00592620       5.85141776       9.07940122      -1.05074867       0.74540317       0.21951590
Nb       3.44260867       5.99082563       9.26802193      -0.02582647      -0.15497993      -2.77435375
Se       1.46867108       0.79108621      10.86226678       1.78854446       1.50686366       0.43087909
Se       5.19689191       0.98871296      10.87151489      -0.59027258       0.24900209       0.54697597
Se       8.59647951       1.03522558      10.82888690      -0.26411786       0.44620775       0.90395873
Se      -0.01403063       3.87288627      10.82810882      -0.31269320       0.87014230       0.96779820
Se       3.51974775       4.13398727      10.82543878      -1.03690688      -1.60798874       1.27499489
Se       6.91286406       3.98944843      10.69093690      -0.10577158      -0.18722876       1.14516755
Se      -1.73825855       6.95415761      11.21070431      -0.14385579      -0.10834320      -2.26474156
Se       1.55143539       6.87648293      10.64149019       0.44496077       0.24022922       2.73815185
Se       5.12620355       6.91847568      10.84154672       0.40093346       0.56386915       0.32610510
Se       1.83190229       0.96501594       7.45819752      -0.72239309       0.33705928       0.76575268
Se       5.00883171       0.91001169       7.49132655       1.01254825       0.35768750       0.70721149
Se       8.66599998       0.87087412       7.71083271      -2.47909649       1.83424531      -4.07454442
Se       0.04702604       3.96084875       7.48819463      -0.18655950       0.13201278      -2.44775397
Se       3.51071361       3.94062454       7.34911498      -0.56321249       0.44324353       1.20901164
Se       6.79024237       3.86284810       7.52264687      -0.03112732       0.63015707      -0.79474573
Se      -1.74114260       6.99576995       7.43595188       0.03125227      -0.26009742       0.46453818
Se       1.81892449       6.95967831       7.45485774      -0.68390907       0.09255123      -0.00802596
Se       5.11763516       6.87475736       7.46611090       0.43726160       0.25520924       0.45767230
27
Lattice="10.32 0.0 0.0 -5.16 8.937382167055407 0.0 0.0 0.0 18.34" Properties=species:S:1:pos:R:3:REF_forces:R:3 REF_energy=-18619.948267074145 config_type=therm_T300_00 pbc="T T T"
Nb      -0.11529233       0.07377089       9.12448546       2.34047701      -0.47652132       1.30660274
Nb       3.50601031       0.03186728       9.15974801      -0.14910444      -1.20180072       2.09255813
Nb       6.69716717      -0.06988999       9.01767677       3.66044255       2.65968126       2.49947300
Nb      -1.76400079       3.39991288       9.12085834      -5.15373643      -5.86294233       4.93529114
Nb       1.61862453       3.24194475       9.09232121       1.80118786      -2.38243587       2.63911630
Nb       5.31665793       3.10803566       9.32142658      -5.22624283      -2.83980478      -5.59053884
Nb      -3.46537999       5.89056619       9.17741975       1.15168504       0.42221679      -3.09250488
Nb       0.29563527       5.99911711       9.02675892      -2.83021174      -0.56127388       0.63012211
Nb       3.55367465       5.96910058       9.22413433      -1.29341196      -0.15210723      -2.66951471
Se       1.61677549       1.01423687      10.98579455       0.58430325       0.41302741      -1.64746623
Se       5.31700254       0.99211440      10.82730026      -1.32021982       0.36529385       1.23815484
Se       8.57979164       1.03887947      10.89492726      -0.08298133       0.12456686      -0.35226736
Se      -0.12064490       4.11806686      10.95157966       0.92921185       0.19829453       0.10975577
Se       3.43055397       4.10814972      10.83138477      -0.13380201      -0.89323363       0.98326493
Se       6.82607205       3.88943350      10.63753415       2.88238894       3.19029731       7.36807358
Se      -1.63930471       6.81599561      10.78256530      -0.14252808       0.57484699      -0.09243270
Se       1.66021232       7.05719886      10.59135740       1.85244152      -0.23914036       4.17216047
Se       5.32464844       6.95593643      10.63249052      -1.41082447       1.23370066       3.00213832
Se       2.07604219       1.00415267       7.47926392      -2.80838873       0.12563978      -0.32846049
Se       5.19640082       1.05802821       7.62748049      -0.86427967       1.55311780      -2.70675893
Se       8.65025176       1.18564192       7.77393416      -1.73953127       0.48813242      -2.80018511
Se      -0.23670353       3.91329280       7.80954703       6.55747700       2.57672359      -9.30772255
Se       3.41410414       3.55180335       7.48543347       0.80895904       2.37144569      -0.45737354
Se       6.89464667       4.08952773       7.16790461      -0.66619983      -0.09045192       1.46127723
Se      -1.61253248       6.82389064       7.59334033      -0.81520117       1.29274656      -0.86616223
Se       1.66758091       7.23849748       7.36062890       1.16106571      -2.65050114      -2.72223158
Se       4.99262082       7.02012947       7.37659633       0.90702400      -0.23951806       0.19563113
27
Lattice="10.32 0.0 0.0 -5.16 8.937382167055407 0.0 0.0 0.0 18.34" Properties=species:S:1:pos:R:3:REF_forces:R:3 REF_energy=-18624.325812873714 config_type=therm_T300_01 pbc="T T T"
Nb       0.06417816       0.00383838       9.07964992      -2.76895135      -0.89693808       2.31526683
Nb       3.44405755       0.20592346       9.04814008       0.03461348      -0.48300050       4.12872322
Nb       6.75938898      -0.01959961       9.41257446       0.60088841      -0.46885480      -1.39263134
Nb      -1.67917240       2.98208995       9.16181361      -3.62179809      -1.45955767       3.30534440
Nb       1.86753141       3.05872730       9.21579813      -1.67227661       0.09105639      -0.02131136
Nb       5.19272675       3.31188946       9.06637181      -2.14101957      -2.67632916       2.24956254
Nb      -3.64125982       5.87545149       9.16280726       0.89599114       3.04921239       0.46286979
Nb       0.06543920       5.95231801       9.30507268      -0.53737882       3.01903767      -1.57530719
Nb       3.51959348       6.25205717       9.20335913       0.10481051      -1.27952543      -0.47529259
Se       1.66221939       1.10743225      10.77444845       0.42351211      -0.71923371       1.01089066
Se       5.41144651       1.24963015      11.00029190      -1.67866991       0.12810599      -0.46442145
Se       8.57157263       0.98282129      10.89556344       1.03586738       0.17515743      -0.00451074
Se       0.00397500       4.05086884      10.67463051       0.39142655      -1.58251837       3.82549863
Se       3.34959296       4.26909863      10.83187292       0.91303421      -0.88678454       0.62808631
Se       6.82421859       4.06904684      10.79635401       0.63719984      -0.45217837       1.75669492
Se      -1.74063010       6.89236628      10.92445890      -0.15388232       0.72392572      -1.08580155
Se       1.73576387       6.91259775      11.12673376      -0.20662542       0.62070647      -1.16145240
Se       5.10879772       7.00318114      11.16830272       0.48129766       0.24037243      -2.01824091
Se       1.62756305       0.96435712       7.58699727       0.41706970       1.97291493      -2.58499432
Se       5.03403108       1.01844195       7.49033344       2.05354087       1.27704714      -0.57278548
Se       8.39555554       1.10040269       7.61981430       0.49663403      -1.63921068      -0.93834338
Se      -0.20333982       3.93408996       7.73003680       3.35709737       1.82592805      -4.08984480
Se       3.34183257       3.96759425       7.55951284       0.58764543       1.59861502      -1.98158700
Se       6.90834600       3.96289416       7.56628438       0.96514919       0.66712002      -2.79655908
Se      -1.92744402       7.39195368       7.50340586       0.42428473      -3.50788614      -0.58193449
Se       1.68863258       6.92770377       7.41873136      -0.33445758       0.55439540       1.25681873
Se       5.22129792       6.95322212       7.27511230      -0.70500343       0.10842239       0.80526154
27
Lattice="10.32 0.0 0.0 -5.16 8.937382167055407 0.0 0.0 0.0 18.34" Properties=species:S:1:pos:R:3:REF_forces:R:3 REF_energy=-18620.830695245422 config_type=therm_T300_02 pbc="T T T"
Nb      -0.18180640       0.05886085       9.13546253       5.38347196      -2.04167060       0.73556279
Nb       3.55353713      -0.01446056       9.14945934      -1.22170543      -2.16807451       3.39752385
Nb       6.64449199       0.04078115       9.20800738       3.82143294       0.60668959       3.88321989
Nb      -1.53418826       2.82013297       9.13504431       0.11267885       4.91428574      -0.56899387
Nb       1.64554928       2.92052054       8.92992363       0.14599752      10.44535059       7.58519990
Nb       5.20648648       2.93374906       9.18767671       0.66249564      -0.98881337       0.97765632
Nb      -3.15173374       5.66287098       9.40334128      -2.03829088       3.53434511      -0.98920417
Nb      -0.11209601       5.95830436       9.08691458       1.13033023       1.39581231       0.00233559
Nb       3.32226769       5.94492141       9.09519763       2.15878512      -0.49552614      -0.08471219
Se       1.85657683       0.97461571      10.86373427      -0.96952186       0.03556607      -0.05465343
Se       5.25902045       1.07837870      11.10147920      -0.56564244      -0.85698982      -0.68383374
Se       8.71903691       1.10528657      10.60839473      -2.62646673      -1.90162184       5.98834326
Se       0.18933917       4.20455218      10.69693321      -0.56341021      -2.49237213       1.54791672
Se       3.64309881       3.79903145      10.78498886      -2.05601658       1.28286658       0.41365733
Se       6.88648806       3.93632305      11.00793575       0.41060338      -1.22797841       0.94877306
Se      -1.56854206       6.91355324      10.89848172      -0.38995459       0.73479069       0.75747836
Se       1.79345440       6.86323614      10.85760560      -0.70677312       0.47736875       0.22863406
Se       4.99242336       6.99262309      10.85704447       0.63476063      -0.58808971      -0.48224048
Se       1.86703877       1.23457072       7.85170860       0.23716473     -10.86010964      -8.34623255
Se       5.14199794       0.86500898       7.69639173      -0.25438623       2.46572753      -5.20088147
Se       8.84394449       1.03720274       7.49302763      -2.69999076      -0.07389171      -4.06239930
Se       0.04688591       4.12941144       7.36457324      -0.35175442      -0.65050170      -0.71756378
Se       3.63191804       3.82437633       7.38797111      -0.66580902       1.18209553      -0.07859245
Se       6.92808302       3.88721353       7.77617841       0.63006863      -0.06871247      -3.19771828
Se      -1.76165387       6.93083694       7.38396883      -0.52342030       0.18999707       0.45615072
Se       1.61824085       7.13098736       7.71541988       0.59567344      -1.58253097      -3.26228434
Se       5.18343566       7.07398338       7.42960085      -0.29032074      -1.26801254       0.80685819
27
Lattice="10.32 0.0 0.0 -5.16 8.937382167055407 0.0 0.0 0.0 18.34" Properties=species:S:1:pos:R:3:REF_forces:R:3 REF_energy=-18619.509155748194 config_type=therm_T300_03 pbc="T T T"
Nb      -0.02332882       0.18466221       9.06302710       0.47309969      -2.81638255       4.97537387
Nb       3.54388074       0.08520768       9.17818825      -1.34943475      -0.17248426      -1.71908842
Nb       7.04750394       0.29888746       9.03214899      -8.09085156      -6.76270580      -3.83782553
Nb      -1.50759227       2.93924900       8.91435917      -2.35169807       3.71245005       3.15853518
Nb       1.66968423       2.88823329       8.86804270      -2.42761401      -1.95775647       3.25658472
Nb       4.96810590       2.93968365       9.15805501       4.33659486      -0.85622209      -1.41078025
Nb      -3.64721041       6.16305734       9.18322206       0.85800901      -2.32571142       0.71692872
Nb      -0.21798041       6.10309330       9.31872942       4.21690203       0.04411293      -3.41540047
Nb       3.28380601       6.01833177       9.04904116       1.53305677       0.59289279      -1.43314524
Se       1.65330849       1.00279257      10.74935031       0.24177009       0.47602689       0.38557446
Se       5.12768811       1.02641357      10.71235840       0.49048781      -0.41472742       2.14863029
Se       8.20511458       0.99243935      10.65081181       6.03944599       3.60629794       7.51379753
Se      -0.04354434       4.13241670      10.69532680       0.62316367      -2.25049508       0.98167727
Se       3.46175134       3.93638060      10.67590793      -2.09385294       1.04448109       2.41502949
Se       6.69646524       4.01208835      10.94166730       0.43844714       0.11995970      -1.75440587
Se      -1.78511042       6.69209056      10.86092527      -2.14780856       2.38815117       2.80726053
Se       1.98203165       7.07389262      10.64412535      -3.54840981       0.89786445       2.16821207
Se       4.92464399       6.95514002      10.98617342       0.93722290       0.51577204      -1.31722551
Se       1.49595401       0.68073309       7.37273878       2.84595126       1.85207642      -1.90397285
Se       5.31104884       0.91699932       7.25209248      -1.51831638       1.10881318       0.54403592
Se       8.66624483       1.02639200       7.67048584       0.40248177       0.25114047      -8.52476713
Se      -0.01411007       4.19526169       7.43862518       0.24286846       0.27431022      -1.40358141
Se       3.35972065       3.96170401       7.77981988       0.78318528       1.37372371      -5.90953175
Se       6.65905850       4.12041490       7.25002633       0.69884229      -0.10919269       1.88293557
Se      -1.63823180       7.08011701       7.50229858      -1.50728095      -0.42916134      -0.27247754
Se       1.37320762       7.06130969       7.21436643       1.50573494      -0.26588266       1.35516831
Se       5.18093964       7.01151368       7.51540042      -1.63199693       0.10264821      -1.40754246
27
Lattice="10.32 0.0 0.0 -5.16 8.937382167055407 0.0 0.0 0.0 18.34" Properties=species:S:1:pos:R:3:REF_forces:R:3 REF_energy=-18619.57723454892 config_type=therm_T300_04 pbc="T T T"
Nb       0.03937057      -0.16476718       9.38477282       1.23512556       3.40933344      -4.12349925
Nb       3.55769639       0.12713264       9.43211832       0.11230733      -2.27361547      -3.73004668
Nb       6.80491446       0.04870595       9.17181748       1.76048267       0.38101023       0.78935258
Nb      -2.00784469       3.26757419       9.15402597       4.00546197      -3.60531630      -1.79313311
Nb       1.86751314       3.04695019       9.07568223      -5.14018441      -3.49339823       0.48631748
Nb       4.96764597       2.73881835       9.30944372       2.14570360       3.02832269      -1.63406256
Nb      -3.44192148       6.00273407       9.17589368      -0.69556260      -2.47813747       1.05833471
Nb       0.05484249       5.72476346       9.08362976      -1.51357501       2.59846201      -0.31253327
Nb       3.48596326       5.89336484       9.15919041       1.60219913      -0.88571753      -1.30711748
Se       1.91139154       0.83457020      10.86851737      -2.56785097       1.84701109       2.08379761
Se       5.31058146       1.07429230      10.97400521      -0.23679449      -2.15706196       2.33456656
Se       8.63736530       0.61205007      10.77483480      -1.07301108       2.39954399       1.77847474
Se      -0.09165952       4.13632996      10.85486294       0.41364216      -1.95512058       1.45798081
Se       3.30287609       3.90694398      10.69828626       1.14081621       0.73444487       4.54742917
Se       6.84733751       3.69365034      10.77766332      -2.70674299       1.98703106       4.50504994
Se      -1.85824506       6.77831424      10.63389547       3.38759348       1.57322100       3.28511471
Se       1.90915326       6.68027979      10.59747929      -3.01351083       2.44157767       4.02294418
Se       5.22538090       7.00228277      10.83327319      -0.35120781      -3.12797222       3.60208288
Se       1.57693918       0.82922451       7.40507473       0.79777603       0.61767051       1.35200791
Se       5.17801674       0.97453204       7.62402818      -0.94423275      -0.04825935      -2.22138608
Se       8.76167381       1.41003218       7.29105440      -1.07364666      -1.75585957       1.56026315
Se      -0.18611662       3.93282211       7.52642000       1.68511798      -0.28201171      -2.35103139
Se       3.42650525       3.88374345       7.68093554       1.73273790       1.08903677      -5.04318877
Se       6.74363329       4.14653285       7.59349842      -1.30207760      -1.57199253      -2.59153392
Se      -1.94219933       6.72271550       7.41814416       2.01327431       1.48888008      -0.49235340
Se       1.66270841       7.15229164       7.68051143       0.63148119      -1.69650565      -3.14035106
Se       5.25174679       6.84605252       7.73606279      -2.04532259       1.73542341      -4.12347971
27
Lattice="10.32 0.0 0.0 -5.16 8.937382167055407 0.0 0.0 0.0 18.34" Properties=species:S:1:pos:R:3:REF_forces:R:3 REF_energy=-18620.760124834334 config_type=therm_T300_05 pbc="T T T"
Nb      -0.09025593      -0.07167366       9.04564551       1.16938245       7.54875811       8.00111826
Nb       3.50583014       0.16713764       9.12755776      -5.97799354      -4.32390055      -7.20802318
Nb       6.86488509       0.32879299       9.37842719       0.54338568       0.45081877      -3.60721505
Nb      -1.49258765       3.03358530       8.92896466      -1.40265196       0.34301422       2.13595552
Nb       1.77333974       2.76937829       9.12580280      -0.80254028       3.84717817       0.70869888
Nb       5.11640368       3.06281344       9.17254541      -0.07626406       1.41219589      -0.77758207
Nb      -3.45154889       5.99954912       9.37877000       1.14663950      -2.00001461      -0.65699553
Nb      -0.10482294       6.17178662       8.97419993       0.45756277      -0.70574236      -0.74180131
Nb       3.30720365       6.00845070       9.08332507      -0.31876254       0.22624628       0.20347685
Se       1.84122506       1.19081393      10.90455692      -1.13193614      -1.62916589       1.02784554
Se       4.74479054       1.03980935      10.55081853       6.72412819       3.82384309       8.22283400
Se       8.61403880       0.89378348      10.93231645       0.97355387       1.47462742       0.61696680
Se      -0.12488780       3.96413692      10.84824642       0.95224585       0.29045495      -1.03285019
Se       3.31789486       4.14631276      10.86694762       0.42108448      -0.03408306      -0.69141103
Se       7.06163907       3.90979264      11.04659183      -1.06523581       0.07059247      -1.78991280
Se      -1.65408980       6.88796068      10.78778719      -0.03845856       1.31658454       1.15282609
Se       1.53796143       7.38107464      10.65856669       0.02872462      -4.35769770       1.86635530
Se       5.14074656       7.04685145      10.85985204      -0.76030734      -0.48070527       1.31779116
Se       1.56115824       1.10761852       7.48802865       1.07011062      -1.37552142      -2.28067623
Se       5.46222724       0.84449901       7.33743088      -1.72465358       1.56686163       0.32267062
Se       8.71670082       0.84256922       7.55693181      -2.47047250       1.66811296      -2.48924669
Se      -0.01821083       4.09840350       7.31695916       0.59813038       0.22872405      -0.29545729
Se       3.30723402       3.99326603       7.34895642       0.92586402       0.18665643       0.88295334
Se       6.83999041       4.00243791       7.48825022       0.19833130       0.14664621       0.49945967
Se      -1.85792092       7.23149685       7.31814078       0.36737696      -1.18211584       0.75718911
Se       1.63261933       7.18024392       7.20871085       0.52809482      -0.72059511       1.55239018
Se       5.36057103       7.15440439       7.89268307      -0.33533870      -7.79177364      -7.69735990
27
Lattice="10.32 0.0 0.0 -5.16 8.937382167055407 0.0 0.0 0.0 18.34" Properties=species:S:1:pos:R:3:REF_forces:R:3 REF_energy=-18621.215537003733 config_type=therm_T300_06 pbc="T T T"
Nb      -0.07813806      -0.03200266       8.89312347       4.91312437      -1.95322645       5.51662888
Nb       3.33253722       0.02374348       9.15554941       1.11605906      -0.87651478       1.67106099
Nb       6.66989657      -0.07217224       9.10076957       6.07861906      -4.31039094       1.12784834
Nb      -1.66475000       3.02619094       9.04019210       1.89885122      -0.58814499      -1.61568251
Nb       1.83320717       3.04402603       9.22084385      -0.15649379      -0.70886703       1.34843922
Nb       4.99181745       2.88547724       9.29971155       0.22633087       1.02347441      -1.05528075
Nb      -3.59201241       5.73715168       9.00005860       2.06938863       2.08296791       2.73397689
Nb      -0.06528006       5.82001696       9.27463004       0.57627344       0.77724706       0.20856995
Nb       3.47282190       5.98617676       9.07376609      -0.42207821      -1.21556410       0.05688746
Se       1.94820707       1.06096619      11.03747941      -0.58368387      -0.56990044      -1.23593289
Se       5.44221718       0.84351050      10.71716181      -3.65054637       1.51925740       4.00790040
Se       8.59043053       1.07096732      11.05643200       0.24978807      -0.64051322      -1.84038227
Se      -0.12842510       3.83170484      10.89685501       1.30721158      -0.24286795      -0.23782421
Se       3.27904469       4.08547001      11.19236715       1.00102585      -0.67224012      -1.98247043
Se       7.25641122       3.88476264      10.59612948      -4.46905192       0.63936831       3.68614689
Se      -1.63193257       6.55625711      11.08018082      -0.96106679       1.45331580      -0.85975196
Se       1.75028636       6.73542815      10.82112313       0.11337074       0.97526674      -0.11237855
Se       5.23413948       6.89279332      10.67453098      -0.47667764       0.66767744       0.74811363
Se       1.84833844       0.94092595       7.47857587      -0.67238667       0.69801877      -0.80388600
Se       5.36715827       0.72987969       7.49709774      -3.68483049       2.39569582      -3.33434979
Se       8.62299255       0.91595095       7.80558641      -4.00366425       1.77469419      -5.03844894
Se       0.15743217       4.16327684       7.43840946      -0.84091091      -2.16004007      -0.41264355
Se       3.30440289       3.82983917       7.42580985       1.46674879       0.30761347       0.03502742
Se       6.50984898       4.12517966       7.36137929       0.44004071      -3.60972599      -1.49461646
Se      -1.75687340       6.62897675       7.54327735       0.27932310       1.78298137      -0.44852560
Se       1.73490909       6.58038765       7.32097581      -0.04434459       1.53014577       0.69134856
Se       5.37538578       7.00103557       7.36193387      -1.77042024      -0.07972811      -1.35977547
27
Lattice="10.32 0.0 0.0 -5.16 8.937382167055407 0.0 0.0 0.0 18.34" Properties=species:S:1:pos:R:3:REF_forces:R:3 REF_energy=-18622.578207324015 config_type=therm_T300_07 pbc="T T T"
Nb      -0.04344007      -0.11301192       9.14287958       1.69800538       0.22807202       1.06859778
Nb       3.49855417       0.06959182       9.05355516       1.74545997      -2.06053401       2.99798753
Nb       7.00258798      -0.00570547       8.75742316      -4.17036969      -0.15525169       6.74280417
Nb      -1.82708254       3.18238497       9.09922306       0.11383199      -1.73970867      -0.71415887
Nb       1.58542830       2.98509621       9.18472047       0.44425912       0.06908066       0.59767658
Nb       4.97798589       2.87733412       9.27978783       0.34765480       0.36430141       0.27261792
Nb      -3.22525473       5.94518666       9.35631717      -3.24097709      -0.42100426      -2.83202180
Nb       0.08591922       6.07977229       8.97549455      -1.62681899      -1.05840362       1.33798152
Nb       3.32778578       6.17011700       9.04559380       5.23715896      -5.45127015       1.84522109
Se       1.78910604       0.95334710      10.79696288      -0.60417196       0.08921317       0.24575838
Se       5.08415596       0.87332566      11.05052974       0.46526786       0.58538183      -1.52339096
Se       8.65787881       0.84260129      10.70356064      -1.26567258       1.04964232       1.13536959
Se      -0.32714771       3.97193127      10.84774822       2.38143134       0.90159615       0.33569557
Se       3.44417845       4.08642097      10.94156462      -0.89199308      -0.40759827      -0.83991641
Se       6.89372364       3.82685063      10.75764017      -1.74044452       0.50208014       2.43801232
Se      -1.63692747       6.98539779      10.64954745       1.76619823       0.85682527       2.89737744
Se       1.88775061       6.86923440      10.68171630      -2.83673386       1.70313293       2.71002886
Se       5.04690105       6.74283672      10.76602531       1.38328667       0.97273189       1.15725148
Se       1.90675162       0.80923245       7.60017914      -3.55687054       2.33354403      -2.62702877
Se       5.06380508       1.10201263       7.48989880       0.87990221      -0.03130395      -1.79418212
Se       8.57781627       1.10138259       7.71032021       3.37160482       2.37860030      -5.09315559
Se      -0.15037372       4.05115642       7.52035046       1.03722544      -0.11277630      -1.45389816
Se       3.26816865       3.85726979       7.45372041       0.33851298       0.58854994       0.39705649
Se       6.58474927       4.06418126       7.49501564       0.44234287      -0.08892752       0.20041132
Se      -1.92757689       6.94884225       7.37289264       1.18932187      -0.06185174      -0.08077943
Se       1.89342913       6.94702383       7.57614236      -3.52735659       0.07246706      -7.83410685
Se       5.14901520       7.08307267       7.47591605       0.61994465      -1.10658943      -1.58720909
27
Lattice="10.32 0.0 0.0 -5.16 8.937382167055407 0.0 0.0 0.0 18.34" Properties=species:S:1:pos:R:3:REF_forces:R:3 REF_energy=-18621.688634395734 config_type=therm_T300_08 pbc="T T T"
Nb       0.08408236       0.06908705       9.21985181      -1.88814026       2.61648108      -2.61076628
Nb       3.42593995       0.11373310       9.01894936       1.15188070      -0.92459415       0.27024248
Nb       6.84897577      -0.03054459       9.22948174      -1.74313055       0.69553226       0.55103009
Nb      -1.71141582       2.98121768       9.24846006      -1.15129680       0.36544735      -1.25873420
Nb       1.86687546       2.71132329       9.07292064      -2.23465837       3.77655871       4.79626336
Nb       5.14853771       3.28171397       9.13842097       0.61913270      -4.68071953       5.65770248
Nb      -3.43732742       5.91073563       9.26147244      -0.04964389      -0.91095548       0.35821406
Nb      -0.11782359       5.81936019       9.24170500       1.14882237      -0.50959213      -1.26380879
Nb       3.59117315       5.96394941       9.12654119      -2.20861875      -0.46096640       2.85934542
Se       1.93239444       0.79091072      10.91354822      -1.33982603       2.04401621       0.42752458
Se       4.90388001       1.11399403      10.87907049       1.54634474      -0.09267747      -0.60124425
Se       8.46156083       0.95413340      10.84169385       0.86727346       0.35524624       1.07173658
Se       0.00057815       3.84332758      10.69010027       1.23445219      -0.43982525       1.85042757
Se       3.44787611       4.11031143      10.88305762      -0.36553271      -0.29977263       1.03640294
Se       6.76134652       3.86708627      10.96203068       0.96079477       0.98845753       0.34613913
Se      -1.76691480       7.32441332      10.77183986       1.00242067      -2.84234195       1.27275597
Se       1.60494267       6.83044985      10.63034754       1.00305265       0.41607828       2.12119533
Se       5.42792710       7.31469316      10.69084758      -1.35067145      -3.93096708       3.91159793
Se       1.72411946       1.03296226       7.55229600      -0.70904109      -2.81114315      -4.55428810
Se       5.17757587       0.97719622       7.48323659       0.23373796       0.41704964      -0.46978117
Se       8.31818757       1.09614165       7.64081149       2.17117578      -0.20611480      -1.60926555
Se       0.39094438       3.81247266       7.22804593      -1.80980929       0.73713528       1.39819778
Se       3.45792741       3.89003178       7.78423856      -2.15940038       1.98108281      -5.88316406
Se       6.57065889       3.89993632       7.53139141       4.22550752       1.63819663      -3.29320031
Se      -1.66206286       6.75726266       7.70155517      -1.06788816       1.26384041      -2.75597293
Se       1.88896808       7.10454781       7.48185505      -0.85027230      -1.18623192      -0.39154044
Se       5.09893773       6.86373734       7.65523591       2.76333477       2.00077977      -3.23700962
27
Lattice="10.32 0.0 0.0 -5.16 8.937382167055407 0.0 0.0 0.0 18.34" Properties=species:S:1:pos:R:3:REF_forces:R:3 REF_energy=-18621.281172902472 config_type=therm_T300_09 pbc="T T T"
Nb      -0.09891516       0.02616474       9.21301180       2.05112814      -1.09231955       1.47506374
Nb       3.49787674       0.12055729       9.17333982      -2.99411005      -1.33769304      -2.91616655
Nb       6.79121871       0.01204016       8.99873778       0.74639202       0.57347942       1.91931643
Nb      -1.61797292       2.87213236       9.33031778      -1.08407377      -0.98055035      -3.15381284
Nb       1.86796321       2.93484917       9.23038346      -1.44882666      -1.61406709      -2.64566798
Nb       5.17969707       2.88136335       9.20114317       1.00416079       6.85732728       5.52013792
Nb      -3.44370551       6.06759476       9.04481332       3.36999634      -2.76225285       2.91347563
Nb       0.12901199       6.21229639       9.33149079       0.21118553      -0.57264201      -3.32292149
Nb       3.32643793       5.98815791       9.05767443       2.15365140      -1.00209260      -0.10080884
Se       1.65064536       0.95245849      11.06359354      -0.23864722       0.50904629      -1.55729893
Se       4.84465889       0.77599182      10.85593806       3.71878911       2.02091768       3.28285522
Se       8.32593805       0.80992571      10.82902988       1.07576396       1.12579454       0.71062129
Se      -0.12599812       4.20106278      10.55766566       1.92116196      -1.31093583       2.89106615
Se       3.53060937       3.99565507      10.60717947      -0.54201194       1.01846564       2.56812300
Se       6.97921357       3.96872768      10.75438659      -0.88634719       0.63008251       0.58502958
Se      -1.68983120       6.98067582      10.72955439      -1.44194844       0.39890048       1.84129604
Se       1.93640105       7.01869051      10.79578809      -0.87202460       0.45135690       1.61200403
Se       5.04809981       7.00012481      10.91835833       0.54265986      -0.59672990      -0.69994838
Se       1.69249468       0.76949300       7.27574075       0.57679614       1.10762173       1.77982739
Se       5.20465111       1.42029542       7.73379259      -0.01549630      -7.86060721      -8.83690496
Se       8.88337642       0.88184270       7.48027368      -2.17405978       1.15132200      -1.37975474
Se      -0.02633378       3.79066400       7.38745324       0.85444340       0.63579113       1.25384628
Se       3.68014444       3.82844284       7.27807225      -1.53311256       0.93655235       1.02649751
Se       7.15539435       3.92458677       7.22919314      -0.39998883       0.19768132       2.18793011
Se      -1.50711229       6.95450021       7.55618736      -0.65177054       0.43136889      -0.87999142
Se       1.76951479       7.10564118       7.50202759      -0.49856261      -1.25146724      -2.32281713
Se       5.31758585       6.76451079       7.63450092      -3.44514840       2.33564925      -3.75099731
27
Lattice="10.32 0.0 0.0 -5.16 8.937382167055407 0.0 0.0 0.0 18.34" Properties=species:S:1:pos:R:3:REF_forces:R:3 REF_energy=-18620.841045095276 config_type=therm_T300_10 pbc="T T T"
Nb       0.10946384       0.14356652       9.01696242      -1.87549840      -2.64420914       1.31116671
Nb       3.33470875      -0.06693829       9.15716432       0.92924399      -1.32073147      -2.35593037
Nb       6.73150945       0.16390278       9.09130624       1.08267637      -2.45666387      -3.05753223
Nb      -1.97389328       2.83073103       9.04314678      -0.62013414       3.69742298       3.17136319
Nb       1.45445680       3.13750592       9.11084126       4.20143890      -2.05285541       0.63041495
Nb       5.09042203       2.73306617       9.33115409       1.70818103       8.34089057      -4.49185658
Nb      -3.47708797       6.09008501       9.20673102       0.10909319      -1.01920920       0.32160387
Nb       0.13767843       5.70976892       9.25468211      -2.58487862       3.88872977      -1.22150771
Nb       3.26065505       5.89976693       9.21109051       1.13465071       0.27268966       0.70940413
Se       1.77270840       0.80115976      10.69303689      -1.21033190       2.41799962       2.40174151
Se       5.15718933       1.04973374      10.63250773      -1.25693880      -5.83583031       7.13388208
Se       8.50211081       0.85243798      10.55857905       0.89462486       0.10218772       2.73947879
Se      -0.08897099       3.97887875      10.82919369      -0.59254646      -2.25666676       2.96933927
Se       3.72067727       3.98217491      10.81592059      -2.52180072       0.88733527       1.85182857
Se       7.02170233       4.04827548      10.88714767      -1.02296250      -0.39887117      -0.02638363
Se      -2.08730226       6.96708231      11.11445251       1.52093993       0.36230829      -0.82433527
Se       1.50936516       6.86250947      10.74008157       1.54579042       2.22724768       2.56041303
Se       5.00467096       7.02545165      10.86841557       0.06774677       0.05708466      -0.53721092
Se       1.52395814       1.02210291       7.36547322       2.27673576       0.73931994      -1.51156158
Se       5.22091454       1.51309969       7.38963344      -0.54344096      -3.36070488      -2.80071810
Se       8.65458215       1.22511536       7.44621597      -0.78130914      -3.51173868      -3.36920469
Se      -0.26091499       3.92842162       7.73176027       0.17253465      -0.47608320      -5.23978174
Se       3.48432927       4.10862451       7.52320045      -0.96474758      -1.63942356      -0.27715464
Se       6.83974129       4.17773092       7.31887008      -0.20242218      -0.61737998       1.23682712
Se      -1.57445432       6.62142980       7.56837004      -0.50743858       2.09189504      -0.17334789
Se       1.74319748       6.82252131       7.44119945      -0.72020405       0.96916834      -0.42507740
Se       5.09093476       6.76410723       7.57126724      -0.23900178       1.53608810      -0.72586099
27
Lattice="10.32 0.0 0.0 -5.16 8.937382167055407 0.0 0.0 0.0 18.34" Properties=species:S:1:pos:R:3:REF_forces:R:3 REF_energy=-18620.89706598758 config_type=therm_T300_11 pbc="T T T"
Nb      -0.16901116       0.04351383       8.93879636       0.75671063      -0.97838137       4.64489301
Nb       3.63086946       0.02668016       8.98890407      -4.25141318      -2.17872119       1.45739795
Nb       6.70979910      -0.05866739       9.42558594       1.85323959      -0.10251965      -1.90309019
Nb      -1.69291149       2.91269241       9.42418115      -1.25400594       1.96161287      -3.06714764
Nb       1.94814103       2.95456803       9.18260583      -4.18989671      -0.61253962      -2.40865366
Nb       5.14961705       3.11270002       9.41397888       1.09150323       1.26522444      -2.73000068
Nb      -3.55042646       6.02275669       9.06438838       5.65284618      -0.88783663      -1.97611749
Nb       0.16949758       5.91613497       9.24022123      -2.83003922       0.02753600       0.61517397
Nb       3.20414620       6.04863033       9.22185357      -0.38271076      -0.61527707       0.71194155
Se       1.95714121       0.89972500      10.86412580      -1.04197632       0.09319169      -0.66579565
Se       5.02194641       1.12018447      10.70142825       0.49703049      -0.87944455       3.81387210
Se       8.77079762       0.95740273      10.76784348      -1.04429340      -1.23379219       2.54057517
Se      -0.05312339       3.84666788      10.93181758       1.31630275       0.48868906       0.12949875
Se       3.24244542       3.73238613      10.85600913       1.81453703       2.79346450       3.66624527
Se       7.02801564       4.26464375      11.14806736      -0.56411032      -1.42968145      -1.47801382
Se      -1.92604275       7.03508665      10.85873838       1.57297623      -0.27373481      -1.06049135
Se       1.47041063       6.93724082      11.15651231       1.10823442      -0.02599257      -0.28028084
Se       5.32787823       6.70165828      10.56573475      -4.91220006       2.58508225       5.22760988
Se       1.43932943       0.91085481       7.55634739       3.64450968       1.37970409      -2.26818196
Se       5.16542336       1.04106362       7.60873089       2.50135505       2.44717650      -2.19574601
Se       8.66062927       0.90408740       7.38270002      -2.80231835       1.64114903      -0.65167309
Se      -0.18911648       4.17685963       7.38005771       0.29085810      -1.33062328       1.46008938
Se       3.40448728       4.05764117       7.50903416       0.51758543      -0.13153070      -0.13867348
Se       6.72639302       4.23071227       7.46222040       0.37296114      -2.22955936      -0.05024116
Se      -1.33070686       7.13498816       7.15922161      -1.83519430      -0.48559500       1.24880460
Se       1.40439419       7.06626616       7.53607764       2.81126425       0.28718991      -0.64550296
Se       4.97924826       6.98716246       7.68066354      -0.69375588      -1.57479169      -3.99649164
27
Lattice="10.32 0.0 0.0 -5.16 8.937382167055407 0.0 0.0 0.0 18.34" Properties=species:S:1:pos:R:3:REF_forces:R:3 REF_energy=-18627.36314141823 config_type=well_T100_p00 pbc="T T T"
Nb      -0.23328405       0.09097951       9.18701584       3.75956680      -2.06263049       1.75016046
Nb       3.40272385      -0.24469698       9.23483600      -0.00366048       2.06585337      -1.42587879
Nb       6.94437660      -0.01593586       9.18380136      -1.01671266      -1.23611081       1.14130498
Nb      -1.62408758       3.16939514       9.03475265      -0.49889917      -1.21878980       1.64426392
Nb       1.61920308       3.13151474       9.33141499       0.65295145      -0.82260260      -2.15167602
Nb       5.26963171       3.10106333       9.15035613      -0.03914762      -1.60502940       1.77336441
Nb      -3.37307694       5.90471146       9.08505063      -0.11452825       0.90759684       2.14621191
Nb      -0.09678572       5.76777326       9.19849495       0.24875706       1.52923817      -0.14720234
Nb       3.40528460       6.02763620       9.23563392       0.15033317       1.16521007       0.28930618
Se       1.69597489       1.13883035      10.74489541       0.08214160      -1.37850930       0.95223402
Se       5.11901261       0.87758265      10.86425658       0.27819053       0.66506211      -0.33481137
Se       8.61899177       1.07502677      10.86856404      -0.77906663       0.48886158       0.82058274
Se      -0.01361620       3.96860774      11.03520517      -0.64356358       0.27256342      -0.10534427
Se       3.42874738       4.03646338      10.83372986       0.74544585      -0.38476662       0.94178969
Se       7.04169108       3.96220614      10.87697568      -0.68293565       0.14522439      -0.14822461
Se      -1.88272209       6.98621428      10.92617315       0.73935748      -1.23134450       0.66981403
Se       1.65272623       6.76260145      10.94074875      -0.13225112       1.15238052      -0.49269921
Se       5.24008074       6.95914237      10.98672582      -0.45685495      -0.07443292      -1.13312913
Se       1.70259792       0.85164784       7.53330186       0.05969690       0.94225891       0.49979237
Se       5.20566262       1.00250996       7.58421018      -0.36146574      -0.08443014      -0.09764330
Se       8.62948783       0.92615540       7.62240076      -1.47376045       1.75501779      -3.55350188
Se       0.10518826       4.02377728       7.38103547       0.06264519      -0.36964005      -0.40857066
Se       3.51694465       4.03326120       7.68567037      -0.97117097      -0.26476552      -1.30706657
Se       6.88182421       4.04072105       7.50604476       0.28230456      -0.93282374      -2.01995583
Se      -1.80407268       6.91508453       7.30811139       0.75210013       0.06466119       0.77716427
Se       1.60467072       6.89123481       7.48234661       0.36564147       0.32839569       0.73558850
Se       5.23879703       6.95290313       7.62814572      -1.00511493       0.18355260      -0.81587325
27
Lattice="10.32 0.0 0.0 -5.16 8.937382167055407 0.0 0.0 0.0 18.34" Properties=species:S:1:pos:R:3:REF_forces:R:3 REF_energy=-18626.276925560498 config_type=well_T100_p01 pbc="T T T"
Nb      -0.07030791      -0.13141814       9.17079579       0.39587867       0.06599430      -0.89155110
Nb       3.46946472      -0.22095422       9.12402773      -0.03427949       2.05294720      -0.00247777
Nb       6.92298144      -0.24150545       9.24639585      -1.24674849       1.42316474      -1.77311887
Nb      -1.62443150       3.08593722       9.05058407      -2.47825008      -3.23892252       4.59888929
Nb       1.51783120       3.15274534       9.15204495       1.80806325      -1.00384249       0.67280113
Nb       5.15638482       3.10967603       9.37329496      -0.82636927      -2.42786212      -0.78043702
Nb      -3.33867529       5.91833742       9.12867657      -0.16233971       0.52277958       0.99785876
Nb      -0.01299719       5.82190578       9.08795886       0.52605516       1.65201631       2.12429274
Nb       3.35663135       6.06172802       9.18069799       0.03003768      -0.72838144      -0.44777844
Se       1.75652241       0.99064416      10.52697725      -0.57284436       0.07682045       1.88552133
Se       5.03748884       0.92978946      10.74549539       0.72794333       0.12344895       0.61776384
Se       8.52567580       0.93459822      10.70283682       0.76450775       0.85257652       1.60133087
Se      -0.25758993       4.04072648      10.93564865       1.42868772      -0.31315214       0.43529934
Se       3.35972293       3.93925329      10.91016948      -0.52832622       0.65939926       0.28673611
Se       6.94982608       3.84327054      10.84000889       0.24845933       1.05001102       1.31260704
Se      -1.68887212       6.82927835      10.95678963      -0.20728362       0.44127072      -0.77971274
Se       1.66579848       6.97565757      10.97853605       0.03316620      -1.17655480       0.08538042
Se       5.14702389       6.88169383      10.81898490       0.40851821      -0.35305232       0.21751327
Se       1.61063827       1.10312276       7.51490437       0.48859059      -0.53920558      -0.45977624
Se       5.25521265       0.95308401       7.36607272      -0.45105634       0.18208013       1.67705603
Se       8.58179445       0.97656857       7.60195119      -0.04662593      -0.41419958      -1.36856402
Se      -0.20329420       3.94813989       7.54550336       3.03386059       1.32653702      -5.09827337
Se       3.48132302       3.89439941       7.65722145      -0.54314400       0.80429198      -0.92198782
Se       6.89237974       3.84147920       7.70713043      -1.43933260       0.86061996      -3.00678636
Se      -1.58139734       6.95407220       7.52999692      -0.87695701      -1.06895645      -2.27640280
Se       1.75407956       7.06027734       7.31768668       0.20645778      -1.03280803       0.50987804
Se       5.30399899       6.84376934       7.37955659      -0.68666889       0.20297908       0.78393835
27
Lattice="10.32 0.0 0.0 -5.16 8.937382167055407 0.0 0.0 0.0 18.34" Properties=species:S:1:pos:R:3:REF_forces:R:3 REF_energy=-18625.208154920965 config_type=well_T100_p02 pbc="T T T"
Nb       0.00356733       0.12911240       9.19462334      -2.32017995      -2.01756985       1.37855121
Nb       3.36333298      -0.23536337       9.32626350       2.43989308      -2.23227187      -4.66123263
Nb       6.88100818      -0.26725111       9.12082038       0.28469337       3.29203612       0.22846463
Nb      -1.67702483       3.09127016       8.93515623      -0.73338481      -1.42522393       3.42008991
Nb       1.49602329       3.01121002       9.19401343       2.94367658      -1.02361556      -1.11788917
Nb       5.21679686       3.11158358       9.25328296      -0.02755760      -1.85569962      -0.56395939
Nb      -3.45575011       6.07280395       9.21137422       0.97753111      -1.77180581       0.84441044
Nb      -0.01077294       5.80595411       9.11776785      -0.52118164       1.50652119      -0.02536188
Nb       3.33675594       5.95531410       9.17416174       1.01241609      -0.50854287       0.07307358
Se       1.91862464       0.91114241      10.56738488      -3.12994118       2.64057643       5.12992571
Se       5.03390754       0.84717949      10.69869516       1.78849124       1.22386927       1.41466287
Se       8.49951418       1.21226181      10.76301059       0.33092566      -0.90358618      -0.03261727
Se       0.15480815       4.07881482      10.77727952      -2.19271905      -0.73615080       3.12361652
Se       3.39245248       3.83743562      10.79214133      -0.18730255       0.94460582       0.78229028
Se       7.06059635       3.94052496      10.91429502      -0.67475903       0.32170954      -0.66658575
Se      -1.82716584       6.88741869      11.10790551       0.60879712      -0.42089576      -0.79031623
Se       1.56948458       6.94689380      10.77787670       0.58964266      -0.97163814       1.86790645
Se       5.15730374       6.80092917      10.97457188      -0.61075707       0.80663348      -0.74373478
Se       1.56052320       0.95177209       7.59128730       1.64819257       0.34197652      -2.37460300
Se       5.15265713       0.85833280       7.53459083      -0.50882517       0.68532318       0.36032468
Se       8.57348399       0.99012432       7.51572653      -0.11652291      -0.51628420      -0.83846014
Se       0.00706852       3.86768663       7.42500476       0.80541169       1.09776540      -2.52650866
Se       3.29629011       3.82387957       7.54844058       0.92492325       0.74734718      -0.27563409
Se       6.88305330       3.80862459       7.45855576      -1.10771506       1.53961154      -1.12284446
Se      -1.59391438       6.81446759       7.46107565      -1.28282184       0.60652606      -0.23405241
Se       1.59336967       6.90507772       7.48062505       0.88925999      -0.98307055      -1.65752670
Se       5.34289743       7.04086419       7.61742774      -1.83018708      -0.38814607      -0.99198945
27
Lattice="10.32 0.0 0.0 -5.16 8.937382167055407 0.0 0.0 0.0 18.34" Properties=species:S:1:pos:R:3:REF_forces:R:3 REF_energy=-18625.56165106986 config_type=well_T100_p03 pbc="T T T"
Nb      -0.07127562      -0.01304538       9.27901713       1.14478471       0.72175828      -1.23029652
Nb       3.39215969      -0.21217420       9.23522779      -0.75423903       1.27818100      -3.15208506
Nb       6.80411393      -0.10685012       9.34302077       0.03506085       1.64004294      -2.92448792
Nb      -1.63154264       3.12711802       8.90028982      -0.00811517      -0.79809999       1.92790494
Nb       1.67306177       3.22218291       9.03321653      -0.82027087      -2.55510447       1.47847842
Nb       5.22685887       2.94328897       9.23468859      -0.38028878       0.17720943      -1.44579327
Nb      -3.50977265       6.01601992       9.29810564       1.09598903      -1.50415988      -3.19938821
Nb      -0.05362420       5.93635180       9.26223983       1.02682173       0.60550739      -3.08145274
Nb       3.33235512       5.77059834       9.12917543       1.73881933       2.83387376       0.25810508
Se       1.74503045       1.14867030      10.73553020      -0.58134776      -0.22419840       0.15599551
Se       4.94377374       0.91169152      10.68835635       1.26007992       0.65548193       2.78240233
Se       8.58714332       1.05633639      10.81944119      -0.33552896       0.55465869       0.49295067
Se      -0.09998560       4.02890834      10.80553773       0.45913886      -0.90195482       0.75880145
Se       3.51896915       3.92329855      10.80071931      -0.87527294      -0.30421087       1.54634140
Se       6.91075770       3.98335862      10.66374783       0.77806647      -1.01332626       2.32393813
Se      -1.81840439       6.83306428      10.73926965       1.27804396       0.41970714       3.68606488
Se       1.90588522       6.93500174      10.65696951      -1.57265664      -1.42856662       3.86820259
Se       5.21710253       6.91118908      10.82312863      -1.92720791       0.55676031       2.11138195
Se       1.86419620       0.93504056       7.43811236      -1.14722700       0.42493059       0.77298108
Se       5.17544353       0.99019475       7.53176460      -0.25362390      -0.58151746      -0.08410516
Se       8.40720167       0.98688530       7.61210652       0.83014416      -0.67021460      -0.88129909
Se       0.04750222       4.03415948       7.26716255      -0.15535145       0.39251027      -0.07146793
Se       3.47359581       3.97364470       7.63312532       1.21442998      -1.45228042      -3.98484480
Se       6.91482859       4.04411560       7.50271367      -1.10975317       0.11259735      -1.21190619
Se      -1.89662266       6.91699789       7.37334547       0.85864870      -0.08795075       0.75029547
Se       1.69872135       6.88771629       7.42217768      -0.22077574       0.38650160       0.40372902
Se       5.22651695       6.88801878       7.68011259      -1.57836835       0.76186363      -2.05044680
27
Lattice="10.32 0.0 0.0 -5.16 8.937382167055407 0.0 0.0 0.0 18.34" Properties=species:S:1:pos:R:3:REF_forces:R:3 REF_energy=-18625.901937724568 config_type=well_T100_p04 pbc="T T T"
Nb      -0.08888104      -0.15583830       9.20861852       2.26950530       1.27395359      -1.46562290
Nb       3.43182249      -0.22469882       9.20885375       0.01873949       0.68759449      -1.44296300
Nb       6.83465401      -0.18546741       9.01467187       0.87850327       4.29533791       5.74921138
Nb      -1.55206997       2.98345589       9.17715423      -1.57032928       0.94911502       0.19680792
Nb       1.45451932       3.04065810       9.21494773       2.42784206       0.44411436      -0.47092403
Nb       5.10623360       3.05176385       9.11781380       0.85493705      -1.24696858      -0.17215978
Nb      -3.28079679       5.99438577       9.28969073      -0.25103017      -0.25847686      -1.97626867
Nb       0.02162860       5.85470333       9.15515689      -0.28836850       0.42270247       2.33696025
Nb       3.30970997       5.93807214       9.22019249       2.21879364       0.08897354      -0.77039918
Se       1.89266585       1.01575452      10.71371009      -1.53373451      -0.11002599       0.82418023
Se       5.05319752       0.92567117      10.74315368       0.85429119       0.33662837       0.57546560
Se       8.57669505       0.99643784      10.71783571      -0.48708778      -0.30383395       1.55979933
Se       0.01499614       4.02931644      11.01698092      -0.64008642      -0.33650624       0.29112627
Se       3.40305479       4.05950848      10.74549214      -0.09115949      -1.27460408       1.52341410
Se       6.78646929       3.95791299      10.73938573       0.75659518      -0.27395027       1.14131835
Se      -1.81880168       6.93954265      11.10777915       0.86095086      -0.22645994      -0.72838453
Se       1.75452372       6.84895633      10.86265680      -1.03056937       0.90957274       1.41519174
Se       5.28898063       7.07020856      10.85697094      -0.86136147      -1.61372282       1.34711742
Se       1.68681976       1.19055511       7.47691596      -0.12757711      -1.76203202       0.39897068
Se       5.27925646       0.92295968       7.57138697      -1.93008781       0.87723032      -1.46146954
Se       8.56830263       0.96678335       7.68409419       0.32786965       0.33645122      -2.46517731
Se       0.00088903       4.09938076       7.40325366       0.08791656      -1.03285276      -0.75271333
Se       3.48481583       3.89795474       7.48895326      -1.24612757       0.63455263      -0.51166830
Se       6.97299097       3.90380223       7.47226480      -0.14797599       0.39141292       0.35242368
Se      -1.51105319       6.82899943       7.41939437      -1.81209268       0.64360703      -0.04530644
Se       1.68107508       6.98886476       7.71785481       0.00539700      -4.25896297      -5.83386855
Se       5.10447585       6.81612725       7.49210070       0.45624714       0.40714936       0.38493837
27
Lattice="10.32 0.0 0.0 -5.16 8.937382167055407 0.0 0.0 0.0 18.34" Properties=species:S:1:pos:R:3:REF_forces:R:3 REF_energy=-18626.10254072671 config_type=well_T100_p06 pbc="T T T"
Nb       0.04899398      -0.16120596       9.25244000      -1.02388296       2.79192081      -1.16374403
Nb       3.35002728      -0.13873774       9.29068679      -1.44111901       1.16161490      -3.88408816
Nb       6.92990885      -0.18144253       9.19635848      -0.69936397       1.26083968      -0.09711879
Nb      -1.70616642       3.12127011       9.17912339       1.31937496      -1.24443810      -2.85394045
Nb       1.62975577       3.13831615       9.25525987       1.84291558      -1.08076578      -2.36350869
Nb       5.22130956       3.01243863       9.20002144      -1.22018103      -0.73797088      -0.37154858
Nb      -3.30444663       5.91760817       9.12946924      -0.34552721       1.86950079       0.89616469
Nb       0.00928727       5.89295112       9.05581744       0.69368518       1.42311588       2.79915230
Nb       3.39479821       6.01983190       9.02795391      -0.53986559      -0.26935751       2.89832952
Se       1.63414321       1.02639595      10.82048707       0.47992109       0.34259538       0.52149737
Se       4.92368831       0.85987978      10.72766297       2.34528986       1.27584438       1.49022476
Se       8.49979996       1.11228158      10.70684394       0.69775549      -0.82063237       0.90930611
Se       0.05602706       3.90401580      10.85428455      -1.03359016       1.24012790       1.55014098
Se       3.54618001       3.91740559      10.85968857      -0.37637454       0.69632750      -0.09470376
Se       7.05887367       3.88587040      10.78044652      -2.02224591       1.19016083       2.16266851
Se      -1.69554954       6.95263027      10.78408106       0.50847473      -1.83058406       1.69168355
Se       1.64158004       7.04045552      11.07745380       0.61103012      -0.74063892      -1.33938431
Se       5.32371265       7.00985012      10.87030689      -0.81670269      -1.60565470       0.92621729
Se       1.64054122       1.17378245       7.35321015       0.22037465      -0.67786543       1.65948563
Se       4.97980460       0.90661955       7.47870505       0.81471086       0.41791482       0.79919219
Se       8.64826052       1.00870760       7.46037323      -0.34727710       0.07221020       0.70563515
Se       0.01343930       4.11805778       7.44227203       0.20065532      -1.83703675      -1.20341460
Se       3.50956739       4.08328959       7.44852776      -0.37181108      -0.83255020       0.17170521
Se       6.73998017       4.13015691       7.59024935       1.05473362      -1.86300901      -2.48128039
Se      -1.47978956       6.85946257       7.39780215      -1.96698828       0.94741218      -0.37880577
Se       1.70574173       7.03990112       7.41250313       0.24618673      -0.65341939      -0.70737064
Se       5.12344305       6.99762363       7.61264749       1.16982134      -0.49566138      -2.24249484
27
Lattice="10.32 0.0 0.0 -5.16 8.937382167055407 0.0 0.0 0.0 18.34" Properties=species:S:1:pos:R:3:REF_forces:R:3 REF_energy=-18627.06803600106 config_type=well_T100_p07 pbc="T T T"
Nb       0.02396806      -0.16897297       9.20583122      -0.00082558       1.57540747       0.39980063
Nb       3.54479125      -0.30719416       9.19452033      -0.73542729       3.59289015       0.54316714
Nb       6.92855920      -0.25316755       9.16341556      -0.28175100       2.35242929       0.79548441
Nb      -1.60138555       3.20282433       9.18777046      -1.00769709      -2.48944390      -1.83576946
Nb       1.67759456       3.10961929       9.09587298       0.01438378      -1.15159788       0.43721146
Nb       5.05346045       3.02404486       9.12459260       1.24148364      -0.14286566       1.20708665
Nb      -3.48229886       5.95561282       9.29971651       1.17702249      -0.64404849      -2.21969841
Nb      -0.10341380       5.86975744       9.07522541       1.69741223       0.20457908       0.88890287
Nb       3.39727447       5.93415643       9.11456926       0.30948626       1.06177022       1.43589658
Se       1.79848432       0.96098588      10.79908123      -0.38609408       0.13310601      -0.32177947
Se       5.07693893       1.01291017      10.85805396       0.78267311      -0.16074408      -0.19062185
Se       8.60289305       1.22955063      10.84563000       0.07548168      -1.66662506      -0.43633780
Se      -0.07602336       3.94817149      10.86511867       1.64497458       0.77301631       1.21945263
Se       3.42189667       4.08197549      10.74079513      -0.57760115      -1.15371081       1.68647784
Se       6.99650559       3.98199394      10.82805614      -1.30744761      -0.46753454       0.95892146
Se      -1.54560644       6.85694146      10.86064786      -1.12975456      -0.31511260       1.64677666
Se       1.67626338       6.93595842      10.88809800       0.19225115      -0.54493966       0.43454626
Se       5.19792733       6.72931474      10.83121300      -1.15896820       1.37181466       1.62098644
Se       1.73954842       1.01923513       7.55172639       0.09379924      -0.37027665       0.11426342
Se       5.24133445       1.07238652       7.63399967      -0.28463526      -1.41888256      -0.98801298
Se       8.69871408       0.88999999       7.52874801      -0.20205837       0.39939414       0.33838083
Se      -0.04095383       4.01548727       7.31067417       0.16670519      -0.45837987      -0.17624449
Se       3.42598184       4.09276262       7.49651732      -0.20501334      -1.29114322      -1.70851888
Se       6.86668566       3.81484548       7.56393028      -0.02112161       1.23212097      -0.72087305
Se      -1.78126787       6.91432697       7.56810437      -0.35204959      -0.95113051      -2.57681795
Se       1.73796333       6.80666372       7.55389043      -0.93946001       0.59981497      -2.25172458
Se       5.05094539       6.88720110       7.47132497       1.19423217      -0.06990752      -0.30095688
27
Lattice="10.32 0.0 0.0 -5.16 8.937382167055407 0.0 0.0 0.0 18.34" Properties=species:S:1:pos:R:3:REF_forces:R:3 REF_energy=-18626.889523880625 config_type=well_T100_m00 pbc="T T T"
Nb      -0.08078148      -0.02875335       9.09949404       0.61112268       1.08663253       0.05614981
Nb       3.43794393       0.25650012       9.10202530      -0.28970856      -2.01164603       1.08910979
Nb       6.86243298       0.28098314       9.25875784       2.10906744      -3.03218192      -2.30216217
Nb      -1.77036554       2.82470540       9.18841078      -0.09398565       0.58776498      -0.50632143
Nb       1.69144005       2.91244573       9.11353606       0.46374576       0.34322247       0.11353323
Nb       5.22749449       2.68406110       9.19944652      -0.64241584       3.84177628      -0.57203651
Nb      -3.55333692       5.81013825       9.30012883       0.68118601       1.99674725      -2.41290396
Nb       0.08289338       5.88050694       9.24789934      -0.62283740       2.72236913      -1.33414466
Nb       3.44569123       5.89358491       9.06358141      -0.30513595       0.17587271      -0.46289550
Se       1.68217703       1.07752567      10.82876191       0.07176283      -0.74000077       0.05173111
Se       5.38972749       1.00459617      10.92099509      -2.69698566      -0.21999927       2.90927419
Se       8.57280518       0.88868890      11.06869349       0.76381150       0.63136729      -1.04438313
Se      -0.11838201       4.06285871      10.72590063       0.14656856      -2.20409953       2.07372994
Se       3.33388101       4.05405312      10.80510401       0.34659936      -0.90652598       0.16616217
Se       6.79089334       4.04671343      10.83304400       0.50397967      -1.90409267       1.48905157
Se      -1.68070038       7.08523008      10.81971930      -0.31707538      -0.08071233       0.17168927
Se       1.78314751       6.93284066      10.79768546      -0.00407906       0.44679937       0.50507573
Se       5.10816935       7.00379402      10.71685131      -0.25010869      -0.27416187       1.11969717
Se       1.79127029       0.85050300       7.31736862      -0.87770006       0.54290514       0.49841349
Se       5.19030040       1.07690585       7.34532468       0.22929792      -0.90670724      -0.42960588
Se       8.62443110       0.90062197       7.41576849      -0.47554378       0.99573786      -0.08297336
Se       0.08038131       4.00943915       7.51053626      -1.03673513      -0.59073846      -0.75122338
Se       3.44325699       3.77590082       7.50417814       0.11529084       0.74024143      -0.31864401
Se       6.81078661       3.94243087       7.44848126       0.49728246       0.04017966       0.65857702
Se      -1.75397747       6.96352069       7.72904589       0.11382479      -0.29032588      -0.92274039
Se       1.68995149       7.05074759       7.56127017      -0.16326454      -0.10262147      -0.30492615
Se       4.93532566       7.05526322       7.32003697       1.12203636      -0.88780244       0.54276631
27
Lattice="10.32 0.0 0.0 -5.16 8.937382167055407 0.0 0.0 0.0 18.34" Properties=species:S:1:pos:R:3:REF_forces:R:3 REF_energy=-18627.529893186726 config_type=well_T100_m01 pbc="T T T"
Nb      -0.07042535       0.10340666       9.06121271       0.09345292      -0.27191910       1.68312460
Nb       3.51616496       0.12299559       9.12748267       0.04431682       0.09033751      -0.10497480
Nb       6.91511138       0.03755799       9.22570465      -0.47227051       0.89205633      -1.00860392
Nb      -1.86990778       2.85307885       9.16162564       0.36008608       0.41702265      -0.43739376
Nb       1.90339470       2.97145171       9.19768980      -1.12743465      -0.07395033      -0.39597303
Nb       5.09499129       2.94903235       9.23605229       0.80235105      -0.01744442      -0.56876196
Nb      -3.51737584       5.85523824       9.21331038       2.34440308      -0.76299826      -1.61699943
Nb       0.06761154       5.93549892       9.10754000       0.29781628       0.11414721       1.12812113
Nb       3.61832958       5.94129974       9.08697398      -2.02983915       0.21294365       2.09274222
Se       1.94382752       1.08948185      10.85272125      -1.54567163      -0.55878891       0.41809403
Se       5.13436510       1.04223933      10.87059563       0.54848418      -0.50671121       0.70376184
Se       8.60179770       1.08398892      10.88786927       0.50230691      -0.70388988       0.56488551
Se      -0.09869190       3.94119676      10.71630383       0.72830482      -0.08996907       1.12561971
Se       3.49350063       3.99846896      10.91445173      -0.21749116       0.67264532       0.29145126
Se       6.91426117       4.00463632      10.92969093      -0.28556651      -0.54622624       0.07934681
Se      -1.65653729       6.95630711      10.74571549       0.03921781       0.05049672       0.60663148
Se       1.96653260       7.19747371      10.87655866      -0.55431596      -1.77000809       0.17642704
Se       5.36975645       6.94864294      10.70367243      -1.75764700       1.56782503       2.48702089
Se       1.62043011       0.86357483       7.46411375       1.13866549       1.06022910      -0.44744625
Se       5.09510477       0.90578736       7.33229524       0.50331118       0.66970321       0.65442263
Se       8.60893746       0.86409493       7.28958028      -0.54520165       0.54591282       0.68052010
Se      -0.11251353       3.84722500       7.65137758       0.76454812       0.15981000      -1.30566224
Se       3.51858534       4.02110645       7.56623443      -0.49199319      -0.70688033      -1.59200522
Se       6.78828644       3.81108141       7.50877110       0.12366466       0.70284910      -0.51787366
Se      -1.62936152       7.01556387       7.61966529      -1.00752303      -0.90333473      -1.20187040
Se       1.67258616       7.04848020       7.58054416       1.03038990      -0.56230695      -0.94010047
Se       5.18450679       6.96314907       7.58263055       0.71363514       0.31844887      -2.55450361
27
Lattice="10.32 0.0 0.0 -5.16 8.937382167055407 0.0 0.0 0.0 18.34" Properties=species:S:1:pos:R:3:REF_forces:R:3 REF_energy=-18627.0618811942 config_type=well_T100_m02 pbc="T T T"
Nb       0.10081554      -0.01424800       9.22154116      -1.87189114       0.83551905      -0.83300477
Nb       3.28413357       0.15567621       9.13497228       2.24578662      -1.00022881      -0.48908578
Nb       6.78532290       0.09963262       9.13488475      -0.24103064       0.53737753      -0.55181942
Nb      -1.72410268       2.89120168       9.21577542      -0.92522947       0.11649437      -0.73654341
Nb       1.83812967       2.71741958       9.20573015      -0.39637206       3.36150732      -1.13245421
Nb       5.23508380       3.09120907       9.10124601      -2.15933842      -1.50861843       2.17279223
Nb      -3.50107939       6.04337181       9.15709440       0.05375380      -1.86892666       0.84615545
Nb       0.08285531       6.01813749       9.07741412      -0.36247387       0.28118150      -0.35842978
Nb       3.53812824       6.00972662       9.19298665      -0.97695287      -1.78904917       0.51929008
Se       1.68314932       0.97582283      10.86707398       0.34377500      -0.32427473       2.42686350
Se       5.14457761       0.97738862      10.86770607      -0.14974233       0.25164852      -0.42562993
Se       8.63938262       0.95854295      10.81319580      -0.22709706       0.22621491       0.74126473
Se       0.02655032       4.02586825      10.55355924       0.48302775      -0.29726452       2.41085890
Se       3.47883028       4.09495831      10.92427402      -0.14060900      -0.50168342      -0.57048974
Se       6.79320100       3.91589458      10.92993380       0.60912622       0.54399118      -0.31845170
Se      -1.75041141       6.94452877      10.53365238       0.80187823       0.68384711       2.87738608
Se       1.83019902       7.09022836      10.73723626      -0.64111897      -0.60328519       0.93884398
Se       5.14049502       7.10667167      10.87225829       0.41002076      -1.13151988       1.42534992
Se       1.61399563       0.93602041       7.46401404       0.34463298       0.36980588      -1.74826248
Se       5.18191074       1.12620583       7.32608362      -0.42908112      -0.86826077       0.85199828
Se       8.54667161       1.02594834       7.47519581       0.65300390      -0.20073297      -0.16182060
Se       0.01713484       3.97313106       7.53115241       0.11590327      -0.43893693      -0.77615794
Se       3.45356707       3.90170697       7.42785908      -0.39640240       0.48906367       0.50807004
Se       6.70537727       3.90795318       7.51004570       2.61547577       1.40585221      -1.75646892
Se      -1.77515470       7.00951884       7.52655388       0.34215367      -0.11002265      -1.38405517
Se       1.79353403       6.90384618       7.49269748       0.15764873       0.65715443      -0.88149886
Se       5.17231437       6.94910015       7.68767835      -0.25884838       0.88314643      -3.59470047
27
Lattice="10.32 0.0 0.0 -5.16 8.937382167055407 0.0 0.0 0.0 18.34" Properties=species:S:1:pos:R:3:REF_forces:R:3 REF_energy=-18625.790883168967 config_type=well_T100_m03 pbc="T T T"
Nb       0.11892509       0.18445225       9.14456144      -1.08573444      -2.12620333       0.63368745
Nb       3.24878543       0.23632287       9.16915852       2.76380374      -2.19024154       1.38029056
Nb       6.73722330       0.09542946       9.25305767       0.48557854      -0.06718190      -0.31740114
Nb      -1.75950556       2.72947620       9.29010672       0.51476751       3.58353854      -5.43194291
Nb       1.82658441       2.85522083       9.16520177      -0.05751352       0.62793101       0.74353861
Nb       5.20313930       2.80701235       9.09599368       0.45920417      -0.10514346       1.41260701
Nb      -3.47924907       5.88523142       9.24174113       0.09559027       1.39057163      -1.67204341
Nb       0.03056755       5.92576410       9.26521004      -0.82045779       1.34279076      -0.57280399
Nb       3.51261174       5.80776828       9.20765175       0.31419523       3.93338880      -0.74328690
Se       1.76090644       0.97318498      11.03313394      -0.63211703       0.43699858       0.05406053
Se       5.08099853       0.92478108      11.13694131       0.21079524       0.48752435      -1.64821982
Se       8.54623547       1.17968913      10.86875790       0.31531289      -4.55783597       3.60418167
Se       0.07572304       3.84335733      10.54236848      -0.50499988       0.65256295       3.29130772
Se       3.41929480       4.09640707      10.77637612       0.52675347      -2.27985399       2.62897767
Se       6.99182372       3.99985462      10.82350958      -1.06903204      -0.79587856       0.86474067
Se      -1.92065870       6.94124012      10.89332551       1.37462128       0.32220576      -0.13546294
Se       1.75866429       7.04883447      10.88900848       0.01087320      -0.58359105       0.14659299
Se       5.21365216       6.95180139      10.88644359      -0.71147541       0.52251707      -0.37252302
Se       1.72309759       1.06705621       7.49704326      -0.23193022      -0.33577810      -2.52598904
Se       5.20030650       0.80129428       7.34892256      -0.30181717       0.88302096       0.64610768
Se       8.76206906       0.92176806       7.32693814      -0.91492012       0.24929185       1.13389969
Se       0.09442307       3.94648313       7.54775119      -0.48492625       0.20863474      -0.63609144
Se       3.46452730       3.92322520       7.68492734       0.51028736      -0.32014734      -3.14477618
Se       7.00384640       3.88552678       7.54964329      -0.63051806       0.10437753      -0.26374351
Se      -1.74413889       7.12617305       7.58469598       0.16106110      -1.16306011       0.24806852
Se       1.71975546       6.94144519       7.63352984       0.16602282      -0.02786253      -0.40935022
Se       5.29496125       6.97937518       7.37845069      -0.46342489      -0.19257691       1.08557400
27
Lattice="10.32 0.0 0.0 -5.16 8.937382167055407 0.0 0.0 0.0 18.34" Properties=species:S:1:pos:R:3:REF_forces:R:3 REF_energy=-18625.44148287757 config_type=well_T100_m04 pbc="T T T"
Nb      -0.00459626      -0.02656133       9.05277736      -0.71075910      -0.90823962       1.76524230
Nb       3.41717950       0.34493974       9.15212178       2.28373919      -4.46261928       0.98208402
Nb       6.70869193       0.20677445       9.27671693       0.61459367      -1.42282381      -0.90172779
Nb      -1.93239057       2.83395815       9.12543582       1.78766000       0.86742079      -1.36905921
Nb       1.90425237       2.57423962       9.29661230      -1.55260924       7.07664701      -2.03674359
Nb       5.04931899       3.04668544       9.08156777       1.71857909      -0.35354597       2.37624182
Nb      -3.51997555       5.90912639       9.20609220      -0.87477054      -0.17962344      -0.78918135
Nb       0.01047216       5.92679467       9.29553821      -0.64563589       0.04124461      -1.55453397
Nb       3.47135506       5.89445532       9.14855443       0.68451894       0.20914587       0.53680932
Se       1.68424268       1.00058845      10.89962413      -0.88135282      -2.67872363       3.19628335
Se       5.14356707       1.11898918      11.01516941      -0.64026382      -0.12638900      -0.36838020
Se       8.46612622       1.04761944      10.89961336       1.23906269      -0.91053176      -0.15984420
Se       0.05603196       3.91539465      10.74816635      -0.41411987      -0.65337696       0.72491277
Se       3.44204654       3.96181844      10.77182854      -0.00489641       0.26928140       1.28505921
Se       7.02079707       3.77286614      10.91872919      -1.26417440       1.42921146      -0.01528701
Se      -1.84997080       6.84374886      10.71555801       0.64226774       1.41172564       1.11546694
Se       1.68395433       7.03092758      10.80965813       0.48937195      -0.14944409       0.91320699
Se       5.09163405       6.89712153      10.99986733       0.02596326       0.38759972      -1.42794030
Se       1.73109393       1.02684793       7.54384272      -0.67115768      -1.16436058      -3.61603368
Se       5.14980813       1.16509764       7.48391660       0.35202310      -1.57772017      -1.02331988
Se       8.65307898       0.73671383       7.39603988      -0.95918192       1.33853585       0.29009346
Se       0.05117973       3.98333181       7.56777125      -0.14406431      -0.51885993       0.30218972
Se       3.69020315       3.87176742       7.31861883      -2.33399731       1.19818241      -0.58432562
Se       6.78398910       4.00742978       7.44310436       0.84337094      -0.31002131      -0.12145788
Se      -1.87059951       6.79029929       7.42035096       0.62515011       0.77441422       0.79639843
Se       1.78214963       6.94384877       7.67218152      -1.21084895       0.52456469      -1.13532074
Se       5.01514538       6.91619972       7.35815107       1.00153210      -0.11169438       0.81916684
27
Lattice="10.32 0.0 0.0 -5.16 8.937382167055407 0.0 0.0 0.0 18.34" Properties=species:S:1:pos:R:3:REF_forces:R:3 REF_energy=-18626.378922806984 config_type=well_T100_m05 pbc="T T T"
Nb       0.10060482       0.00351822       9.10730449      -1.29052332      -0.13136023       2.73887073
Nb       3.54292968       0.13806803       9.20529895      -0.41801201      -0.04905511       0.84273974
Nb       6.78438109       0.18277249       9.23973690       1.23414237      -0.96581511      -0.06044586
Nb      -1.86215554       2.93215630       9.20232220       1.54124265      -0.10236462       0.76721975
Nb       1.76960135       2.74233798       9.17260099      -0.11385950       3.25618465       2.87962243
Nb       5.05667220       2.92663251       9.25603288       0.38323732       0.46947547      -0.21482338
Nb      -3.60536324       5.92875829       9.19581306      -0.45105994      -0.45455201      -0.60111261
Nb      -0.05297885       6.06460756       9.15274838       3.27874814      -2.18093157       0.20305004
Nb       3.51606715       5.84465967       9.11417738       0.44304093      -0.44474557       0.24029273
Se       1.72496394       0.95764387      11.02281556       0.04666167      -0.31359180      -0.39985873
Se       5.12650312       0.96812171      11.00570711       0.37507561       0.10491489       0.31125646
Se       8.67948436       0.98873676      10.99756240      -0.43315709      -0.14113505      -0.92601391
Se       0.04024013       3.92601178      10.72648996      -0.51019197       0.46679741       0.41680102
Se       3.46254974       3.98631264      10.96555961      -0.50528811      -0.35007035      -0.20128524
Se       6.79735858       4.01878919      10.79812067       0.22160672      -0.64493063       1.55086886
Se      -1.79462804       6.92745146      10.63350689      -0.31982235       0.39298078       4.00792251
Se       1.88463975       6.84406708      10.73019757      -1.20558025       0.96376439       1.34914113
Se       5.05153685       6.87901150      10.74402665       0.51550670       1.09487214       1.88721800
Se       1.74264048       1.00606761       7.65642674       0.59985045      -1.57471713      -3.95189869
Se       5.17176684       1.08241436       7.47215742       0.16408755      -0.45998964      -0.48743437
Se       8.78162157       1.06748160       7.54108699      -1.28493220      -0.38099738      -0.57470095
Se       0.01651238       3.97997417       7.49192099      -0.38411561       0.00866590       0.36111298
Se       3.26605674       3.91025143       7.58112986       1.18414187      -0.19365652      -1.40066193
Se       6.90905687       3.92938299       7.57979316      -1.07703126       0.27675200      -1.19471091
Se      -1.84428724       6.95400803       7.88342730      -0.24845058       1.05633953      -4.96192057
Se       1.92652760       6.94627566       7.66818840      -1.77796772       1.33757194      -1.76406293
Se       5.15757398       7.09777956       7.43905388       0.03264967      -1.04040615      -0.81718580
27
Lattice="10.32 0.0 0.0 -5.16 8.937382167055407 0.0 0.0 0.0 18.34" Properties=species:S:1:pos:R:3:REF_forces:R:3 REF_energy=-18627.241746944925 config_type=well_T100_m06 pbc="T T T"
Nb      -0.13772801       0.02377552       9.10782820       1.12333297      -0.30465310       0.49259071
Nb       3.42699265       0.13765223       9.10088709      -1.32519259      -0.33049783       2.33855974
Nb       6.87646403       0.08608951       9.15694816      -0.06357515       0.03989632       1.70768841
Nb      -1.89378141       2.87810558       9.21692288       1.15193675       0.20298577       0.19209277
Nb       1.90722911       2.84378375       9.05978934      -2.73882882      -0.29821351       3.61717474
Nb       5.11754142       2.97667206       9.14534524      -0.08425171      -0.24569308       0.40904452
Nb      -3.55985169       6.04557259       9.20060903      -0.14919392      -1.94879104      -2.41496547
Nb       0.02245105       5.94884682       9.14927712      -0.47968120      -0.05429373       1.34139774
Nb       3.49217563       6.02928872       9.14758208       0.20273663      -2.04761319       1.16940071
Se       1.73084535       0.81938108      11.04388048      -0.04667452       0.85525561      -1.55098070
Se       5.10480852       0.98739083      10.92476075       0.15905795       0.04224914      -0.38903619
Se       8.63388210       0.89353117      10.86621041      -0.40740467       0.54506384       0.81248017
Se      -0.02791811       3.91589183      10.90517678       0.15782820       0.09128727      -0.93165337
Se       3.42418603       4.02762434      10.87274312       0.03746149      -0.34952091      -0.29288567
Se       6.81914183       3.89050708      10.79712271      -0.31809611       0.80445421       0.96462108
Se      -1.95650074       6.81713687      10.76454285       2.28825482       1.13323094       1.26548772
Se       1.80202264       7.01162554      10.79057306      -0.70322423      -0.30257925       1.08114091
Se       5.13769709       6.96842934      10.78120582      -0.49269510       0.58655631       1.59832782
Se       1.59998658       0.97203033       7.41936440       0.06010211      -0.40367065      -0.33106964
Se       5.15077790       0.93568860       7.62490606       0.33989547       0.96976998      -2.37565458
Se       8.51285359       0.99663507       7.44182338       0.34990169       0.31536843      -0.64625115
Se      -0.18202625       3.98880320       7.61671006       0.94126904      -0.43252434      -0.71809420
Se       3.28014601       3.86553184       7.51747766       1.94330919       1.84163646      -2.21978711
Se       6.96432050       3.96592023       7.45986519      -1.09640838       0.47450892      -0.04818196
Se      -1.71358866       7.10461808       7.56176439      -0.27626323      -1.12381402      -0.72433170
Se       1.82849301       7.01252984       7.72098603      -1.46854985      -0.12301752      -2.99206191
Se       5.04786637       6.99608508       7.47929833       0.89495319       0.06261870      -1.35505338
27
Lattice="10.32 0.0 0.0 -5.16 8.937382167055407 0.0 0.0 0.0 18.34" Properties=species:S:1:pos:R:3:REF_forces:R:3 REF_energy=-18626.158861896638 config_type=well_T100_m07 pbc="T T T"
Nb       0.00929197       0.12687080       9.22812979       0.73929397      -1.86915009      -1.71568068
Nb       3.42133028       0.15904606       9.06528298       1.86056158      -2.74181490       4.73684646
Nb       6.96150967       0.19358355       9.27368926      -1.36767647      -2.79564094      -2.50170832
Nb      -1.86720614       2.75076231       9.13341514       2.33737446       2.36759546       0.61140962
Nb       1.88277050       2.82108372       9.26522211       0.01690449       0.78594433      -2.73047222
Nb       5.23149669       2.83177033       9.15648668      -0.53029697       0.99855836       1.01951799
Nb      -3.50214859       5.94453732       9.11301032       0.95482415       0.78088363       0.98527167
Nb       0.03663130       6.06481051       9.20412088       0.72858430      -1.78730288       1.10217613
Nb       3.58806086       5.86461885       9.07048846      -0.27455371       0.76606096       1.09951170
Se       1.66882204       0.94630951      10.86473836       0.93289907      -0.57217613       1.46266048
Se       5.26028806       0.94332960      10.85690688      -1.15174083       0.54466506       1.23302574
Se       8.62078899       0.98044595      10.77125224       0.62577848      -0.12957769       3.72406244
Se       0.11331378       3.66104475      10.64638541      -1.72078664       1.98736119       1.51929108
Se       3.35620384       3.96880578      10.82645382       1.53314907       0.32455987       0.72731109
Se       7.02184015       4.11770875      10.78043571      -0.82621629      -1.11208079       1.33339955
Se      -1.75536154       6.95033550      10.81627264       0.08091622       0.46470016       0.21772744
Se       1.80118994       7.05081394      10.93359658      -0.01062354      -0.69301180      -0.68553992
Se       5.15274976       7.02820917      10.83916254      -0.04189510      -0.31505553       0.10295057
Se       1.98069314       0.89065755       7.48635952      -3.61344921       1.53603462      -2.90788142
Se       5.09116449       0.94439899       7.50720725       2.01237493       0.26638249      -1.59265725
Se       8.63672536       0.99667420       7.42312482      -0.08469085      -0.78459476      -0.99432118
Se       0.00939659       3.87741472       7.57283762       0.34281238       0.42829077      -0.11477944
Se       3.47674918       3.91614127       7.46775352       0.17027028      -0.21829437      -0.20854732
Se       6.94663844       3.90568700       7.67944944      -1.08817262       0.74432742      -3.15080542
Se      -1.63629329       6.96438674       7.63358207      -0.35631967      -0.20453974      -1.78250751
Se       1.81630114       6.81752836       7.59040027      -0.25060080       1.17630078      -0.65348084
Se       5.30904011       7.07657654       7.50198836      -1.01872095       0.05157479      -0.83678018
27
Lattice="10.32 0.0 0.0 -5.16 8.937382167055407 0.0 0.0 0.0 18.34" Properties=species:S:1:pos:R:3:REF_forces:R:3 REF_energy=-18618.65361528137 config_type=well_T300_p01 pbc="T T T"
Nb       0.10445570       0.13080493       9.05305841      -0.15507686      -1.29913189       0.69932952
Nb       3.24078545      -0.04455463       9.22490984       2.73127980      -0.32443517       1.39154557
Nb       6.99211997      -0.16815431       9.16055194      -1.01285987       1.69789739      -0.86257477
Nb      -1.52782812       2.92492295       9.06768180      -2.09324616       1.07525668       0.80022423
Nb       1.20232894       3.03704146       9.36820051       4.64385634      -2.65400453      -3.91667046
Nb       5.02574158       2.97254396       9.31840726      -1.10306676       2.62773531      -1.14990301
Nb      -3.26614272       6.09954666       9.24568962       0.15775312      -1.83792430      -2.31636340
Nb      -0.02693348       5.57723903       9.27868596       0.56529328       9.64919847     -10.12810963
Nb       3.02868132       6.09767939       9.31073012       3.34474090      -1.21750348      -0.73910114
Se       2.04960590       0.99148708      11.10762207      -2.38519569       0.08690354      -0.29809936
Se       5.08216459       1.00904802      10.71093765       0.61455485      -1.39307537       2.07355202
Se       8.42892250       1.10723427      10.78153300       1.33709834      -0.55832688       0.27676331
Se      -0.04789227       4.27484250      10.84599601      -2.20271807      -7.22189891      11.82446770
Se       3.07882283       3.88979409      10.80861286       1.07923649       0.63197304       1.06184555
Se       6.57038565       4.11776292      10.64274311       2.77548041      -0.46739467       2.59507613
Se      -1.31231622       7.02526948      10.93613007      -2.10575123       0.04121041       0.18955947
Se       1.51523525       6.99494962      11.00664167       0.63722401       0.13671815       0.99349509
Se       5.36778215       6.84224152      10.65314771      -3.04317081       2.34455581       1.52627934
Se       2.02957324       0.80091913       7.43081106      -2.56899717       1.68106592      -1.88012973
Se       5.13966158       1.24807291       7.74094093       0.51670432      -2.97695025      -3.04317107
Se       8.62542374       1.18888408       7.42902861       0.27462956      -2.34741667      -0.86394054
Se       0.26448276       4.07820297       7.11562399      -0.59743953      -0.96885801       1.43117758
Se       3.59693795       4.20311711       7.55092176      -0.48667615      -0.38760357       0.36537664
Se       7.06274323       3.90496898       7.47245531      -0.77801710       0.94527251       0.24806209
Se      -1.65574165       6.82193526       7.61286368       0.92358756       0.71551153      -1.80071864
Se       1.81227832       6.80724708       7.34248161      -0.84009639       1.09652742      -0.10761224
Se       5.35339685       6.79572857       7.23459280      -0.22912746       0.92469699       1.62963975
27
Lattice="10.32 0.0 0.0 -5.16 8.937382167055407 0.0 0.0 0.0 18.34" Properties=species:S:1:pos:R:3:REF_forces:R:3 REF_energy=-18619.904149257483 config_type=well_T300_p02 pbc="T T T"
Nb      -0.07265393      -0.15637586       9.32379932       0.88365653       0.77319860      -0.54628589
Nb       3.45956982      -0.47314294       9.26862531      -0.23778565       3.77342993      -2.07236880
Nb       6.90737174      -0.26964021       9.42425082      -0.11223097       1.45041277      -1.64972469
Nb      -1.57074424       3.18052853       9.11256829      -4.20892956       0.79818869       7.91177602
Nb       1.61870244       3.13856724       9.18830355      -1.70636943      -0.80294292       3.45166511
Nb       5.18686539       3.20238803       9.02340323       0.44553901      -2.05070391       0.94444718
Nb      -3.62497587       5.97916337       9.25542025       5.15673460      -2.95622870      -3.01329022
Nb       0.09261819       5.96570935       9.03441206      -2.28067032      -1.18830346       3.27453847
Nb       3.49086356       6.03688141       9.16749835      -3.96064532      -2.60928841      -0.63044247
Se       1.67253664       1.08468086      10.64541221       0.81099819      -1.24569177       1.39714980
Se       5.15550785       0.83929334      10.81830209      -0.37776730       1.07610309       0.14549307
Se       8.70593057       1.16109751      10.87413271      -0.81115322      -0.79412661       0.87362512
Se       0.08838211       3.77355506      11.19451348      -0.44807643       1.30173513      -1.40534622
Se       3.47166690       3.87433946      10.99481313       0.09603405       0.20006499      -0.93334130
Se       6.96284226       3.97039567      10.91745963      -0.67845833      -0.35148754      -0.57159480
Se      -2.07285134       6.89176370      10.95885799       1.59824426      -1.03385575       2.27038976
Se       1.61770214       6.94284386      11.18103979       0.16817894      -0.81507210      -0.99775695
Se       5.04611284       6.50191859      10.66502973       0.45258718       3.83336980       7.86337012
Se       1.67135929       1.22189594       7.59750963       0.10188768      -2.20610421      -0.54599124
Se       5.04436739       1.01880709       7.44217127       0.79052012      -0.07557912       1.33127248
Se       8.72114936       1.27487829       7.87659869      -1.47528408      -5.19739659      -3.49075282
Se      -0.23792697       3.65035978       7.45745473       4.69787907       3.52637212      -4.90168734
Se       3.16536774       4.01572475       7.76125549       2.93813225       0.65720019      -4.18805683
Se       7.02780689       3.96598052       7.30915760      -1.14387428       0.51858842       0.87720229
Se      -1.62904321       6.97592714       7.30453894      -0.41878437      -0.75260920       0.29735605
Se       1.70063939       6.68294088       7.56136343       1.12152497       2.36803203      -2.52919649
Se       5.24456128       6.77436558       7.58754228      -1.40188757       1.80269453      -3.16244943
27
Lattice="10.32 0.0 0.0 -5.16 8.937382167055407 0.0 0.0 0.0 18.34" Properties=species:S:1:pos:R:3:REF_forces:R:3 REF_energy=-18620.389511636535 config_type=well_T300_p03 pbc="T T T"
Nb       0.22890175      -0.17531514       8.98477610      -2.34353559       1.65900020       0.40593657
Nb       3.39528824      -0.15722553       9.14798616      -0.05717722      -0.99853008       0.69923387
Nb       6.86992227      -0.05821254       9.00245954      -1.90384893      -1.56952607       0.53449250
Nb      -1.45178334       3.30886891       9.08304230      -1.18635688      -2.07325634       0.66956951
Nb       1.76171695       3.37474193       9.15423110      -1.41147547      -3.51155073      -0.86569635
Nb       5.04244984       2.80618048       9.07976253       1.96167998       6.67298509       3.69645059
Nb      -3.19001612       5.86338457       9.11473923      -0.85221503       0.80706903       0.09744661
Nb       0.13366481       5.94272930       9.20552986      -1.32827586      -0.20413711      -1.98316566
Nb       3.22314377       6.07613110       9.35600562       6.54900984      -4.30060815      -5.97248701
Se       1.59258147       1.12164690      10.69367060       1.10087027      -0.24406608       0.92925453
Se       5.36768239       0.98187395      10.75588567      -1.05936418      -0.76463785       1.04710130
Se       8.55958538       0.76627040      10.63014908       1.17825019       1.11246723       0.64708444
Se       0.02028977       3.95222949      11.03005270      -0.36519281       0.62561368      -0.23510707
Se       3.38359085       3.73949342      10.78281633       1.69275750       1.60205464       2.74917134
Se       6.62333491       3.93316033      10.79084437       1.77247995       0.54383203      -0.17967615
Se      -1.42234287       7.05496583      11.00635927      -1.05668535      -0.73080882      -0.85955810
Se       1.88597483       6.77475505      10.81414121      -5.36213772       3.79491844       6.72599276
Se       5.31423892       7.07664794      10.78556387       0.47029025      -1.50183149       0.75462186
Se       1.71899215       1.14023744       7.58707018       0.14428311       0.30858432      -1.53808430
Se       4.67120321       1.27319558       7.64768612       0.91857726      -5.98393408      -6.67625914
Se       8.28246849       1.07021942       7.59712409       2.80149200       1.15442712      -2.32692884
Se       0.22753990       4.00291724       7.27141391      -1.57714168       0.70710608       0.27941824
Se       3.34107293       4.03540682       7.38796985       1.18252105       0.40072417      -0.01616658
Se       7.01109729       3.69629426       7.40632481      -1.19666032       1.86111976       0.05117010
Se      -1.60265604       6.83838183       7.19765177      -0.09958448       0.59358544       1.90987688
Se       2.08152504       6.74418348       7.23037383      -2.36932736       1.01157329       0.83821871
Se       4.81567487       6.92858291       7.54216018       2.39676668      -0.97217344      -1.38190984
27
Lattice="10.32 0.0 0.0 -5.16 8.937382167055407 0.0 0.0 0.0 18.34" Properties=species:S:1:pos:R:3:REF_forces:R:3 REF_energy=-18623.386597809676 config_type=well_T300_p05 pbc="T T T"
Nb      -0.09723815      -0.17428383       9.12585129       0.77158060       0.40107358       1.74989513
Nb       3.29576435      -0.19752367       9.25428665       1.44593520       2.90169869       0.91058087
Nb       7.02514479      -0.16051820       9.02551293      -1.18994614       1.66333097       4.07849492
Nb      -1.53169630       3.25063464       9.08815965      -3.63080750      -2.65104082       0.50512921
Nb       1.37165791       3.09931529       9.19709159       4.99272753      -1.61529428       1.54360061
Nb       4.95654997       2.87268379       9.19252842       2.28245107       1.93233649      -1.00363680
Nb      -3.20435789       5.99538462       8.95182514      -2.25012973       0.38874823       1.68312563
Nb      -0.27740941       6.15147935       9.27098028       4.99276429      -2.00045273      -1.86171574
Nb       3.47065172       6.09699434       9.11823278       1.34839757      -1.95207768       1.24190788
Se       1.91312189       1.07535679      10.87240189      -1.62656085       0.12657412       0.44957281
Se       5.29206765       1.16683570      10.80691349      -0.28355411      -2.84033366       1.86262334
Se       8.41316015       1.15666536      10.83044766       1.31381546      -0.57955313      -0.18309648
Se      -0.10753277       4.05285444      10.80514950      -0.13550459       0.86550711       3.47841230
Se       3.67192811       4.03287513      10.82349037      -2.53581117       0.74682525       1.56678064
Se       6.76727259       3.94666286      10.72147052       0.91700888       0.77536707       0.45972507
Se      -1.65044728       6.89470236      10.97081323      -2.28343888       0.71042794       2.18800982
Se       1.76000659       6.75298464      10.91995403      -0.18926456       0.91236958      -0.33432954
Se       5.18368446       6.83747378      10.85211353       0.70093569       0.79854813      -0.40650992
Se       1.57934277       1.04436126       7.70741137       0.51767260      -0.39285119      -1.30943919
Se       5.17063251       0.90077680       7.78153306      -0.98521331      -0.72605382      -2.76981704
Se       8.58333722       1.05812109       7.68253107       0.49982940       0.93474949      -2.36217763
Se       0.10466470       3.92713651       7.41695627      -1.19999941       1.90561605      -2.94137544
Se       3.32650126       3.90290927       7.63155896      -0.57415665       0.62208175      -1.46219768
Se       6.72983466       3.97246309       7.67883830       0.10652800      -0.59577525      -2.35942578
Se      -1.51555322       7.16739985       7.44778402      -1.13562490      -1.25033132      -2.65358261
Se       1.87804976       6.92964903       7.56100626      -2.15302533      -1.15224271      -2.83611782
Se       5.15574985       6.97301441       7.24537332       0.28339110       0.07075239       0.76556294
27
Lattice="10.32 0.0 0.0 -5.16 8.937382167055407 0.0 0.0 0.0 18.34" Properties=species:S:1:pos:R:3:REF_forces:R:3 REF_energy=-18623.4140698786 config_type=well_T300_m01 pbc="T T T"
Nb       0.11258872       0.40797353       9.27753511       1.67318163      -4.22950352      -3.93069094
Nb       3.65174714       0.29712303       9.32851406      -1.29164561      -0.55649394      -3.54768810
Nb       6.96345583       0.15071397       9.27486673      -0.81861379       0.05889369      -0.79735771
Nb      -1.88199435       2.89904234       9.19393497       1.05550701       1.23786456       4.00255508
Nb       1.76157769       2.73659672       9.08262343       0.00112460       1.66926173       0.77114866
Nb       5.07650471       2.83009766       8.97775209       1.34162271      -0.14742268       3.08299437
Nb      -3.47929266       5.95727213       9.13606142      -0.26456857       0.34490295      -0.07062409
Nb       0.03830220       6.05437118       9.20558945      -1.11964704      -2.52494697       0.48469820
Nb       3.55252063       6.07989221       9.19731747      -0.52411347      -0.22148511      -0.40474949
Se       1.74483166       0.87100382      11.10830510       0.97640908       1.31251731      -0.62800197
Se       5.18633399       1.11424376      10.95065106       1.29158802       0.22969413       1.18487387
Se       8.97197354       0.79652311      10.93643283      -4.68627543       1.91213251       2.83377503
Se       0.04224138       3.77313440      10.91811420      -0.02874262       0.87489601      -1.04082498
Se       3.59298096       3.89756629      10.72544558      -1.42447111       0.70352736       0.43941541
Se       6.71494357       4.03770593      10.88471634       0.67234013      -0.17739532      -0.53641465
Se      -1.80745959       7.26687855      10.63881660      -0.13362563      -2.60461081       2.54550320
Se       1.57437750       7.09252549      10.67767595       1.98987367      -0.40379509       2.96157686
Se       5.12984218       7.05461787      10.90584757       0.86196054      -0.21586391      -0.33028057
Se       1.85390048       0.94087406       7.26302462      -0.15163441       0.75108325       0.70693330
Se       5.17776745       1.03584919       7.19349962      -0.14484361      -0.91559272       1.02141058
Se       8.46007275       1.16180761       7.58595813       1.30886737      -2.10238437      -2.11529954
Se      -0.30932091       3.94015681       7.60330938       2.06967994       0.50608875      -0.62467651
Se       3.67287761       4.06637685       7.57022160      -2.57289213       1.20633538      -2.08648081
Se       6.82865732       3.68375721       7.56879827       0.59873999       2.92909997      -2.26974493
Se      -1.48722045       7.03945472       7.63846396      -1.80882507       0.61871206      -1.65457739
Se       1.66851973       6.98436479       7.57054040       1.18646178       0.45670120      -0.82377477
Se       5.25798666       7.24560577       7.45126210      -0.05745824      -0.71221614       0.82630139
27
Lattice="10.32 0.0 0.0 -5.16 8.937382167055407 0.0 0.0 0.0 18.34" Properties=species:S:1:pos:R:3:REF_forces:R:3 REF_energy=-18620.067381913763 config_type=well_T300_m02 pbc="T T T"
Nb       0.06301240      -0.03438881       8.80966400      -2.41274506      -0.12122674       4.24307304
Nb       3.54730428       0.06118926       9.11266898      -4.07452617      -0.80528828       4.64699951
Nb       6.82175422       0.23721959       9.22227871       1.29797849      -1.26361750      -0.02425579
Nb      -2.00115877       2.94055379       9.24523187       5.72725828      -1.17433054      -0.23999885
Nb       1.96457909       2.97145073       9.10996353      -5.17716561      -2.68210026      -2.77343381
Nb       5.08072075       2.78323064       9.31345147      -0.71491066       2.70899657      -1.65418041
Nb      -3.55955227       5.95278785       9.29315156       1.00455597       4.37272220      -2.89116591
Nb       0.01102616       5.97028117       9.07332429       0.98725219       1.41987064       1.46157727
Nb       3.40151069       6.07355370       9.20298069       0.52868617       1.70785348      -1.46721673
Se       1.67109451       0.87150846      10.96628757       0.47014087       0.72708509      -1.78681128
Se       5.14281482       0.97668805      10.97146766      -0.11897369      -0.60600799       1.16069007
Se       8.78179263       1.11107127      10.96114820      -0.82776435      -0.70029317      -0.52401088
Se      -0.16559600       4.17097971      10.68409851       0.84190387      -1.76844641       1.71245678
Se       3.23954742       4.02613206      10.54979088       2.97033558       1.83254118       6.36338725
Se       6.78375950       4.06646266      10.39042844      -2.33114313      -1.32027459       9.45852777
Se      -1.52012580       7.01420325      10.90875562      -0.90741661      -0.19191331       0.04028327
Se       1.77523582       7.02782227      10.85175476      -0.47102661       0.23806718       0.12433418
Se       5.27016219       7.12437741      10.66168181      -2.11136343       0.61575915       2.40288642
Se       1.56940956       0.92983680       7.45040628       3.70442589       2.32489972      -2.51818369
Se       4.96520283       1.06751555       7.68882405       3.34232432       0.20470301      -5.20027186
Se       8.70335697       1.32467857       7.56926836      -1.39497233      -2.46915146      -2.84952021
Se      -0.13909989       4.01976915       7.58072561       0.58040340      -1.05113022      -1.12918454
Se       3.48918603       4.26056859       7.53653441       0.17121670      -1.53374968      -1.61063878
Se       6.85646023       4.10024554       7.64927204      -1.20767775      -0.88279521      -3.75854402
Se      -1.84405468       6.88847336       7.83828231       0.18174151       0.64641236      -3.61889429
Se       1.63429740       6.93606654       7.44842557       1.02532406       1.07846413      -0.14996859
Se       5.37051137       7.07405284       7.18365466      -1.08386216      -1.30704960       0.58206433
27
Lattice="10.32 0.0 0.0 -5.16 8.937382167055407 0.0 0.0 0.0 18.34" Properties=species:S:1:pos:R:3:REF_forces:R:3 REF_energy=-18622.22770823694 config_type=well_T300_m04 pbc="T T T"
Nb       0.19469012      -0.02133496       9.26016048      -2.74864838       0.91262592      -0.23700635
Nb       3.53385126       0.34449639       9.15898896       1.67196987      -3.30432830       2.41637366
Nb       6.83499382       0.14663252       9.18796633       0.89619066       0.46324363      -1.44769486
Nb      -1.79901254       2.83275679       9.14349588      -1.02908533       1.14101059       2.36379049
Nb       1.77401655       2.85314902       9.21012240       0.11917243       2.13764782      -0.96866980
Nb       5.00933692       3.07428408       9.22557235       2.15901523      -0.36033625      -1.41600010
Nb      -3.67963251       6.17252037       9.23806527       6.12313669      -4.28543787      -2.55349239
Nb       0.27598601       5.98102108       9.15891627      -2.21484031      -1.70644502      -1.19350377
Nb       3.58113253       5.78946655       9.35782434      -3.61463937      -1.09351434      -1.86592798
Se       1.60485149       1.05463696      10.86003507       1.46752346      -0.18610416       2.17469562
Se       5.16922823       0.99654398      11.03716876      -0.19879538       0.25086793      -0.66616074
Se       8.32115736       1.07905728      11.14216982       1.29017520      -0.54455682      -1.35204339
Se       0.03736525       3.87119475      10.86218112      -0.00522165       0.61714318      -0.34895501
Se       3.75355909       3.80452743      11.07904789      -2.27013214       1.02188212       1.07931543
Se       7.05697452       3.83353383      11.01469864      -1.01616065       1.04010070      -1.32313725
Se      -1.77701025       7.04143355      10.81373518       0.70747246       0.13488727      -0.39561693
Se       1.67207198       7.13534232      10.61796312       2.03445711      -0.58544276       3.49478997
Se       5.17423644       6.83617543      10.78976366      -1.62919263       2.48071834       5.85914250
Se       1.93479617       0.85493772       7.56447960      -2.45536084       0.89537408      -2.36328166
Se       5.26355496       1.16574253       7.48768185       0.08931138      -0.41828069      -0.49754806
Se       8.82922756       1.11948946       7.48606922      -0.95818870      -2.06041085      -0.43579427
Se      -0.31036705       3.85838877       7.59139397       2.63377689       1.07600256      -1.11100864
Se       3.42679759       3.89396615       7.29654026      -0.40294200       0.39222024       1.62049073
Se       6.56036061       4.16018547       7.31301475       1.09966211       0.06896753       1.74414203
Se      -1.41277136       6.86996557       7.63430620      -1.78714373       1.14422215      -0.57947394
Se       1.80384603       6.91105571       7.18583355      -0.06239425       0.25248979       1.87694259
Se       4.92094806       7.00354971       7.76352482       0.10088263       0.51545373      -3.87436733
27
Lattice="10.32 0.0 0.0 -5.16 8.937382167055407 0.0 0.0 0.0 18.34" Properties=species:S:1:pos:R:3:REF_forces:R:3 REF_energy=-18619.25145809254 config_type=well_T300_m05 pbc="T T T"
Nb       0.02694795       0.30239034       9.43932830      -0.32066721      -3.45533511      -1.73569595
Nb       3.44673225       0.10636103       9.03708259       1.66700893      -0.21218749       1.04286284
Nb       6.90967847       0.08581532       9.15627913      -2.33276113      -0.42629070       1.64880655
Nb      -1.65352035       2.75544866       9.10599858      -0.30593197       4.62636641       3.17065254
Nb       1.90513642       2.85566269       8.83880662      -3.86317146       0.55176311       4.07119865
Nb       5.19352729       2.97729365       9.05492943      -4.81748268      -5.02600249       5.44179049
Nb      -3.41864260       5.85771755       9.11634529      -1.87023895       5.83447611       4.18918066
Nb      -0.01981580       6.06888843       9.04990336       2.79839382      -5.44885357      -2.91890786
Nb       3.41534521       5.97022548       8.88384190       0.02971218      -1.89205785       2.97001804
Se       1.81708443       0.87498500      10.80218113       1.79406488       0.99786442       1.86685795
Se       5.06565947       1.10618626      11.06073035       0.74191007      -0.50176981      -1.99258284
Se       8.70077767       0.87521829      11.19593357      -1.27411943       0.78377303      -0.90063070
Se      -0.03437196       3.73143884      10.72423862       0.86934654       1.02998650      -0.55113216
Se       3.23490428       3.67316707      10.74911945       0.91697957       1.63204373       0.33567783
Se       6.82372162       3.88682260      10.85509210       0.48520008       0.10656965       0.85840753
Se      -1.56764328       6.63547432      10.59407199      -2.69263149       2.51915814       5.10964767
Se       1.46019226       6.95424539      10.61680902       3.03591542       0.57826938       2.36651637
Se       4.91139851       7.05448735      10.74928445       0.76533334      -1.25402523       0.61581392
Se       1.80226476       1.02296505       7.36282906      -0.69775523      -2.36135025      -1.62721854
Se       5.39684866       1.10970439       7.32110495      -0.62732655      -0.90330850       0.16745338
Se       8.67544620       0.95041234       7.77209855       0.27842142      -2.15539769      -5.04087812
Se       0.03646662       3.86078232       7.11518000      -0.46541852       0.25804054       1.57461531
Se       3.41923454       3.72711959       7.42628958       2.39934833       3.01976298      -3.79146211
Se       6.73560500       4.03999980       7.98603510       4.57298825      -1.99514134      -9.11378269
Se      -1.72178479       6.93041589       7.72019301      -1.19974513       1.42207562      -4.96300609
Se       1.81680315       6.83406457       7.38286315      -1.31649532       1.68231471      -1.63313156
Se       5.10790638       7.13439390       7.63408712       1.42912198       0.58925622      -1.16107059
27
Lattice="10.32 0.0 0.0 -5.16 8.937382167055407 0.0 0.0 0.0 18.34" Properties=species:S:1:pos:R:3:REF_forces:R:3 REF_energy=-18623.157288974468 config_type=well_T300_m06 pbc="T T T"
Nb       0.27050130      -0.03873098       9.34395101      -2.63297753      -0.19642663      -1.54495044
Nb       3.38271178       0.01966587       8.84537372       0.62395429       0.68712655       2.65417525
Nb       6.88208125       0.05836815       9.14968817       0.49035308       1.03600416       1.83626748
Nb      -1.88017266       3.02145639       9.13494770       0.82453916      -0.94705685       1.17034225
Nb       1.64395660       2.91340319       9.43163228       2.38883380       1.13680863      -5.86632616
Nb       4.90409180       2.73609060       9.29681152       1.50487954       0.85268194      -0.85661804
Nb      -3.61133318       5.91090471       9.38854906      -0.11896314       0.17898452      -1.62712006
Nb       0.02362048       5.80982317       9.31082064       1.50420642       1.25709075       1.38729836
Nb       3.43797667       5.94297550       9.06934965      -0.86548603      -1.73576203       1.86207467
Se       1.48358349       1.17626673      10.99914311       1.53137810      -3.25776460       2.45013507
Se       5.00327769       0.93153875      11.09421528      -0.04342902      -0.46053728      -1.67696527
Se       8.42300603       1.07754272      10.90812920       0.72047247      -0.41972076      -0.46160686
Se       0.13531849       3.65858225      10.90532698      -4.39459226       3.18149539       3.47746022
Se       3.35084130       3.91744906      10.80776008       0.51420546       1.23330959       1.89742708
Se       6.64515633       3.88216806      10.91556266       0.64675072      -0.02398968       0.16835069
Se      -1.62932849       6.95726912      10.50388787      -1.90171851       1.08099538       3.23933673
Se       1.85168475       7.08456922      11.06270688      -0.87908023      -0.50909745      -1.28188442
Se       4.84081692       6.81286002      10.94911437       1.63573840       0.75975044       0.17182322
Se       1.65493045       1.25554794       7.53641208      -0.37117371      -1.58256825      -1.02952987
Se       5.30294168       1.09225679       7.42513584      -0.98307775      -0.75617301      -0.59361784
Se       8.76238751       1.06052564       7.37252248      -0.41983646      -0.65698036       1.53951564
Se      -0.00844867       4.09508325       7.71971705      -0.17209448      -2.27052269      -2.54989979
Se       3.27346748       3.83308610       7.47091389       0.33020061       0.30440447       0.51735995
Se       6.82585320       3.81703502       7.54868891      -1.07695027       0.98722725      -0.27535101
Se      -1.76620897       6.93756260       7.57643243      -0.02576862      -1.50801834      -1.78610603
Se       1.64852642       6.96761388       7.80181498      -0.52975215      -0.06949589      -2.76107118
Se       5.01808777       6.55954822       7.38573124       1.69938838       1.69823472      -0.06051940
27
Lattice="10.32 0.0 0.0 -5.16 8.937382167055407 0.0 0.0 0.0 18.34" Properties=species:S:1:pos:R:3:REF_forces:R:3 REF_energy=-18617.28844641182 config_type=well_T300_m07 pbc="T T T"
Nb      -0.01276436      -0.02854845       8.94423288       2.37011154      -2.13101797       4.71413384
Nb       3.54418311       0.23929074       9.19008511      -1.20886740      -2.00179767      -1.77632709
Nb       7.13452056       0.12980863       9.02251266      -1.00632952       3.22035350       1.47474929
Nb      -1.84400750       2.80552538       9.18441945       0.38895469       1.81390505      -0.14314694
Nb       1.84563004       2.77332493       9.06623124      -1.03445585       2.80963854       0.15289733
Nb       4.99074692       2.92735755       9.16627869       1.60462111      -0.93431292      -1.20075120
Nb      -3.25086470       6.04521719       9.11501605      -3.50215747      -2.26955441       1.51649681
Nb       0.20106101       5.87956487       9.30205643      -5.30543512       4.39327045      -0.22985482
Nb       3.50273441       5.82006358       8.99635595       1.50512610      -0.18013226       0.52785339
Se       1.61880193       1.07698205      10.66599586       0.14004645      -1.72621784       2.58011205
Se       5.13363712       0.88304410      10.86890488       1.30799191       1.01179209       1.01838851
Se       8.71302080       0.83996746      10.91243227       0.14861388       0.80047826      -0.37346250
Se       0.09230781       4.19880115      10.73494252      -0.22392560      -5.32271833       4.38268214
Se       3.63077794       4.08868086      10.83851893      -1.57431295      -1.06395746       0.55275401
Se       6.76156433       3.79641940      10.86031281       1.12395209       0.72567767      -0.70583338
Se      -1.44709118       6.99761373      10.54828969      -2.50616944       1.35416121       3.68817164
Se       1.74880117       7.08994351      10.18032612       4.45194020       1.81190216       8.90343766
Se       4.85262541       6.82828194      11.06928503       1.14640553       0.50971966      -1.78090212
Se       1.70443132       0.93156463       7.36335481       0.54004068       0.06850036      -0.97651321
Se       5.31066347       0.62307065       7.49908923      -1.15148783       1.89353135      -1.74772871
Se       8.85002725       0.86584833       7.46924307      -2.22667355       2.57722599      -4.05546684
Se       0.11749983       4.34400764       7.85493459      -0.91743800      -8.18948499      -8.13870467
Se       3.39248295       3.75089127       7.38267701       0.92443243       0.69761074      -0.89459940
Se       6.77954540       3.96369437       7.20623282       0.56554885      -0.49981526       2.19249922
Se      -1.86661715       6.80690670       7.47389949       2.19025748       1.58143362      -2.31244350
Se       1.70676102       7.02961847       7.73966088       1.11268757      -1.00097725      -6.49942663
Se       5.11345413       6.84049236       7.46789152       1.13652247       0.05078597      -0.86901487
