72
Lattice="14.76 0.0 0.0 -7.38 12.782534959858314 0.0 0.0 0.0 15.0" Properties=species:S:1:pos:R:3:REF_forces:R:3 REF_energy=-11163.940855405406 config_type=fd_force_conv_snapshot_000 degauss_Ry=0.0038001738 kgrid=12 lattice_temperature_K=600.0 pbc="T T T"
C       -0.05773115      -0.04473408       7.46933721       1.53023627       1.84611403       0.05429707
C        2.51094656       0.02796544       7.46612883      -0.46502129       0.35916897      -0.48816019
C        5.00475517      -0.00528471       7.41191438      -4.65750555      -0.35327883       1.88001094
C        7.38317139       0.00530096       7.54981501       1.64930791       2.32778399       1.38510829
C        9.78942120       0.01237122       7.65215516       2.86633831      -0.38523687       0.01589842
C       12.24793275      -0.00601942       7.36141983      -1.61694827       0.05191674       1.03541512
C       -1.18735367       2.07086582       7.54136659      -2.40974715       1.69597575       0.02315330
C        1.22492938       2.10194845       7.31527100       2.08214053       0.86328208       1.22649643
C        3.72456185       2.16636773       7.41103688       0.39885420      -0.58959946       0.59747347
C        6.17737098       2.13071615       7.49070729       0.11487252      -1.37402838       0.98208222
C        8.64797811       2.12547038       7.56051167       0.56253886      -1.47751991       0.13576042
C       11.10079635       2.20618638       7.58200771      -0.43015276      -2.70368390      -0.16213916
C       -2.43900814       4.28360263       7.57089913      -1.19559202      -0.34750182      -0.00522011
C        0.05391224       4.27644426       7.35946167      -3.21623151      -1.00157761       1.59263309
C        2.45239632       4.30258758       7.41454960       0.65802500      -1.07533022       0.32946296
C        4.95226240       4.23308997       7.58988742      -0.65815741       3.06244457      -0.06928660
C        7.42859164       4.19263540       7.56488049      -1.85664630       1.15922403      -0.17968874
C        9.82641713       4.27469939       7.48484476       1.06767476      -2.18262644       0.62178119
C       -3.73232395       6.39752178       7.52927373       1.90637272       0.83002358      -0.77167573
C       -1.21107417       6.40248348       7.46221077      -1.16436186       0.58603463       0.31994268
C        1.20699797       6.39770657       7.32940809       0.87630601      -0.22421511       0.66875165
C        3.71199696       6.34407330       7.49525239       0.02360041       0.50819911      -0.72597900
C        6.21833036       6.35139636       7.51815989      -3.11887129       1.72739360      -0.61036086
C        8.61462298       6.34134847       7.44174156       0.95939763       1.90219442       0.89877205
C       -4.94354493       8.58869980       7.55220111       2.45669190      -3.49485605      -0.71035364
C       -2.41210756       8.51367918       7.55930614      -3.09584886       0.88684187       0.35325800
C       -0.00516430       8.50127685       7.65440860       1.22504478       1.67098951      -0.55994076
C        2.48401574       8.50613700       7.43551739      -1.49293753      -1.26119475       0.68216458
C        4.86125157       8.53692713       7.32480803       2.20316699      -1.55437379      -0.11015172
C        7.35122474       8.47817990       7.39808168       1.29999270       1.23719530      -0.16991444
C       -6.11847806      10.69445724       7.50238495      -2.88792092      -1.26209669      -0.70060967
C       -3.79481113      10.65132224       7.55568037       2.82040838       0.20315803       0.81883748
C       -1.34382795      10.75021453       7.66409100       3.09808546      -3.42978528       0.59418194
C        1.18123927      10.61799248       7.71449960       1.12190369       1.97534719       0.50517883
C        3.62523102      10.68388743       7.46557335       1.43984194      -1.65696646       0.02720639
C        6.15397306      10.63195508       7.27457573      -1.99357528       0.93766512       1.34090100
C        1.26222399       0.67577053       7.44145841      -2.08396396       1.31424818      -0.29317595
C        3.75575765       0.70980409       7.39347338      -0.31720214       1.87397579      -0.02639443
C        6.17897729       0.68255306       7.57122926      -0.21381757       2.20543444      -1.64219393
C        8.61949583       0.72752711       7.65021422      -0.83273840      -0.65149903      -0.63514450
C       11.05357375       0.77881053       7.51372133      -0.80068343      -2.16368847       0.31797656
C       13.44139843       0.65102258       7.45036832       4.14667492       1.69049467      -0.05949044
C        0.01409455       2.81959801       7.45305831       0.63398416       0.32056386      -0.85243974
C        2.50727578       2.89699268       7.39090377      -2.16170461      -2.63617778      -0.58603257
C        4.97024538       2.87809724       7.57435190      -0.37990672      -2.90433330      -1.15002153
C        7.43231390       2.75573169       7.52899875      -1.71727168       3.48175499       0.05444954
C        9.85075676       2.81988208       7.54375199       0.32567495       2.82561743       0.06077111
C       12.34235064       2.85082304       7.63182802       0.75798847       0.57060492      -0.81752339
C       -1.23829177       4.99876458       7.55239000       2.23414904      -0.89695196      -1.51985158
C        1.23691856       5.00583187       7.34845107      -0.41989097      -1.17454986      -0.31097056
C        3.67857285       4.93869989       7.57070188       1.98517858       0.55354128      -0.56235888
C        6.17225232       4.98472615       7.53343102       1.11942849      -3.80114797       0.70964684
C        8.62530460       4.93565539       7.57339783      -0.88323590       0.55597123      -1.08694132
C       11.02708322       4.98086935       7.47756526       2.08241435      -0.10344679       0.68399752
C       -2.45573631       7.12028506       7.49138541      -0.10454877      -1.53705535       0.49257220
C        0.01464271       7.12108793       7.45188252      -1.14561132      -0.34845801       0.08602808
C        2.44912682       7.00063810       7.37149641       1.66774607       4.20089177       0.47717592
C        4.95665120       7.07678406       7.40933249      -1.21882477       0.58204813       0.65764654
C        7.39755585       7.05237714       7.47174592       0.89527226       1.47190977      -0.36972798
C        9.83974481       7.13004849       7.46797474      -1.40016699      -0.58445443       0.47001823
C       -3.68697284       9.25201356       7.62482141      -0.59667771      -0.42901402      -0.75431462
C       -1.23984664       9.22263135       7.62939563       1.20488450       2.74587981       0.47846661
C        1.28113618       9.22357156       7.70693819      -2.64568418      -1.49688700      -1.23281363
C        3.65305352       9.25287942       7.35580353       0.34999193      -0.34882259       0.38181396
C        6.11776345       9.22149342       7.31994870       0.61950448      -0.69382761      -0.11038466
C        8.63507204       9.23017903       7.40687391      -3.19000729       2.02131209       0.92877168
C       -4.93802155      11.42106060       7.47964301      -0.48766885      -1.66354000       0.48270765
C       -2.59246694      11.37424584       7.68483165       3.44131797       0.86560250      -2.02184379
C       -0.01412685      11.45486795       7.67337046      -1.88565734      -5.51126530      -0.05368258
C        2.43100954      11.32350293       7.73510143      -1.27923747       2.48343060      -1.42352520
C        4.86169173      11.36347017       7.35076034       1.26850748      -0.53873790      -0.37244898
C        7.35051407      11.36535302       7.49602958       0.93049946      -1.73650379      -1.22604803
72
Lattice="14.76 0.0 0.0 -7.38 12.782534959858314 0.0 0.0 0.0 15.0" Properties=species:S:1:pos:R:3:REF_forces:R:3 REF_energy=-11163.772641569252 config_type=fd_force_conv_snapshot_029 degauss_Ry=0.0038001738 kgrid=12 lattice_temperature_K=600.0 pbc="T T T"
C        0.02746141      -0.01689830       7.18270624      -0.77232288       0.73687251       0.84752790
C        2.36925217      -0.03887855       7.31038791       3.80990900       1.31763972      -0.25840564
C        4.93639355       0.02356546       7.41925497      -0.85470797      -1.60415034       0.21116239
C        7.45696161      -0.03441810       7.48114564      -1.49750278       1.41491561      -0.57538820
C        9.83976532      -0.01969182       7.63927964       2.87801317       0.24986263      -2.15085404
C       12.42875186      -0.05004098       7.29388646      -5.47646593       0.32516125       1.37132512
C       -1.18824722       2.16773155       7.36251917      -0.78930887      -0.85103438      -0.80125113
C        1.21964696       2.11050933       7.17190369      -0.16950358       2.59393481       0.60455171
C        3.56233371       2.06579796       7.20541426       4.84079307       0.75227265       1.75006816
C        6.17529827       2.14410082       7.33400110      -2.46560771      -0.23312552       0.89511620
C        8.58830401       2.10175119       7.53106672       3.36856475       2.73466312      -0.27675560
C       11.13158843       2.10186973       7.32938718      -2.20104788      -0.95555306       1.36460632
C       -2.50803965       4.27787447       7.48797004       0.63948606       0.62794772       0.14864730
C       -0.01840482       4.30731217       7.41094058       2.26250599      -1.83074064      -0.28825717
C        2.43035861       4.28166921       7.30636050       0.94879800      -1.44314863       0.28887604
C        4.88707225       4.27435826       7.37765516      -1.73227098      -1.09919494      -0.32757834
C        7.36561763       4.26692293       7.47645818       1.51017832       0.53000592       0.36139580
C        9.89242174       4.27677973       7.52086054      -1.53680724       0.67178452       0.84818894
C       -3.65506604       6.49442881       7.59950373      -0.36310507      -1.66258998       0.89883684
C       -1.20685991       6.35888519       7.71928348      -0.81485998       0.14348890       0.40895504
C        1.19171671       6.37839879       7.53821798       1.41135720       2.68259519       0.37795396
C        3.62459471       6.40515394       7.47185471      -0.23791215      -0.37360032       0.02438126
C        6.18744330       6.41119073       7.59337412      -4.20584963      -2.13635584      -1.11966966
C        8.63103020       6.38511560       7.68724525       0.19975749      -0.12894159       0.22640132
C       -4.97593199       8.56178321       7.82637102       0.71471577      -1.48767371      -1.83348863
C       -2.49657130       8.53025986       7.91043758      -0.25878308       0.26119888      -1.24338523
C       -0.03843657       8.49964836       7.69882737      -0.18031635       1.21816914       0.73518252
C        2.45037914       8.55295134       7.57060413      -0.22218779      -2.96436265       0.60352662
C        4.91865719       8.55919462       7.62825123      -1.57340123      -3.10124895       0.38918377
C        7.35411677       8.51584433       7.64551289      -0.06302597       0.01983118       0.47188279
C       -6.11277639      10.70013155       7.44178861      -2.49652163      -4.12350491       0.15476704
C       -3.65479227      10.63507399       7.48248855      -0.65389221       1.97776711       0.66080179
C       -1.19634616      10.66021900       7.54552881       0.33795223      -0.40829221       0.39106762
C        1.29805443      10.59365488       7.54341867      -2.39729067       1.69188847      -0.27404669
C        3.72572623      10.64867749       7.59087115      -3.38960511      -0.72338450      -0.26115080
C        6.17206543      10.63801142       7.51904704      -0.56383984       0.21051936       0.27408397
C        1.21700465       0.74291473       7.19303226      -0.44436016      -3.04273707      -0.11979824
C        3.63749377       0.65549905       7.36978708      -0.15776032       0.44728710      -1.04629655
C        6.16505710       0.70092187       7.41416244       1.54609432       0.70554156      -0.24237532
C        8.68761810       0.72371278       7.52931449      -3.31120935      -1.15186604       0.48719165
C       11.10507765       0.64003382       7.42206576       1.67844803       1.37442947      -0.21075615
C       13.57916871       0.71904629       7.26352915       0.42832368      -0.00175632      -0.30837040
C        0.02516120       2.86937119       7.28068371      -0.70336641       0.48758272       0.30191847
C        2.43224062       2.81502384       7.25433655      -1.94783767       1.65936684      -0.81469286
C        4.82580030       2.82316448       7.35346984       2.31818991      -0.15928267      -1.03966284
C        7.40339737       2.86738263       7.45907946      -1.36389387      -1.26743584      -0.36334496
C        9.88759704       2.83589207       7.48680111      -0.49610772      -0.47797373      -0.40953508
C       12.31585110       2.84687385       7.39462551       0.18808391       0.48225256      -0.20036658
C       -1.25115033       4.92152830       7.57099563      -0.00621307       2.13507518      -0.21094616
C        1.27893945       5.03020080       7.39006565      -4.48005958      -2.76836411       0.16965604
C        3.61382407       4.99951178       7.41862872       2.50806460      -1.03686471      -0.55440003
C        6.12106091       4.94630032       7.34775039       1.42240575       1.95456162       2.02390787
C        8.65302254       4.97524615       7.68648756      -1.91411123      -0.89265334      -1.77039222
C       11.04179949       5.11685457       7.53618006       2.06435750      -5.05043080      -0.59591718
C       -2.39607619       7.09348778       7.79100718      -1.60871894       1.73323566       0.02519373
C       -0.00890635       7.09824074       7.76508588      -0.28518985      -0.73777188      -1.11983036
C        2.39812043       7.10430493       7.49856135       0.98253756       1.37194450       0.29686471
C        4.83845322       7.07391509       7.56079145       4.28173291       2.38530496       0.36237385
C        7.38377872       7.09450337       7.69805150       0.53710037       0.57984933      -0.30293894
C        9.85605893       7.08935538       7.69184898      -1.00345271       3.49692630       0.85472674
C       -3.74637288       9.28429547       7.74838311       1.12424828      -2.36760934       0.57331152
C       -1.32303332       9.24900125       7.75442792       3.95211955      -0.38914083      -0.32710757
C        1.22975830       9.20030583       7.65506911      -1.07603547       0.44242720      -0.75782057
C        3.67939962       9.21722764       7.65086440       0.63614826       1.70362041      -0.65542716
C        6.13074531       9.24814158       7.68615694       1.25819504      -0.84848333      -0.97320446
C        8.56831752       9.21504258       7.59909756       0.91605732       2.18828853       0.64738912
C       -4.92453281      11.34960654       7.34728269       1.52110423       0.08848400       0.55539274
C       -2.39333015      11.35630239       7.52712052      -2.08048063       1.19618183      -0.83081496
C        0.07674789      11.35033260       7.43444770      -0.87815926      -1.15670126       1.23087013
C        2.45213112      11.36198159       7.50080844       2.21200875      -1.35190327       1.45763269
C        4.90244793      11.30227110       7.48610337       4.59455415       2.45385263      -0.64717546
C        7.40379430      11.35438990       7.38006707      -0.41871186       0.78114511      -0.38351449
72
Lattice="14.76 0.0 0.0 -7.38 12.782534959858314 0.0 0.0 0.0 15.0" Properties=species:S:1:pos:R:3:REF_forces:R:3 REF_energy=-11164.218704179268 config_type=fd_force_conv_snapshot_059 degauss_Ry=0.0038001738 kgrid=12 lattice_temperature_K=600.0 pbc="T T T"
C        0.10645655       0.01407736       7.32774638      -2.32669512       0.19942607      -0.14530872
C        2.44212409       0.05398301       7.42310903       0.66318984      -2.45814329      -0.53244744
C        4.98069554       0.01967110       7.44478172      -3.53487064      -1.08726399      -0.17976973
C        7.43723206      -0.02613937       7.41469314      -1.26574097       1.05314699       0.23544183
C        9.88740544      -0.13186951       7.39023216      -0.80991087       4.53925281       1.22979567
C       12.34605688      -0.07331923       7.31417037       1.34239147       4.65836430       0.85939355
C       -1.21495210       2.17350103       7.39451407       1.87619337      -0.74305576      -0.14643949
C        1.23238267       2.21844149       7.46862958      -0.58871629      -2.12381709       0.29702952
C        3.61402641       2.13363923       7.57909585       2.78136181      -1.14136720      -1.21354835
C        6.14857312       2.15918049       7.41487723      -1.21199515      -0.60989987      -0.80840626
C        8.63213317       2.16249658       7.41193977      -0.16407726      -2.17868109       0.30634617
C       11.10197765       2.04394262       7.53223418      -1.02483992       2.13813942      -0.98508192
C       -2.56381765       4.32811638       7.41314675       3.83133683      -2.10275281      -0.23739253
C        0.00314353       4.32544665       7.53081013      -0.56998195       0.47846173       0.56802225
C        2.42317652       4.26892290       7.51298815       2.02794296       0.95331492       1.06999800
C        4.86034325       4.22311903       7.50414470       0.77040921       1.12476687       0.02390020
C        7.33026194       4.22134231       7.59400520       2.08570408       1.86025356      -1.71059581
C        9.79604308       4.27242329       7.41738362       1.21399135       0.32027795       0.22398782
C       -3.69732671       6.44098740       7.55293406       0.38304475      -1.49650648      -1.30312199
C       -1.20246645       6.39264691       7.55521028      -2.84545735       1.92156743       1.10298912
C        1.21407387       6.39905902       7.93907604       1.32793416      -0.91456865      -1.10881498
C        3.64967358       6.41943837       7.81812761       3.06608577      -2.73338914      -1.59535486
C        6.11969597       6.30946881       7.44127434      -0.21153083       1.70721301       1.11243072
C        8.59892824       6.39623060       7.40757667       0.01591719       0.80837335       0.66760879
C       -4.96770069       8.50474951       7.54231241       1.26469248       0.04000174      -1.23032686
C       -2.47919391       8.58131909       7.66310328      -1.46265122      -1.93617849      -1.57721392
C       -0.02527568       8.51069483       7.69231407       0.90629510      -0.93063573       0.43927837
C        2.52640524       8.46343630       7.74011348      -3.01832522       2.51318752      -0.21855611
C        4.94039415       8.54695731       7.64681249      -0.84755644      -2.26646960      -0.01492217
C        7.31073902       8.55083313       7.39128484       2.15518994      -1.96516151       0.54444909
C       -6.11612031      10.61801232       7.32656602      -0.58005116       1.65568862      -0.37980799
C       -3.70214957      10.69059305       7.44969361       1.44383358      -1.91856489      -0.60627744
C       -1.24567246      10.64770226       7.41518704       1.93071618       0.10959276       0.38071507
C        1.26414739      10.57131183       7.48141196      -1.64727854       0.36843291      -0.20184574
C        3.72643547      10.61278016       7.49605084      -0.72370666       0.53592409      -0.02850505
C        6.15690176      10.70619947       7.49923844       1.70315556      -1.94028172      -0.25176654
C        1.25310997       0.78987861       7.41214943       0.34637593      -0.52201287      -0.12961291
C        3.64963240       0.68854618       7.49386670       2.82887271       1.97855027       0.28559274
C        6.14848918       0.74552935       7.40825341       2.50371300      -1.03832716       0.11605471
C        8.66321669       0.69340273       7.48965890       0.00549111      -0.59759714      -1.36347503
C       11.11817938       0.63551160       7.48312081      -0.37730065      -0.92932987      -1.19075295
C       13.64821315       0.70841139       7.30730003      -3.39973603       0.66218222       0.38137790
C        0.05849577       2.94801265       7.49074362      -3.64764617      -2.34998572      -0.88771553
C        2.43588042       2.85693817       7.53931783       0.57081010       1.36959477      -0.35696065
C        4.86278526       2.83598458       7.42491481       0.32101251      -1.17625810       1.10832544
C        7.37337065       2.85532698       7.32922409       0.51603455      -0.88355677       1.89611248
C        9.85921099       2.83576147       7.48593105       0.15191157      -0.17728682      -0.22615321
C       12.28773684       2.81746274       7.39587228      -0.18896503       1.70085365       0.73419676
C       -1.23902152       5.04081539       7.52185222      -1.72044082      -3.42397228      -0.67871441
C        1.23330236       4.98955924       7.66353306      -0.42805782       1.24906068       0.32802828
C        3.68313491       4.98061654       7.58441896      -2.03067785       0.17651600       0.61893858
C        6.11141892       4.89359227       7.54882529      -0.24259027       1.16530057      -0.27070605
C        8.59817006       5.01000816       7.51355812      -1.79358794      -2.61752006      -0.31213938
C       11.01112989       5.03384056       7.34573795       0.13814897      -1.14352564       1.33197928
C       -2.49735789       7.13215162       7.54236105       2.74881421       1.01108786       1.02362816
C       -0.01613095       7.04051632       7.86713428       0.21987817       3.60153420      -1.27833115
C        2.47827501       7.10905601       7.89385175      -1.96172832      -1.11697437       0.42998409
C        4.90538409       7.06933914       7.61912677       0.41161690       1.41200075       0.27626066
C        7.33340392       7.08095304       7.39162264       0.28557294       0.66541101      -0.04199357
C        9.86794657       7.08643585       7.50671130      -3.46509450       1.75982807       0.11363865
C       -3.76029476       9.24029203       7.50624897       2.03602214       0.82503487       1.08114014
C       -1.24259353       9.25238085       7.55147704       0.46494158      -0.89145623       0.54167153
C        1.25390891       9.16285679       7.62789673      -0.36211160       0.15770067       0.24775022
C        3.68844868       9.21689716       7.61880485       2.07455783      -0.18732981       0.37480642
C        6.13898220       9.26051150       7.60365607       0.13369042       0.93714628      -1.20497886
C        8.60155471       9.21600011       7.35313476      -1.52773484      -0.14734118       0.66525366
C       -4.86914942      11.36661584       7.29968858      -3.68620783       1.59178796       1.02890149
C       -2.43826281      11.34943161       7.41106063      -0.58590607       1.86630748       0.27555798
C        0.02512918      11.32946613       7.42681038       0.14973539      -0.04824495      -0.09206118
C        2.46860733      11.27650842       7.41344594       1.36877613      -0.41371055       0.26240782
C        4.95651584      11.36887750       7.45781591      -1.56844003      -2.27122434      -0.23072848
C        7.39443688      11.37423922       7.32407412       1.75424980      -0.63289170       0.55683487
