72
Lattice="14.76 0.0 0.0 -7.38 12.782534959858314 0.0 0.0 0.0 15.0" Properties=species:S:1:pos:R:3:REF_forces:R:3 REF_energy=-11166.850963927502 config_type=fd_force_conv_snapshot_001 split=validation degauss_Ry=0.0019000869 kgrid=8 lattice_temperature_K=300.0 pbc="T T T"
C       -0.01303284       0.00700651       7.41140533      -0.53654398      -1.60616609       0.10038307
C        2.48264183      -0.01326731       7.65486865      -1.52579057      -0.92571489      -1.15409133
C        4.91987520      -0.02722581       7.52143308       0.37386154      -0.00276908       0.25635390
C        7.35727642       0.05165003       7.49009781       0.93439468      -1.95169304      -0.18304043
C        9.80659486       0.00243978       7.57471015       0.55630393       0.21765340      -1.45076707
C       12.27898770      -0.03478102       7.49093426      -0.22218882       0.64875078       0.16932643
C       -1.23115953       2.08663345       7.49970552      -0.34561771       0.17621981       0.24980555
C        1.19298649       2.10758832       7.51282062       1.74963313      -0.51656702      -0.04986706
C        3.67206342       2.10764675       7.59074785       1.55133757       0.51234990      -1.21445466
C        6.18640699       2.10688204       7.38896355      -2.17353117       1.15547304       0.15507686
C        8.59937986       2.14533272       7.40573898       1.47935979       1.20499840      -0.15461303
C       11.08983583       2.17161393       7.48366350      -2.57671665      -3.00176217      -0.44004816
C       -2.44295105       4.27000311       7.47452566      -0.93603582      -1.49813887      -0.85162856
C        0.06796224       4.25746526       7.52405298      -2.82939079      -0.66837498      -0.23848859
C        2.45475137       4.25843081       7.50778441       1.10688845      -0.26545277      -0.36152179
C        4.93871087       4.26311596       7.46442166      -1.38633677      -0.20309864      -0.43443210
C        7.36900797       4.29528580       7.38951248       0.36358998      -1.02881845       0.14317419
C        9.82256409       4.25822232       7.37269363       0.53244024       2.13022685       0.05046844
C       -3.72361650       6.43612751       7.37551084       1.32593101      -0.87130778      -0.36041750
C       -1.20644383       6.39593849       7.44605069      -0.12223616      -1.52005110       0.27779844
C        1.25162884       6.36465966       7.63194159       0.17823376       1.77505568      -0.37624907
C        3.74105632       6.38663767       7.61756206      -1.56161118       0.54663659      -0.35739131
C        6.19319696       6.39277618       7.45848288      -0.65050581       1.47891602       0.23004971
C        8.58485696       6.41590356       7.38253393       1.50448744       0.90822368      -0.48740685
C       -4.89595274       8.53853235       7.51981643      -0.41907105       1.96052298      -0.80086624
C       -2.40078151       8.51542558       7.38205754      -1.46067610       0.32266599       0.82986597
C       -0.04626419       8.53153408       7.60428077       2.35314098      -1.97228295       0.04795030
C        2.42429438       8.54033702       7.61737613       0.73868179      -1.78163617       0.40258153
C        4.88737834       8.51404382       7.64772406       1.63587904       0.65966691      -0.57773434
C        7.34845120       8.52904802       7.46081823       1.44944244       1.32080500       0.27407780
C       -6.15205336      10.66296375       7.55581324      -0.61417561      -0.00089114      -0.95977378
C       -3.68693481      10.65908104       7.52792428       1.76331140      -1.59455961       0.32117064
C       -1.19372624      10.65880873       7.53788856      -1.46858687       0.29109362      -0.00952774
C        1.20301664      10.63545873       7.53729371      -0.10562272       0.32434878       0.68336682
C        3.63839474      10.64014559       7.63333344       2.05143513       0.05762048      -0.96478332
C        6.15756682      10.63987264       7.54434123      -0.83285565       0.95961695      -0.81993354
C        1.19685879       0.64892640       7.45751546       2.75821905       2.91973909       1.18994537
C        3.71043558       0.67222581       7.64666860      -0.97008776       1.25028839      -0.43080916
C        6.13565573       0.69387893       7.43294164       0.06845048       1.01223509       0.24504284
C        8.58653465       0.74995106       7.41001148       0.46406664      -1.20539770       1.17428992
C       11.04889624       0.71664526       7.50266275      -0.01183427      -0.36298552       0.44375852
C       13.52471181       0.66727756       7.49507881      -0.80642522       1.15797318      -0.61209764
C       -0.01316652       2.82326258       7.56329641       0.69844352       0.14975853      -0.77326313
C        2.47302872       2.84540491       7.49109197      -1.73475673      -1.43843323       0.79723121
C        4.91948075       2.82523977       7.40267011       0.53048800       0.11029030       1.06175093
C        7.38630586       2.85570093       7.40931152      -0.26156732       0.17093337      -0.42984345
C        9.86178035       2.88553500       7.40869745      -1.27842217      -1.96257164       0.21174551
C       12.29107834       2.76393666       7.45424584       2.30410567       4.50378855       0.52290402
C       -1.20265939       4.93626684       7.44357048       0.50242441       1.52653722       0.57323054
C        1.26457267       4.97804402       7.50839315      -0.77287412      -0.82670043       0.59437195
C        3.66478740       4.97236518       7.49323976       2.45186337      -0.15061034       0.63354527
C        6.15928971       5.00328485       7.44214253      -0.34174383      -1.26338533      -0.20798296
C        8.58787809       4.99618802       7.36773977       0.55568610      -0.02565241      -0.01471057
C       11.05567917       4.99355047       7.38417346       0.63281534      -0.08107228       0.31803903
C       -2.44684254       7.09394338       7.38193613       0.08184901       0.30790426       0.02686751
C        0.02600941       7.08563126       7.60903870      -1.34267507       0.49109125      -0.56127542
C        2.46950419       7.10520797       7.65184589       0.84201032      -0.17466764      -0.09091755
C        4.98246257       7.10283178       7.59226495      -1.99512566      -0.31004213      -0.01664404
C        7.39155753       7.15066371       7.39804400      -0.58258986      -2.28550991       0.29953892
C        9.82486280       7.18174215       7.35250774      -0.08277487      -3.19940056       0.77583552
C       -3.61519885       9.22735928       7.49494403      -2.28635966       0.24496288      -0.28167309
C       -1.21160779       9.25129877       7.50552701      -0.37150589      -0.30560492      -0.16712145
C        1.18499550       9.19392202       7.61782714       0.41140196       2.31366246      -0.34299288
C        3.66471706       9.23052635       7.61988570      -0.51646752      -0.40924429       0.44633194
C        6.14451374       9.23637301       7.56451521      -1.12573464      -0.35149140       0.10386331
C        8.58866900       9.24748617       7.50771749       0.90730502       0.02663843       0.23922881
C       -4.89656460      11.33680399       7.59560045      -1.04839560       1.20206066       0.10378644
C       -2.44069942      11.33881459       7.51293173      -0.35830071       0.82667472       0.12991270
C       -0.01098995      11.39806932       7.59257801       1.18134528      -0.40988784      -0.80571020
C        2.43966430      11.33872034       7.53358434      -1.07517364       1.19567713       0.74036175
C        4.89447868      11.33115075       7.52877782      -0.02966693       0.18806000       0.58065280
C        7.36334744      11.39155416       7.38819141       0.72114841      -2.07717753       1.57839252
72
Lattice="14.76 0.0 0.0 -7.38 12.782534959858314 0.0 0.0 0.0 15.0" Properties=species:S:1:pos:R:3:REF_forces:R:3 REF_energy=-11166.990048521455 config_type=fd_force_conv_snapshot_005 split=train degauss_Ry=0.0019000869 kgrid=8 lattice_temperature_K=300.0 pbc="T T T"
C        0.06389545       0.03272406       7.51170786      -1.25410313      -0.63585078       0.66811710
C        2.49760376       0.00836597       7.72184797      -1.30797751      -0.09841540      -1.19183796
C        4.92638784      -0.02961981       7.52103910       0.07993225       0.15513522       1.00053168
C        7.35455832      -0.01180579       7.52291177       0.33123728      -1.01429428      -0.08315770
C        9.76172349      -0.00309644       7.36759562       2.31824776      -0.75727884       0.01812268
C       12.29635949       0.05809697       7.49353673      -0.28179008      -2.14908640      -0.64019877
C       -1.26702323       2.11291917       7.44141339       0.94418056       1.20031283      -0.26731991
C        1.23370569       2.16200217       7.51878856      -0.60582544      -0.14440190      -0.14177371
C        3.74193300       2.16546884       7.62066212      -2.66213153      -1.27813575      -0.54125707
C        6.16269393       2.11626478       7.52342819      -0.14967600       0.43315606       0.10331618
C        8.57968332       2.11143314       7.48307557       0.16357333      -0.19456515      -0.53238908
C       11.02140213       2.09855161       7.36252702       1.17965504       0.80366231      -0.13615354
C       -2.44617078       4.21911151       7.37832370      -0.04021282       1.86671937       0.66182407
C        0.02458914       4.26471966       7.43505009      -0.68537897      -1.16449325      -0.17416859
C        2.46371290       4.28905998       7.47798792       1.02469800      -0.89069750      -0.68137525
C        4.95572989       4.29501112       7.52059269      -1.44141802      -0.70500266      -0.09747875
C        7.33991251       4.25275184       7.61794187       1.49053664       0.08785614      -0.23184691
C        9.84588521       4.20764751       7.56186931      -0.73550931       0.83557947      -0.62985523
C       -3.65987534       6.36383837       7.60066623      -0.89150354      -0.49819135      -0.62307908
C       -1.20267500       6.35428152       7.40293741      -1.99291503       2.26601606       0.25299912
C        1.22323420       6.42853014       7.36644742       0.33619771      -1.29982300      -0.11876568
C        3.68154196       6.40970213       7.41023277       1.23829599      -0.35691951      -0.21353500
C        6.17439495       6.36839206       7.56605679      -0.64286938       3.01725769       0.00298942
C        8.62620105       6.35680405       7.59731121       0.44015666      -0.11885824       0.90681420
C       -4.92334717       8.50686593       7.66643412      -0.49545158       0.05045584      -0.36602636
C       -2.43939205       8.55973177       7.49507825      -1.22480747      -2.08100719       0.33439793
C        0.01402460       8.52288810       7.38842755       0.20218281       0.70204255       0.40140423
C        2.47073242       8.55262453       7.18921242      -1.42861085      -0.30398050       0.57620890
C        4.90733175       8.54503459       7.46948923       0.70427169      -0.46808399      -0.22945399
C        7.38791482       8.50160914       7.65819753      -1.41568205      -0.15061497      -0.47197252
C       -6.20336878      10.64377363       7.69090006       2.56806437       0.10762509      -0.57299219
C       -3.70915216      10.66396062       7.62059243      -1.22846538      -1.23079685      -0.08255632
C       -1.21708859      10.62693155       7.51853972      -0.35340070       0.42907881       1.25124484
C        1.21085284      10.64921142       7.38563876       0.95565719       1.11248266      -0.12739765
C        3.69314040      10.66703321       7.35760238       0.24666418       1.11465190      -0.23161989
C        6.15402389      10.69092745       7.63150638      -0.03622761      -0.93725272      -0.64270329
C        1.27821306       0.75369820       7.55776249      -0.29559150      -0.94287675       0.58315551
C        3.71692843       0.69742823       7.65962501       0.76722695       1.21475420      -0.34125018
C        6.17069360       0.70023865       7.49384751      -2.03259357      -0.09020535       0.28447045
C        8.54567276       0.67557623       7.42969910       1.07413208       1.88843156       0.23271286
C       11.01670061       0.69337019       7.38106066       0.72761628       0.53253794       0.23155869
C       13.56259480       0.72161135       7.47234643      -0.75434984      -0.33964221       0.12342015
C       -0.04578582       2.83122137       7.45846071       1.83982974       0.57796651       0.04688972
C        2.45383146       2.87032731       7.52429234       1.54895673      -0.15226999       0.56333924
C        4.93785110       2.85497609       7.54190163       0.97346979       0.50655797       0.17180291
C        7.38180200       2.84572422       7.55657318      -0.98279956      -0.92337288      -0.01664275
C        9.81530056       2.80192932       7.38718151      -0.26896413       0.43000415       0.98875963
C       12.26976458       2.84206873       7.37141566      -0.21814962      -2.30425865       0.09332950
C       -1.19234657       4.95990434       7.42603173      -1.06389626      -0.39449387      -0.42729009
C        1.24388052       4.95658271       7.38438992      -0.34038346       2.41898256       0.53400630
C        3.71455033       4.98189350       7.43172784      -0.49409635       0.29504489       0.60959390
C        6.15955247       5.01295247       7.58342930      -0.35069719      -2.56804072      -0.14703368
C        8.57238345       4.91772135       7.61395325       2.01468353       1.03607847      -0.08336442
C       11.08859040       4.92551390       7.51969378      -0.46928135       0.26262019      -0.06212839
C       -2.50257640       7.09742531       7.41153928       3.45770695       0.47829101       0.95300613
C       -0.01431911       7.13581203       7.43331060       1.13486848      -2.25900158      -0.89767959
C        2.47182479       7.12034381       7.29740192      -0.89814213       0.62600963       0.01231276
C        4.92606524       7.10406508       7.49052368       0.00167430       0.58471077      -0.20713553
C        7.40912938       7.07299247       7.60528474      -0.32424876       0.35819786       0.06773057
C        9.88845325       7.07114375       7.68900771      -2.07589738       0.36125079      -0.64018566
C       -3.71328300       9.23638141       7.57902944       1.11206074      -0.03855781       0.32115495
C       -1.17013308       9.21709718       7.56389724      -2.50952421       0.79709880      -1.26993907
C        1.20088753       9.27503843       7.25633507       1.62982024      -2.32147321       0.29774814
C        3.66967934       9.26082239       7.28333292       1.59271562      -0.48539188       0.56721647
C        6.16685253       9.23889702       7.58991517      -1.30308650       0.45744142       0.25596103
C        8.55218367       9.23210223       7.64205821       2.94896045      -0.66710203       0.73512005
C       -4.94524112      11.36397912       7.64071123       0.22084619       0.15260423       0.82047887
C       -2.49245024      11.31383022       7.59722525       2.26059232       1.70920896      -0.78116670
C        0.00912791      11.35060650       7.57670385      -1.23588327       0.16417625      -1.19921651
C        2.46139740      11.36794333       7.31851008      -1.10503263      -0.19641403       0.47002491
C        4.92699077      11.40456065       7.48925273      -0.36718207      -0.39344049       0.21908550
C        7.40015373      11.37359454       7.64699752      -1.56495568       1.52029099      -0.25890160
72
Lattice="14.76 0.0 0.0 -7.38 12.782534959858314 0.0 0.0 0.0 15.0" Properties=species:S:1:pos:R:3:REF_forces:R:3 REF_energy=-11166.588982383684 config_type=fd_force_conv_snapshot_009 split=train degauss_Ry=0.0019000869 kgrid=8 lattice_temperature_K=300.0 pbc="T T T"
C        0.01901084       0.00578188       7.49190860       0.57943075       0.88411727       0.07167541
C        2.44034786      -0.00761895       7.65567676       0.67822205       1.97318412       0.35685472
C        4.90903090       0.03675325       7.54263582      -0.26904821      -0.72877533       0.47692241
C        7.34107697      -0.01471209       7.43895307       1.27692682      -0.85497588       0.72227070
C        9.86757753      -0.02369859       7.34516520      -0.43739530       0.56077997      -0.56997526
C       12.33671828       0.02309000       7.40956545       1.11102587      -0.44115425      -0.49583776
C       -1.18334725       2.14646033       7.49597022       0.24886505       1.79439167      -0.15969199
C        1.20305286       2.15688106       7.54655419       2.12769277      -0.05725410      -0.44771288
C        3.64170953       2.18484249       7.65506349       1.56244859      -1.09916023      -0.70796585
C        6.21468446       2.13824235       7.68374627      -2.44919945      -0.17914598      -0.22301209
C        8.67038061       2.04788068       7.63030502      -1.00720884       1.41690127      -1.28368753
C       11.14932432       2.12351856       7.39389145      -0.62539822      -0.13237427       0.18425708
C       -2.45794994       4.29288467       7.51631830       0.39436403      -0.84059364      -0.46199484
C        0.01652867       4.29214975       7.36974691      -0.58216743      -0.14065991      -0.13414268
C        2.47539310       4.27772803       7.36728509      -1.48610791       1.40417431       0.11982215
C        4.89565460       4.26740398       7.58811150       1.62102449       0.10813700      -0.42879187
C        7.33045924       4.23548010       7.67857818       1.25488141       0.99294127      -0.82326312
C        9.78687050       4.21265809       7.56644420       1.27102562      -0.55436301       0.12576654
C       -3.74464147       6.33700079       7.69177749       0.55363976       1.07101668       0.00628506
C       -1.25026284       6.40885017       7.32188041      -0.55285043      -1.38544794       0.61039892
C        1.19832366       6.43578141       7.29449331       0.11482161      -1.12105857      -0.18180605
C        3.66521580       6.42640564       7.47086105       0.41353700      -1.77896556      -0.55609516
C        6.13595667       6.44004063       7.46953860       0.49646871      -1.85039312       0.67371156
C        8.58681566       6.33795874       7.64163139      -0.02624402       1.95805884       0.07633477
C       -4.91463663       8.52141952       7.87724458      -0.52773666      -0.88483513      -1.45443938
C       -2.49326104       8.46946926       7.51175505       0.04566356       0.69582253       0.76327208
C       -0.00518283       8.52434542       7.26418153      -1.28841373      -0.92284426       0.93448364
C        2.40659205       8.48537007       7.29054321       2.94716788       3.25332842       0.06786812
C        4.92220545       8.50364094       7.51715630       0.39878376       1.92789774      -0.61955744
C        7.41286763       8.55400592       7.52165910       0.41973439      -2.09420672       0.71119285
C       -6.13362004      10.65443665       7.73486695      -0.14021305       0.29300189      -0.88215604
C       -3.67441341      10.65978701       7.63972258      -0.95097393      -0.00861217       0.29696910
C       -1.25012717      10.57395972       7.43111186      -0.26409420       2.33972805       0.57159608
C        1.18149569      10.64916232       7.26484535       1.60548577       0.03225192       0.65232950
C        3.73437194      10.67147075       7.27919748      -1.27341032      -0.46287802       0.04485418
C        6.19071379      10.64597011       7.47991094      -0.54149592       0.48509363      -0.48994453
C        1.23135487       0.74621069       7.59563566      -0.38300875      -1.40154896      -0.08745556
C        3.65584060       0.75322773       7.64827934       0.80578193      -1.00952720      -0.19554808
C        6.16079125       0.72560661       7.56825579      -0.76005846      -0.04591990      -0.11421354
C        8.60653436       0.64712340       7.46298670       0.41580754       0.64626092       0.18245808
C       11.12549021       0.69516769       7.30733413      -0.95347638       0.66456203       0.92159599
C       13.58690896       0.76106660       7.46045487      -1.43760688      -1.92291803      -0.02779517
C        0.04924411       2.88247584       7.47436790      -2.41230669      -0.36897644      -0.00559703
C        2.42598624       2.88184893       7.46673378       0.80910045      -0.24624535       0.89328171
C        4.91866111       2.84597626       7.66830977       0.28206981       0.16063970      -0.03883060
C        7.43202481       2.82719473       7.68167708      -0.15444077      -0.87859969       0.23739304
C        9.89278729       2.76337419       7.45297713      -1.24862977       1.64293363       1.13219710
C       12.35507273       2.87923367       7.50225972      -0.60493018      -1.17237496      -0.52128808
C       -1.21525591       4.98120700       7.33433121      -1.13371431       0.66676881       0.91867676
C        1.19538518       5.02637122       7.33805970       2.44734800      -0.75718937      -0.18058452
C        3.71623123       4.98196945       7.40831717      -2.03406322       0.62568772       0.69470642
C        6.13705740       4.99117760       7.55522764      -0.67078899      -0.13407763       0.45873057
C        8.54978432       4.94736597       7.62037973       1.33729940      -1.44786301       0.23289412
C       11.03219493       4.92706573       7.60693396      -0.38001573       0.37670647      -0.31321719
C       -2.49713010       7.04777246       7.56716455      -0.42152645       0.72984826      -0.72207273
C       -0.04184480       7.11004936       7.26243156       1.11394561       0.66144688      -0.12111464
C        2.45120955       7.11727040       7.33205927      -1.14304356      -0.85108451       0.20472537
C        4.87415850       7.11141779       7.55208227       1.66355748       0.02391820      -0.67518069
C        7.41057832       7.09698171       7.48800041      -1.75824890       0.90466193       0.52136753
C        9.78984094       7.08193838       7.79774488       1.56302555      -0.36577156      -0.35054832
C       -3.70843796       9.23372849       7.66013311       1.10442276      -0.75464038       0.62124409
C       -1.23777184       9.17575114       7.45096373      -1.08792296       0.20829998      -1.01472160
C        1.19677013       9.21727149       7.28509077       0.74274260       0.80105470      -0.62842441
C        3.73028108       9.24211172       7.33216742      -2.04068664      -0.59421614       0.31008121
C        6.19097754       9.22701004       7.51186710      -1.35051847       0.21405925      -0.14693546
C        8.62976884       9.22579084       7.73484786      -0.28300390       1.10314492       0.14919057
C       -4.91206460      11.38392282       7.77232655       0.12347929      -1.08533335      -0.82112293
C       -2.46122406      11.35239261       7.49845205       0.15400959       0.58218337       0.29287488
C       -0.03755306      11.33312885       7.44585436      -0.02577402      -0.04173852      -1.35485541
C        2.44718918      11.37202190       7.22477441       0.85703404      -1.50042459       0.53266341
C        4.95936720      11.38255621       7.39319735       0.14336883      -0.40403344      -0.04559054
C        7.41485097      11.37153992       7.46002308       0.02152039      -0.68282149       1.51422627
72
Lattice="14.76 0.0 0.0 -7.38 12.782534959858314 0.0 0.0 0.0 15.0" Properties=species:S:1:pos:R:3:REF_forces:R:3 REF_energy=-11167.129972858715 config_type=fd_force_conv_snapshot_012 split=train degauss_Ry=0.0019000869 kgrid=8 lattice_temperature_K=300.0 pbc="T T T"
C       -0.03661468      -0.01664988       7.53286054      -1.28064386      -0.19207400       0.00232479
C        2.42983271      -0.00927376       7.53926631       1.03762807       0.70835178       0.49289847
C        4.86914552       0.02556423       7.58364725       2.58415974       0.70131055      -0.65340627
C        7.40494487       0.00573502       7.43896159      -1.91271589       1.01550322      -0.05390369
C        9.84823016       0.02576124       7.47567595       0.17545157       0.45593707      -0.01242666
C       12.28389699      -0.03959562       7.47885244      -0.60187700       2.00229929       0.60037033
C       -1.21045894       2.15306674       7.45176212      -1.97990859      -0.99584456       0.19048738
C        1.20685296       2.08322518       7.49241626      -0.50704597       0.64760921      -0.21022651
C        3.69166270       2.11837093       7.51932401       0.09432529      -0.00539135      -0.18201713
C        6.14284641       2.15032986       7.41312547       0.94946983       0.19685883       0.89942588
C        8.62567299       2.15559406       7.48294208       0.25611299       0.13312761       0.35877533
C       11.12689184       2.16217982       7.49536303      -0.84304441      -0.18838679       0.72563113
C       -2.45252593       4.31914538       7.54288739      -0.17767737      -1.43961080      -0.28805534
C       -0.03213485       4.26561117       7.48698518       1.90458195      -0.16827896       0.47698360
C        2.41765276       4.17491958       7.50282536       0.71427843       0.83346783      -0.06987590
C        4.87981320       4.24975191       7.47527471       0.43160337      -0.62649299       0.55454761
C        7.38978734       4.31757869       7.51517769      -1.25589159      -2.24959931       0.42740811
C        9.86560078       4.29847632       7.56113688      -1.41931734      -0.87172481       0.21697411
C       -3.71930616       6.42928557       7.51829994       1.19332405      -1.43466939       0.17318925
C       -1.22914572       6.36235228       7.60137952       0.93548971       2.32065200      -1.17135089
C        1.28161428       6.41519510       7.46399667      -1.14101522      -2.81400582       0.13179038
C        3.69027391       6.33034161       7.37678636       0.18504075       0.43835998       0.53665094
C        6.10206501       6.36328784       7.63540466       1.56953250       1.22582460      -0.13828730
C        8.61052763       6.46314525       7.65311052       0.15893660      -1.76838753      -0.10520774
C       -4.87854504       8.56420636       7.50704996      -0.58830543       0.07426683       0.23486256
C       -2.42319227       8.50108871       7.50496674       0.07096810       0.33476869      -0.39155510
C        0.03329603       8.48982367       7.43556209       0.04582991       1.21828612      -0.92033178
C        2.47919501       8.48733906       7.28129045      -1.82965332      -0.91442467      -0.05860521
C        4.88565651       8.49512614       7.44560450       0.51915895      -0.57066792      -0.03845908
C        7.40081939       8.52094622       7.64586398      -1.33211760       0.56524880      -0.43975711
C       -6.15203479      10.66237966       7.57257528      -0.05341030       0.11344247       0.39385264
C       -3.68614830      10.65217201       7.58401254       1.58847304       0.87802042      -0.33571125
C       -1.20535214      10.66760137       7.50842733      -0.73744021      -0.11470205      -0.64097370
C        1.26101458      10.66190315       7.36662334       0.10772742      -0.57112146      -0.82136179
C        3.69834302      10.63543864       7.33456850      -0.71176234      -0.52045633       0.89912660
C        6.10339650      10.60857277       7.54426282       1.15986655       0.57363780       0.11884847
C        1.18464677       0.68296290       7.53803194       0.29942862      -0.58635525      -0.24487007
C        3.67301634       0.73802060       7.52533749      -1.04841077      -1.90903767       0.35827397
C        6.14448880       0.75610379       7.47538257      -0.08286845      -2.19610571       0.07157566
C        8.59601432       0.73534875       7.47916239       1.49103183      -0.38084414      -0.24374829
C       11.08542896       0.73122334       7.51836054      -0.35956903      -0.37792131      -0.64713972
C       13.46320911       0.72360321       7.47323627       2.77710509      -0.98131654       0.17589817
C       -0.02296038       2.84322574       7.44550741       1.97234466       0.04758701       0.28454553
C        2.44661596       2.73583531       7.48147010      -0.66137001       2.89463947       0.36078722
C        4.91246811       2.82924765       7.52828124      -0.29376319       0.87048734      -0.85934495
C        7.39935857       2.85493106       7.44528031      -0.35098386       1.32835993      -0.00475037
C        9.88570337       2.86188328       7.57223087      -0.72821123       0.38114676      -0.81392076
C       12.34421159       2.88754897       7.51431036      -0.97499086       0.12829959      -0.30768160
C       -1.22416189       4.99566315       7.52620006      -0.30159323      -1.03446227       0.33080533
C        1.23841174       4.94332217       7.57311593      -1.03059456       0.60492504      -1.14521589
C        3.63688512       4.92545510       7.44746160       0.74292129      -0.70774011       0.08655490
C        6.10886974       4.96068330       7.57332518       0.70066778       0.28325458      -0.45520559
C        8.59078111       5.00759731       7.60766319       1.92511735       1.07496178      -0.24918155
C       11.07410418       5.00158907       7.53446079      -0.26515298       0.53806504       0.21791256
C       -2.47784753       7.05922898       7.53433411       1.51932579       2.09801812       0.14001739
C        0.03797611       7.09000366       7.45095752      -1.05110091      -0.65099612       0.91554284
C        2.51207245       7.05816818       7.35637333      -1.43789793       1.28010650      -0.15113047
C        4.89804249       7.07055531       7.48702471       0.01692094      -0.05268576      -0.06650878
C        7.36790528       7.11789947       7.70642015      -0.40839994      -0.64793445      -0.49364049
C        9.86372314       7.15974753       7.55262429      -1.70083616      -0.20986938       0.07446763
C       -3.63382399       9.25086954       7.45139945      -0.74701525      -0.58438835       0.94409083
C       -1.18118024       9.22065594       7.45840293      -1.12826126       0.41110577       0.61813511
C        1.24987547       9.20590538       7.27485400       0.12771466       0.91962138       1.03314690
C        3.64008587       9.17351569       7.31657184       3.34528701       2.75974371       0.12845437
C        6.13246509       9.19771058       7.52448765      -0.12921850       0.11193426       0.44766120
C        8.62246048       9.25606491       7.58402104       0.42429039      -0.58300536      -0.01966405
C       -4.88725071      11.36764347       7.62150183      -2.22610997      -0.20408903      -0.73949966
C       -2.46962687      11.41258466       7.58443509       0.76066524      -2.14182844      -0.07138925
C        0.01881265      11.37225868       7.37426721       0.34691458      -0.30353338       0.96414723
C        2.51324385      11.39356699       7.37729795      -2.00154056      -0.98959704      -0.11350109
C        4.89135924      11.34317705       7.53998612       0.72128160      -1.05686430      -1.22192063
C        7.34103630      11.32732315       7.57795199       0.44673869       0.87518475      -0.20633926
72
Lattice="14.76 0.0 0.0 -7.38 12.782534959858314 0.0 0.0 0.0 15.0" Properties=species:S:1:pos:R:3:REF_forces:R:3 REF_energy=-11167.053323560529 config_type=fd_force_conv_snapshot_016 split=train degauss_Ry=0.0019000869 kgrid=8 lattice_temperature_K=300.0 pbc="T T T"
C        0.00389500      -0.00595252       7.65534252       0.72544730       0.45732315      -0.23874544
C        2.49297317      -0.02651213       7.32075263      -2.23848546       0.70163863       0.75457635
C        4.85834012      -0.01842692       7.29897769       2.60574955       0.86109382       0.32500055
C        7.34750347       0.00992929       7.46280544      -0.12655355       0.17062149       0.03099388
C        9.81267715      -0.01858942       7.58818431      -0.69248756       0.71418150       0.44118125
C       12.27143426       0.00142104       7.59986453      -0.71574473       0.46262348       0.88041437
C       -1.24893011       2.09026548       7.60027121       0.20017375       0.61884113       0.48494091
C        1.23645004       2.10574628       7.54834066       1.27017150      -0.33362455      -0.35731649
C        3.69636328       2.12358263       7.36099340      -0.19557199       0.14518197       0.31983109
C        6.12854695       2.13209100       7.38455888       0.72810376       0.90747112      -0.30658091
C        8.60575085       2.12980882       7.50905650      -0.92068196       1.96772284      -0.39000781
C       11.01535709       2.15535970       7.52086893       0.46326342      -0.64859523       0.33002654
C       -2.41832089       4.25719881       7.54995804      -0.31938681      -0.91585446      -0.03775768
C        0.06454319       4.22470355       7.57453006      -0.63562298       0.24187190      -0.50712927
C        2.49150247       4.21054634       7.50168728       0.49470313       2.02462418       0.24681459
C        4.91523174       4.28481573       7.40233814       0.23662685      -1.85198900      -0.34835440
C        7.40795035       4.29191722       7.20917645      -0.17423081      -0.44766917       1.68545402
C        9.91159475       4.31703225       7.43224122      -2.70893640      -1.25081983       0.19350894
C       -3.67479253       6.41307363       7.55818555       0.50350993      -0.54639130      -0.45581622
C       -1.23263467       6.35011690       7.53205170       0.46468447       0.52056920       0.23691970
C        1.23874935       6.37712927       7.60968044       0.28030552      -0.08801400      -0.39696676
C        3.69927372       6.40832975       7.47985871      -1.85237801      -1.61503871       0.75367724
C        6.16917128       6.41761614       7.31414859      -1.81780130      -1.77604170       0.46553474
C        8.62854165       6.45218629       7.33196837       0.29994361      -1.97904367       0.05905387
C       -4.91051686       8.52527047       7.44370128       0.14950656       0.55443243      -0.37405874
C       -2.44526505       8.55712311       7.56860554       0.90586855      -0.78055967      -1.16440120
C        0.00488551       8.51095786       7.56754914       0.77486339      -0.71627180       0.02532794
C        2.49632520       8.50736406       7.83037141      -0.97296020       0.34109386      -1.40424039
C        4.91089771       8.52322194       7.58197165      -0.29891311      -0.37146476       0.12478926
C        7.33602147       8.55771933       7.33538114       0.13709636      -1.24364723       0.45424142
C       -6.18699049      10.59530861       7.46392696      -0.16117243       3.43920863      -0.16000618
C       -3.73637390      10.66312924       7.32387232       1.47921041      -0.91345716       0.52938037
C       -1.23179512      10.65653206       7.51367299      -0.41009275       1.19723547      -1.21422712
C        1.24910191      10.63262505       7.69242183      -1.08266737       0.25739211      -0.55463657
C        3.71819618      10.63895631       7.76875366      -1.64941101       0.92650808      -0.44180937
C        6.11747674      10.67023894       7.54829185       0.00256930       1.00628478       0.67294409
C        1.26464069       0.68221708       7.50129503      -0.94017298       0.35509609       0.27251559
C        3.68876062       0.72600480       7.31140187      -0.67064321      -1.48231682      -0.35942557
C        6.11025940       0.71659183       7.34573662       0.17493966      -0.58509258       0.43136066
C        8.56293859       0.73222563       7.56713261       1.15278110      -1.49926656      -0.42561142
C       11.00774458       0.71074976       7.55575374       1.59826637       0.66476901       0.14079618
C       13.52043972       0.66382289       7.73362857      -0.33835075       1.83744427      -1.49723410
C        0.01633644       2.80232114       7.55341748      -0.68443949      -0.03361486       0.54958461
C        2.49898382       2.82669613       7.49327751      -1.98925017      -0.98132863      -0.31244766
C        4.89157667       2.83311083       7.37018706       1.56426482       1.03083445       0.03793740
C        7.39861302       2.88622632       7.40493028      -1.23552357      -1.66902519      -0.61990557
C        9.80251720       2.89366560       7.47760531       1.66229173      -0.90947041       0.12387087
C       12.26588342       2.83098578       7.58153213       1.11669695      -0.31273716      -0.41739392
C       -1.17270274       4.91957937       7.52036097      -0.62273353       1.10900781       0.52435592
C        1.29100396       4.95255166       7.56315134      -1.16766187      -0.39757097       0.05954469
C        3.70506432       4.95972700       7.46054956      -0.63119528       1.02410510      -0.16384741
C        6.13487752       4.96019908       7.29700045       1.73253349       2.01061810      -0.36089521
C        8.65166862       5.00080881       7.34860499      -0.27417858       1.34970755      -0.68225328
C       11.12880408       4.98146378       7.52874748       0.00402275       0.99102811      -0.13602113
C       -2.46027661       7.11255129       7.57372645       0.97405678       0.21151206       0.02266942
C       -0.00419200       7.05785463       7.56488260      -0.12619129       1.08398995       0.16408780
C        2.45325938       7.11782271       7.61577884       1.09820918      -0.86296815       0.50451472
C        4.88896432       7.08508949       7.51407374       2.85321797       1.56051127      -0.93837295
C        7.38426889       7.11450243       7.27722903      -0.31306575       1.44020189       0.27585726
C        9.87798395       7.12552847       7.43954655      -1.20545143      -0.04955364       0.18588999
C       -3.66584531       9.24392041       7.43574901      -1.49884233       0.06235542       0.34043514
C       -1.18132499       9.27027301       7.46070269      -1.74991364      -1.92427814       1.29427533
C        1.24750833       9.18566370       7.70250875      -0.07701919       1.56040277       0.48309460
C        3.71924791       9.24032665       7.75837044      -0.70072743      -1.02277147       0.26307579
C        6.09781234       9.26708522       7.47579110       1.53171337      -0.84516840      -0.21470151
C        8.57423231       9.21557160       7.40256099       0.87460522      -0.41571164      -0.06931257
C       -4.96480331      11.34208526       7.33811964       0.47234816      -0.27136246       0.11940717
C       -2.49710271      11.35756289       7.37811242       0.20189048      -0.20723349      -0.17723051
C       -0.01479669      11.37074065       7.49507216       1.34983790      -0.45530920       0.95339359
C        2.48074211      11.35468034       7.72682476      -1.01530036      -0.56575660      -0.19259928
C        4.87971945      11.38337317       7.64871469       1.61607846      -0.68138039      -0.11791233
C        7.35405201      11.39570467       7.59356098       0.51420675      -3.15710539      -0.72405967
72
Lattice="14.76 0.0 0.0 -7.38 12.782534959858314 0.0 0.0 0.0 15.0" Properties=species:S:1:pos:R:3:REF_forces:R:3 REF_energy=-11166.760808667104 config_type=fd_force_conv_snapshot_020 split=train degauss_Ry=0.0019000869 kgrid=8 lattice_temperature_K=300.0 pbc="T T T"
C        0.01163162       0.00811809       7.48722223       0.98030199       0.10421658       0.45993127
C        2.46844571      -0.01741023       7.25768109      -0.07231639       0.74486401       0.51850460
C        4.90878543       0.01157758       7.43067485      -0.36793823      -0.79296781      -0.07951805
C        7.34018947       0.02165725       7.54253010       2.22329358      -1.79487066       0.23869248
C        9.80849058      -0.01339293       7.72968590       0.24258101       0.59829339      -0.04131223
C       12.27204606       0.00495747       7.69339093       0.23024794      -1.49457481       0.50463427
C       -1.28943884       2.10336520       7.70058986       2.35522974       2.21068489      -1.30719256
C        1.22079705       2.18145279       7.39694499       0.69545744      -1.24616434       0.52420448
C        3.68319748       2.13667679       7.36792118      -0.07512532       0.04582117       0.07289283
C        6.18174100       2.09785760       7.33368359      -1.33508671      -0.25836321      -0.19584761
C        8.62727712       2.12043435       7.40901807      -1.12151957      -1.34906091       0.14232213
C       11.06806798       2.12978731       7.56734415      -0.56569669      -1.08833691       0.65886395
C       -2.48153453       4.26343837       7.46168699       1.13745732       0.86417503       0.33417373
C        0.04908984       4.30304010       7.63442743      -0.93768801      -1.47672827      -0.47638736
C        2.52575923       4.32241702       7.55517190      -1.38952211      -1.47691647      -0.65102286
C        4.91106879       4.21967445       7.30065566       1.90522061       1.61926483       0.87248329
C        7.32928123       4.25265201       7.20912138       1.64333961      -1.35626592      -0.28160110
C        9.81775361       4.19278349       7.21504481       0.40489398       0.48062223       0.49012014
C       -3.68727843       6.35135805       7.25849381       0.35248924       0.31128217      -0.20673032
C       -1.25492953       6.37665327       7.62492086       1.62501485       0.29851562      -0.23431517
C        1.26281315       6.39506901       7.81051600       0.33406472       1.17508593      -0.67659222
C        3.74842248       6.42388841       7.55862575      -0.33500729      -0.26187611       0.46345240
C        6.20755112       6.44530085       7.37830415      -1.96216335      -1.87260257       0.57624901
C        8.63266038       6.36204331       7.12338037      -0.42696330      -0.79826428       0.86749561
C       -4.90302875       8.49200598       7.22218779      -0.41244017       0.10333624      -0.35014877
C       -2.44628005       8.48731961       7.48903447      -1.30097820       0.15769501      -0.72131528
C       -0.00133136       8.51104282       7.86512127      -1.04472972       0.41127392      -1.22597912
C        2.45096230       8.54405495       7.93015344      -0.15236872       0.71290237      -0.60201969
C        4.86850731       8.57384475       7.65754052       2.01175453      -0.40928800      -0.15395560
C        7.37488545       8.55071947       7.36769376       0.16928580      -0.76180810       0.13988061
C       -6.15220055      10.63946284       7.25017782       1.04170919       0.94098236       0.37656146
C       -3.68451066      10.63653684       7.37918409       0.26865997       0.04900677      -0.42635781
C       -1.25338070      10.62483345       7.59354138       0.97481319       1.79837199       0.42390806
C        1.22104113      10.69283916       7.84383431      -1.17738836      -0.99974672      -0.58836893
C        3.64018255      10.66534941       7.84611488       0.42682318      -0.14914147      -0.17650263
C        6.14424816      10.67817318       7.50316202      -0.92280981      -0.02165100       1.00617037
C        1.24999235       0.71477103       7.36260748      -0.78664984       0.92913858      -0.13324176
C        3.68107624       0.70761873       7.34295752       0.02553311       0.47071474      -0.15014008
C        6.14142013       0.66805385       7.40986632      -0.49981114       2.44028106       0.14851617
C        8.59827217       0.70258766       7.58523018      -0.67703445       0.56142429      -0.28451802
C       11.03790097       0.69001643       7.72079391       1.03269156       1.36219822      -0.48600637
C       13.55236932       0.69224877       7.69790348      -2.01159538       0.34843950      -0.67627546
C       -0.00983671       2.85668187       7.53350308      -0.70068835      -0.06543535       0.83439060
C        2.46965972       2.90468380       7.42834668       0.09982051      -1.07493607      -0.16973986
C        4.93350074       2.81284833       7.35830415       0.06190188      -0.14038943      -0.52375377
C        7.38789114       2.80018716       7.24031948      -0.16526357       1.04849818       0.70894519
C        9.84640208       2.78221647       7.46433003      -0.26656966       2.05606080      -1.22529572
C       12.25551844       2.88560714       7.56486068       1.29304300      -2.88133478       0.57181926
C       -1.19861418       4.97422041       7.59783413      -1.49258966      -0.22514430      -0.20888928
C        1.28446870       5.00631837       7.63959697      -0.26275517      -0.25621120       0.52966679
C        3.74803068       4.97193231       7.44422677      -0.75462135       1.67427795       0.36231266
C        6.15289668       4.98057286       7.32945313      -0.97966924       0.47218721      -0.77071671
C        8.58074149       4.89249448       7.08837413       0.75563925       2.16170949       0.74738549
C       11.04182140       4.94121168       7.30576818       0.28887218      -0.31068928      -0.27210422
C       -2.46574863       7.07039852       7.39302477       0.27966789       0.06961622       0.96382250
C        0.00783792       7.07935224       7.78317738      -0.28412207       0.60035722       0.39994410
C        2.52202304       7.14887410       7.79009032      -1.30525754      -1.73919805       0.01971676
C        4.95554288       7.15487006       7.52746589      -0.15195117      -0.23593085       0.04090857
C        7.42898168       7.09796098       7.39453396       0.28705595       1.05306986      -1.57247332
C        9.87015396       7.05740059       7.16483588      -1.00565538       0.84880369       0.00477891
C       -3.68184772       9.19726133       7.31154035       0.38456993       0.53990955       0.64207465
C       -1.25758804       9.21717841       7.65962967       1.23527057      -0.51064037       0.35475156
C        1.18975838       9.26849077       7.86286788       1.23390815      -1.09928184       1.05602380
C        3.66767076       9.27277481       7.87873545      -0.42685583      -1.27591714      -0.44685979
C        6.12294206       9.26824548       7.50382138       0.65780826      -0.43571611      -0.02261774
C        8.61511594       9.23425197       7.22559883      -0.22688931      -0.69518490       0.36346940
C       -4.89021806      11.35464435       7.23347380      -1.27639357      -0.61422600       0.42023627
C       -2.47048164      11.38308058       7.51661532      -0.00847873      -1.59450331      -0.66420902
C        0.00592786      11.38617176       7.65381656      -1.64484679      -0.94678046       0.28876908
C        2.43710740      11.36945328       7.82854297      -0.25394477       0.53627967       0.29183718
C        4.83314697      11.33617286       7.68876341       3.75546538       2.20634487      -0.34621190
C        7.41517456      11.37068479       7.47440677      -1.63250087      -0.29555834      -1.07168902
72
Lattice="14.76 0.0 0.0 -7.38 12.782534959858314 0.0 0.0 0.0 15.0" Properties=species:S:1:pos:R:3:REF_forces:R:3 REF_energy=-11166.996390270522 config_type=fd_force_conv_snapshot_024 split=train degauss_Ry=0.0019000869 kgrid=8 lattice_temperature_K=300.0 pbc="T T T"
C        0.05453463       0.00915779       7.46403994      -0.79797580      -0.34245012      -0.16835995
C        2.50694203       0.03330127       7.32532496      -0.68601892      -0.05210443       1.18199706
C        4.91005537       0.00248851       7.46643173      -0.03915070      -0.80997926      -0.13439310
C        7.33812239      -0.01626324       7.49196626      -0.19833953      -0.29643662       0.16757011
C        9.88524958      -0.01850461       7.67642942      -1.64401504       0.09539333      -0.30920524
C       12.35437913       0.02860382       7.54085164      -1.04125101      -0.34567865       0.32397828
C       -1.24245428       2.16045025       7.33481952       1.21852189      -1.12582565       0.93992924
C        1.25779163       2.13386930       7.38739356      -1.29520324       1.77270492       0.29743010
C        3.68913429       2.19296557       7.42808408       0.57208922      -2.29518651      -0.39105374
C        6.15509303       2.12551634       7.29617790      -0.56633355      -0.18478416       0.46210000
C        8.60641928       2.08961827       7.53642573      -0.46750677      -0.27118042      -1.12238680
C       11.08768684       2.13920555       7.48045903      -1.49706698      -1.19809628       0.34656825
C       -2.47771765       4.27143256       7.48123281      -0.10227077      -0.65964711      -0.46849819
C       -0.01425340       4.29980947       7.51306304      -0.11946837      -1.59891352      -0.48084129
C        2.44264420       4.30341545       7.52864035      -1.43176199      -1.55178006       0.05199876
C        4.88946082       4.28607646       7.43240053      -0.15412966      -0.45721285      -0.17313320
C        7.34773616       4.26596987       7.36201979       0.69829851      -0.09359844       0.61709895
C        9.83445630       4.19670954       7.39984673      -0.34077941       2.55367391       0.48816379
C       -3.70286670       6.38013341       7.41750217       0.14081161      -0.19686963       0.49544104
C       -1.28159277       6.38828703       7.65547512       0.63551140       0.82712157      -1.09437643
C        1.18390725       6.41177853       7.69685128       1.48622670      -0.55086708      -0.73333904
C        3.63225428       6.39590303       7.49874209       1.30260288       0.86284371       0.36931814
C        6.14111926       6.38607869       7.51663942       1.21215738       2.11469224       0.17246703
C        8.65897795       6.35111072       7.48063789      -1.21027405       1.59234075      -0.29367603
C       -4.92633788       8.47629855       7.34612217      -0.37363554       2.08123730       0.27997745
C       -2.52644737       8.48698811       7.53611247       1.37436314       1.17946504      -0.48414901
C        0.03124314       8.49256174       7.60919523      -0.83840023       1.18130389       0.45666160
C        2.53434771       8.55419510       7.76113657      -1.96642418       0.05351366      -1.31885817
C        4.94079890       8.50054192       7.51900946       1.08646669       0.31035812       0.48895903
C        7.40535219       8.51155982       7.49243421       0.41143281      -0.09695476       0.09912785
C       -6.13611802      10.68722409       7.39417850      -0.16000798      -2.72853541       0.24625460
C       -3.73236715      10.64358399       7.47542380       0.43998337       0.55910104      -0.51135617
C       -1.26579389      10.59051353       7.56961922       0.11649000       0.64926423      -0.27145681
C        1.22898535      10.66927839       7.65147896       0.68569856       0.68517251       0.62246279
C        3.76605258      10.66059299       7.73512625      -1.23296789       0.03566737      -0.57121710
C        6.15283492      10.64562612       7.49198763       1.12040628      -1.17511139       0.60106864
C        1.27166780       0.75108297       7.38752488      -0.10116982      -1.97096346      -0.29711231
C        3.73354936       0.73142379       7.42904775      -2.02814968       1.12804220      -0.55403854
C        6.10262396       0.70875580       7.38587965       2.16221985       0.08595943       0.29619571
C        8.57141337       0.63921782       7.56275789       2.09693389       1.93921856       0.25935849
C       11.08968636       0.72501174       7.58871477       0.82048427      -0.45245245      -0.18873517
C       13.57857136       0.72920256       7.46373618      -0.16580530       0.15529386      -0.51289137
C       -0.00118762       2.84827164       7.38019937       0.23328596       1.11034247       0.19303508
C        2.45942379       2.87245149       7.45894048      -0.00017355       0.52815138      -0.12868911
C        4.92435006       2.84066076       7.33481451       0.00389214       1.99231699       0.54889196
C        7.38951375       2.82418148       7.35304893      -0.34252853       0.36715019       0.36783205
C        9.83284394       2.81145260       7.47511265       0.24015595      -0.68618475       0.17808438
C       12.27853695       2.82575491       7.42536513       1.19072390       2.02997465      -0.22705309
C       -1.25706501       4.99107146       7.47885907       0.10703451      -0.36252015       1.16038822
C        1.20357815       4.99227873       7.61711376       0.20754716       0.37336429      -0.23897787
C        3.63100442       4.98946495       7.50070904       2.13698319       0.04212213      -0.18879199
C        6.10928599       5.00865379       7.46889264       0.86659418      -2.08669190      -0.68131714
C        8.60371087       4.95691674       7.41271907       0.02094472      -1.56446331      -0.07348778
C       11.05659313       4.97570803       7.47578495      -0.35608879      -1.58555253      -0.58486683
C       -2.51354853       7.10466910       7.54386081       0.88798756      -1.51806801       0.03895761
C       -0.02151081       7.08973398       7.65628806      -0.70201066       0.19887200       0.42210675
C        2.42809763       7.12967089       7.59989413       0.41360231       0.28188135       0.94721343
C        4.90249757       7.10032169       7.49918438      -0.19951812      -0.93376553       0.01048496
C        7.45751349       7.11354901       7.55400423      -2.60564568      -2.25695601      -0.59332036
C        9.86140173       7.08959763       7.38696573      -0.73466367      -0.98919852       0.10857383
C       -3.72181608       9.23248825       7.39335458      -0.00581738      -0.73202752       0.67830586
C       -1.25199239       9.13082564       7.55922454       0.39267327       2.85410397       0.30625901
C        1.26424611       9.28173134       7.70164475      -0.22377468      -2.42491461      -0.05046664
C        3.77640554       9.24666247       7.65378362      -1.68058513      -0.14112580       0.55024410
C        6.18450729       9.18755556       7.53081744      -1.21140148       1.79332234      -0.49510474
C        8.60824955       9.20997893       7.39621220       1.25849792       1.55433239      -0.04372855
C       -4.92913749      11.39800334       7.39817234       0.54550196      -0.19172871      -0.30015855
C       -2.51171682      11.35210416       7.52819638       1.60658209      -0.80165171      -0.09401676
C       -0.02912528      11.35668207       7.57704935      -0.37257419      -1.24668961      -0.07688190
C        2.51349512      11.34992796       7.74839510      -0.70045386       0.27571070      -0.44795816
C        4.95666404      11.38693088       7.59108764       0.36548154       0.03806955       0.10203937
C        7.39803122      11.32304843       7.48936326      -0.46484491       2.67408536      -0.57264638
72
Lattice="14.76 0.0 0.0 -7.38 12.782534959858314 0.0 0.0 0.0 15.0" Properties=species:S:1:pos:R:3:REF_forces:R:3 REF_energy=-11167.114330530756 config_type=fd_force_conv_snapshot_028 split=train degauss_Ry=0.0019000869 kgrid=8 lattice_temperature_K=300.0 pbc="T T T"
C        0.00204547       0.00837602       7.55048135      -0.61012381      -1.51334206       0.20297780
C        2.44199130      -0.02387329       7.43725651       0.20852135      -0.64509595       0.37702554
C        4.89853980       0.02848175       7.50631170       0.64187230      -0.00781692      -0.57109009
C        7.41992221       0.01911045       7.44026439      -1.39613936      -0.35140398       0.01198751
C        9.87503600      -0.04289854       7.24241391       0.35532826       0.96116526       0.76272444
C       12.29630745      -0.02966887       7.32439094       2.00171000       1.14190379       0.00765726
C       -1.21529632       2.17328129       7.43326535      -1.13741670      -1.60896705       0.78675551
C        1.22710070       2.15369031       7.46895477       0.14846270      -1.29115684       0.61370510
C        3.64126735       2.12183303       7.38244131       0.52652413       0.27726699       1.14168036
C        6.14419103       2.12244900       7.59523940       0.41646729       1.09848377      -0.42751532
C        8.62365654       2.11884313       7.55842191       1.27553405       0.07982144      -0.34230202
C       11.06292395       2.13782097       7.46332749       1.76252361      -0.68795367      -0.47256002
C       -2.49627056       4.27299971       7.56061715       0.73845091       0.52879724       0.04906796
C       -0.01267823       4.26437460       7.44610612       0.00931948       1.62365242      -0.22926424
C        2.43093518       4.27598958       7.51061739       0.95347432       1.04223523      -0.61405297
C        4.88448254       4.20872184       7.62950777       0.51693752       0.53403767      -0.14819119
C        7.35793019       4.26650238       7.63190690       0.09406638      -0.60223746       0.32169746
C        9.84414576       4.28753610       7.61497967       0.04011332      -0.88105072      -0.06394719
C       -3.65563673       6.40946665       7.68131404      -3.43042214       0.37606035      -0.45992562
C       -1.25739740       6.39569179       7.44294266      -0.75092282       0.46938933       0.21370341
C        1.18147282       6.41362443       7.44666368       0.04071059       0.21929145      -1.33345303
C        3.66925951       6.38085082       7.49277764       0.05909809       0.14796082       0.21131845
C        6.08627972       6.37653820       7.60126532       1.49692583       1.11435056       0.30799759
C        8.60244413       6.37102809       7.60569576      -0.02133219       1.64315783       0.97036904
C       -4.89734390       8.53323702       7.65536993      -1.68816937      -0.94574790       0.20772200
C       -2.45970734       8.54082607       7.55314621      -0.08271033       0.23324842       0.15732066
C       -0.00355122       8.55151805       7.36391175      -0.89670077      -0.85604983       0.18459055
C        2.46134772       8.48342578       7.45467402       0.60009291       0.77902677       0.08740260
C        4.92305010       8.51266265       7.43324581       0.19412729       0.78756541       0.30485442
C        7.36923483       8.52665965       7.60896661       0.86420279      -0.09284099       0.05147323
C       -6.09643160      10.63113520       7.61718658      -1.93215909       0.19194416      -0.00668872
C       -3.66047516      10.66692297       7.62566235       0.53702709      -1.53668074      -0.28545724
C       -1.18269285      10.68954761       7.47509989      -2.14419899      -0.31013546       0.44252876
C        1.27603875      10.61829649       7.32862361      -1.22311645       0.37624032       0.41818736
C        3.72998320      10.63213761       7.30202143       1.52088902      -1.03297283       0.23266504
C        6.17657822      10.61151041       7.44096436       0.64257987       2.11817609       0.08161633
C        1.23144242       0.70552647       7.54657300      -0.25899313       0.54188519      -0.88693546
C        3.63856831       0.70328912       7.34642406       1.18026002       0.07340808       0.96871839
C        6.16287470       0.75784464       7.49648610      -0.22163346      -2.89283841       0.20734919
C        8.64687345       0.68893631       7.43365665       0.52080291       0.38354277      -0.42711526
C       11.11675457       0.71642403       7.26837068      -2.51036599      -0.91286066       0.58104052
C       13.51602276       0.69531440       7.47306049       0.87024669       1.71270309      -0.46315724
C        0.02616239       2.86765351       7.48778241      -1.58348124      -0.65175408      -0.43436654
C        2.42805888       2.87096459       7.50648113       0.70323939      -0.68870598      -0.91163168
C        4.88257015       2.78639659       7.57247285       0.22149771       1.01705153      -0.38260792
C        7.40674959       2.82054982       7.60721592      -1.39351992       1.14040792       0.20776828
C        9.88408462       2.84478566       7.55326805      -2.60939126       0.60644687       0.08621706
C       12.27755183       2.87473590       7.49614681       1.19506700      -1.13071821      -0.26019513
C       -1.26392689       4.97981075       7.51722868       0.95585877      -0.32130459      -0.49485508
C        1.21509984       5.01376565       7.35242496      -0.63898238      -1.38129072       1.67653924
C        3.71222676       4.96326913       7.54395007      -2.44684200      -0.35177268       0.01727164
C        6.08537019       4.96347981       7.66408833       1.60990601      -0.70881637      -0.33731408
C        8.59783953       4.96701637       7.63577232      -0.21982161      -0.32100634      -0.23010756
C       11.06544097       5.00908336       7.61138114      -0.23935813      -0.84869904       0.27035638
C       -2.49506253       7.12273280       7.58309225       2.66509549       0.32318690      -0.43019981
C       -0.06417611       7.13014840       7.31419036       1.60776763      -0.48415287       1.21480973
C        2.43409810       7.07944510       7.47284135       0.00491621       0.05734254      -0.01806714
C        4.87275759       7.12907888       7.50420781       1.15869669      -2.00480072       0.16457683
C        7.37930395       7.10540791       7.66863547      -1.58225457      -0.96930846      -0.92173868
C        9.82371025       7.11616853       7.66001127       1.27581481      -0.93618931      -0.03733319
C       -3.69939935       9.22543846       7.63882496       1.98344977       1.20474387      -0.06945527
C       -1.22236355       9.27099875       7.45303228      -0.12145531      -0.32602719      -0.04414456
C        1.24192488       9.19838599       7.41700467       0.18173097       1.04549333      -0.57484673
C        3.71144252       9.20139784       7.45456935      -1.00291304       0.87461602      -0.93300346
C        6.15193450       9.24331874       7.45244120       0.17943703      -2.46390976       0.51098773
C        8.62629475       9.23372870       7.66070824      -0.46377739      -0.64623650      -0.26894536
C       -4.86942308      11.30545622       7.53697533      -1.69548955       3.03592647       0.31556512
C       -2.45198621      11.39422765       7.59965415       1.12741999      -0.00229728      -0.71916609
C        0.01890645      11.37675863       7.38415827       1.87352508      -0.06440228      -0.02858013
C        2.51588298      11.29306637       7.27519841      -1.08783503       2.26095202      -0.26068852
C        4.99890263      11.35435769       7.28819251      -3.01083199      -0.98137928       0.41063397
C        7.38879686      11.32350893       7.59744180       1.44066701       1.43044096      -0.68995990
72
Lattice="14.76 0.0 0.0 -7.38 12.782534959858314 0.0 0.0 0.0 15.0" Properties=species:S:1:pos:R:3:REF_forces:R:3 REF_energy=-11167.00450388885 config_type=fd_force_conv_snapshot_033 split=validation degauss_Ry=0.0019000869 kgrid=8 lattice_temperature_K=300.0 pbc="T T T"
C        0.01323145       0.02399848       7.47637111      -0.65110822      -1.36786056      -0.29631604
C        2.44488155       0.01213678       7.73453054       0.06509905      -1.35013692      -1.23534154
C        4.93618112       0.00829503       7.58900633      -1.37551834      -0.43460745       0.16903281
C        7.33143289       0.01923502       7.33251537       2.99130472      -0.62435975       0.44895498
C        9.80783103       0.00771942       7.25304514       2.13972322       0.72975775       0.65972450
C       12.33171924       0.01945419       7.31704163      -0.32768144      -0.66784893      -0.18779620
C       -1.24542172       2.16689296       7.47062209      -0.70098942      -0.28055595      -0.41019123
C        1.18473757       2.13777858       7.51363080       0.08543210      -1.51277437      -0.14185290
C        3.69804105       2.15323090       7.72425298      -2.43732172      -0.48381117       0.01783369
C        6.14876014       2.13092364       7.79801115       0.99368663       1.10886049      -1.12141775
C        8.64749625       2.13698813       7.61056318      -1.71083904       0.28756812       0.32173011
C       11.10206437       2.14807570       7.55250581      -1.21591865      -0.36314775       0.15646937
C       -2.50647081       4.28613823       7.61436606       1.17856232       1.08143967       0.18957335
C       -0.03751263       4.26101014       7.38276592      -0.74496403       0.24654051       0.22638563
C        2.40934971       4.25933768       7.40707194       0.30488193      -1.38627532       1.15408516
C        4.87875600       4.24300806       7.69250983       1.37478377       1.66360659      -0.21608811
C        7.36298634       4.26454125       7.72895220      -1.16587547       0.84414665      -0.24653177
C        9.79204771       4.24181199       7.79021281       1.56582394      -0.43355356      -0.20054013
C       -3.68460573       6.41057992       7.74306034       0.03701926      -0.80550888      -0.59083848
C       -1.25834973       6.43271818       7.34207102       0.91970700      -1.39399968       0.86586167
C        1.20568666       6.37249354       7.19730228      -0.38630388       0.17929948       0.60950417
C        3.66086973       6.33198708       7.37639180       0.94719029       1.37230420       0.48342524
C        6.18626579       6.40162341       7.61903395      -1.62784614      -0.94806755      -0.49253441
C        8.62252208       6.35244368       7.78169844       0.58242197      -0.08870717      -0.03238921
C       -4.89994926       8.53255379       7.77763593       0.22193068      -1.01285704      -0.47650023
C       -2.42970714       8.54177420       7.50389891      -0.92751672       0.03020481      -0.06436268
C        0.01473988       8.53641907       7.21640036       0.58666224      -0.88201797      -0.72313922
C        2.48716208       8.52869592       7.20564207       0.23528036      -0.79273230      -0.64932388
C        4.95298050       8.48808922       7.40413471      -1.43843169       0.42285185      -0.53095337
C        7.38760296       8.46876755       7.68265691       1.13791832       1.28129666       0.05606188
C       -6.15769497      10.60397512       7.58562965       1.17205897       2.18455451       0.87859172
C       -3.66158074      10.65502522       7.57739206      -1.42497299       0.44299748       0.41964029
C       -1.22628408      10.64256949       7.27669415       0.44733441      -0.05911275       0.54558063
C        1.25197292      10.66543885       7.16332026       0.20400289      -0.65512917      -0.61813074
C        3.73800363      10.65952717       7.18257238      -0.53362398      -0.06937942       0.03588334
C        6.20860463      10.61914623       7.37106890      -0.97360940       0.22902359       0.92911646
C        1.23010415       0.67990466       7.54712814      -0.28799209       2.36151712       0.74328356
C        3.65425499       0.72698972       7.72532625       2.45824922      -0.14201565      -0.04519202
C        6.15881227       0.73370663       7.54571210      -1.35051667      -0.30976677       0.55603243
C        8.61823819       0.73725294       7.40642996      -1.79873760      -0.94728234      -0.39639700
C       11.07149262       0.74013919       7.37577330       0.43885569      -1.30042670      -0.34383851
C       13.55388886       0.75895468       7.34442088      -0.92719328      -1.14952325       0.95484961
C       -0.04244364       2.84197959       7.44086683       0.89606365       0.83435306       0.16905183
C        2.37698156       2.83434823       7.57788977       3.14135045       0.73947138      -0.13266789
C        4.92483634       2.85806243       7.80379000      -0.50769157      -1.31235430      -0.34472374
C        7.38346205       2.88886517       7.72936558       0.03184928      -3.21402113       0.05566464
C        9.86000083       2.82095554       7.70158498      -0.13714084       0.61822947      -0.45952016
C       12.28880807       2.89548808       7.57040060       0.70117300      -1.52434896      -0.27118145
C       -1.24875957       5.02053439       7.49178044      -0.94552653      -1.37622693      -0.71345310
C        1.18522629       4.93363560       7.28999187       0.66505054       1.86605680      -0.12427967
C        3.65526776       4.93185060       7.57116791      -0.75097295       0.51686604      -1.24331530
C        6.11602460       4.99246822       7.61084716       0.67085455      -1.24169216       1.25673517
C        8.58907221       4.93041776       7.75739729       0.05252944       1.40108513       0.30051491
C       11.01261350       4.96115955       7.74402504       1.17468458       1.44338595      -0.09393037
C       -2.42885020       7.13496283       7.53288986      -2.61382795      -0.31877360       0.37658305
C       -0.03401423       7.09955392       7.23581931       1.72606640       0.94748365      -0.35458367
C        2.44165104       7.08507991       7.26355261       0.46215039      -0.23159520      -0.34836982
C        4.92279645       7.05824307       7.43325872       0.11070527       0.67276925       0.56100828
C        7.43582547       7.06841135       7.73639695      -2.07446013       0.48444906      -0.35896020
C        9.83032909       7.07976154       7.76681436       1.31091551       1.19180813       0.52570858
C       -3.67506537       9.26063841       7.65124461       0.54092617      -1.47316678      -0.27549807
C       -1.21492741       9.22214591       7.28526475       0.03593579       0.80411251       0.26056331
C        1.28114056       9.23177147       7.08377040      -1.78434405       0.37996894       1.21299016
C        3.71995730       9.24398353       7.21895860       0.58216306      -1.08374518       0.49344843
C        6.16912984       9.19369716       7.51091435       0.80847310      -0.18980064      -0.34168598
C        8.63876522       9.20500907       7.72353980      -1.58188922      -0.10663162      -0.42953955
C       -4.92135647      11.35653159       7.63227157       0.21944108      -0.18544082       0.27688287
C       -2.43819872      11.33731618       7.49063375       0.20282944       2.07083719      -0.30212648
C        0.00800520      11.34677905       7.23935124      -0.61273528       1.60223333      -0.21158713
C        2.47848065      11.37078607       7.15075764       0.25035963       0.27503630       0.22333502
C        4.98702346      11.32825866       7.27139499      -0.84525608       1.93013588      -0.16885411
C        7.39306729      11.36707422       7.54468898       0.18935506      -0.52499587      -0.94015524
72
Lattice="14.76 0.0 0.0 -7.38 12.782534959858314 0.0 0.0 0.0 15.0" Properties=species:S:1:pos:R:3:REF_forces:R:3 REF_energy=-11167.03627726122 config_type=fd_force_conv_snapshot_037 split=train degauss_Ry=0.0019000869 kgrid=8 lattice_temperature_K=300.0 pbc="T T T"
C        0.00075375      -0.03488211       7.56565685      -1.44292623       2.85748600       0.06657383
C        2.40489422      -0.00711026       7.61974853       1.87608127       2.06107626       0.19955334
C        4.95402447       0.02702987       7.62445386      -1.58496811      -0.42616035      -0.75080917
C        7.40954368      -0.00994818       7.49233652      -0.81904214       1.91717495       0.05786730
C        9.86614139      -0.03957158       7.50738461      -1.96814090      -0.13408586       0.01008155
C       12.29123431      -0.01102301       7.54192967       0.17733284       0.68109705      -0.20775156
C       -1.25158339       2.14062352       7.52155065       2.00893043      -0.52841646      -0.57366917
C        1.18432637       2.09893356       7.56949555       0.78664958       2.25296463      -0.19934406
C        3.64404477       2.08984132       7.51497169       0.82011275       1.24064006       0.05604182
C        6.16941306       2.17142179       7.45662824       0.15531160      -2.74716999       0.83745047
C        8.66261225       2.14783907       7.55756196      -1.32487866      -0.03188194       0.22449793
C       11.07015418       2.12869920       7.50334106       0.89096926       0.72710335       0.26818174
C       -2.40075510       4.29104911       7.35964826      -2.62715501      -1.18031453       0.68881679
C        0.03686018       4.27799118       7.47719946      -0.29487314      -1.29614530       0.60102905
C        2.49386220       4.28422722       7.48322479      -2.25485593      -1.80371706       0.51417024
C        4.95397601       4.23634465       7.52293947      -1.67733808      -0.31207459       0.24915661
C        7.34032701       4.26458543       7.63745256       3.27480330       0.28243620      -0.37360366
C        9.82948812       4.31366398       7.50061053       0.38098350       0.31821772      -0.05578934
C       -3.71089367       6.42839348       7.37854078       0.74676457       0.27188413       0.59651599
C       -1.27038358       6.39779828       7.46367316       1.49434855       0.02068067      -0.20679100
C        1.20703528       6.39159164       7.45606174       0.18421029      -0.37643701      -0.31749576
C        3.67824622       6.34238574       7.41221767       0.37498820       1.67395528       0.06724052
C        6.18131799       6.36620982       7.64130151      -1.43318895       0.33245958      -0.18971682
C        8.62742878       6.43562170       7.70598048      -0.96425419      -0.14045602      -1.29583085
C       -4.92206685       8.54550280       7.50219325      -0.55056009       0.16935908       0.11471285
C       -2.46020797       8.55656673       7.45770951       0.62932301      -0.25375785      -0.00982984
C        0.01890886       8.48266243       7.37168298      -0.90239319       1.44940696       0.11676665
C        2.42778565       8.50152210       7.30064588       1.93719896      -0.60793606      -0.55337339
C        4.93121875       8.46391025       7.41260692       0.60732028       0.40112475       0.37824013
C        7.38078136       8.51028523       7.57395070      -0.55809497      -0.06229346       0.41882088
C       -6.13826131      10.67572347       7.54291822      -2.11068929      -1.18225391       0.33949643
C       -3.71037045      10.67825254       7.56486360       1.51725554       1.02751207      -0.21927036
C       -1.23311676      10.67349534       7.50802733       1.50949338      -0.86737014      -0.15994396
C        1.20836634      10.61752399       7.36057756       0.30452274       0.98617207      -0.17535695
C        3.74157854      10.58840375       7.38565045      -3.45769229       1.04313281      -0.09208817
C        6.12612334      10.64489127       7.47872444       1.01561095      -0.54810469       0.48089065
C        1.20473012       0.72134062       7.63595202      -0.27191421      -2.01114260      -0.49473630
C        3.66212124       0.69097883       7.58989662       0.30002177       0.11177228       0.13136743
C        6.15243646       0.72449994       7.51813713       1.57281014       0.42478249      -0.00937373
C        8.63853020       0.70943313       7.53371061       0.43336227       0.07756838      -0.30750342
C       11.04597410       0.70376548       7.56622464       1.60943216      -0.16965861      -0.52636035
C       13.52593664       0.72500765       7.52078040      -0.32124443      -1.67394834       0.52326115
C       -0.00715258       2.84214007       7.49319692      -0.43746060       0.42781511       0.35846552
C        2.40183890       2.83686892       7.51342811       1.94790041      -0.07858808       0.10278371
C        4.93650707       2.79213504       7.49252972      -1.84875636       2.12216361      -0.06787250
C        7.39007413       2.85687098       7.55291871       1.08671943      -0.00903846      -0.15682521
C        9.87897183       2.88809851       7.57124264      -1.01355509      -0.64242046      -0.66957774
C       12.33615511       2.83321127       7.42522982      -2.55655560       1.54238088       0.23850993
C       -1.19270660       4.96260151       7.47014036      -0.77628032       1.40439800      -0.60193382
C        1.24967113       4.98854994       7.56195227       0.30786441      -0.45765996      -1.06057003
C        3.70177977       4.96525509       7.48087643       1.17002163      -1.42394224      -0.08531949
C        6.15590910       4.95036002       7.65082961      -0.82565399       0.38263466      -0.37553918
C        8.58821168       5.04448295       7.57065421       0.35969116      -2.48187045       0.96454858
C       11.06195815       5.03370002       7.38826052       1.14625024      -1.80466271       0.01546904
C       -2.46681110       7.13388809       7.42124071      -0.67448649      -0.19300706      -0.17689293
C       -0.02735860       7.09334778       7.41168739       0.16225229      -0.55785560       0.32926498
C        2.43167010       7.06030273       7.32376836       0.76552540       1.13103368       0.66614043
C        4.93206669       7.03543136       7.48660894      -0.13182534       1.13665565      -0.14145027
C        7.37111599       7.11173674       7.67348103       0.77603092      -0.46411215       0.09541878
C        9.83900145       7.13032625       7.52439675       0.06757528       0.45690097       0.09238334
C       -3.69568184       9.27891105       7.44637263      -0.19687451      -0.50748743       0.64269789
C       -1.19498639       9.21712095       7.49458430      -1.19446100       1.14496495      -0.63596468
C        1.23286973       9.21508908       7.27856272      -0.78141996      -0.65906630       0.63360904
C        3.70205224       9.18670658       7.30700915       0.10484676      -0.55882490       0.43386723
C        6.18368718       9.21248373       7.53099753      -2.77717837       0.21534223      -0.83218176
C        8.56988348       9.21437781       7.56165196       2.92552768       2.12551839      -0.27621464
C       -4.93447513      11.40946995       7.60318981      -0.22334222      -2.78190560      -0.26208823
C       -2.42274692      11.39056564       7.57674206      -2.01426752      -0.66836804       0.24863056
C        0.01128143      11.39209878       7.43502792      -0.60224492      -2.02735727       0.24950191
C        2.42491530      11.30075159       7.38981320       2.92583055       0.75496588       0.35196063
C        4.90877946      11.34315074       7.49099269       0.52664497       0.28937303      -0.25840564
C        7.34097198      11.37560668       7.53445191       1.73805288      -1.79266363      -0.04451068
72
Lattice="14.76 0.0 0.0 -7.38 12.782534959858314 0.0 0.0 0.0 15.0" Properties=species:S:1:pos:R:3:REF_forces:R:3 REF_energy=-11166.905677176755 config_type=fd_force_conv_snapshot_041 split=train degauss_Ry=0.0019000869 kgrid=8 lattice_temperature_K=300.0 pbc="T T T"
C       -0.01662699      -0.01776537       7.59055777      -0.12908429       1.17426267      -0.35188915
C        2.46267667       0.02047363       7.42393635       1.01746831      -0.15850183       0.35209664
C        4.91568412       0.00890388       7.44400064       2.07870014       1.01815814       0.49280617
C        7.37792098      -0.03022332       7.56098578      -0.02637232       0.53379161       0.15649071
C        9.82813899      -0.01894104       7.52933974      -0.40402109      -0.80276114       0.76187289
C       12.26310943      -0.02684141       7.57152480       0.56386401       0.98643664       0.14700745
C       -1.22099282       2.11892863       7.47486349      -0.79886232      -0.70349779       1.31557795
C        1.24246516       2.12145191       7.44929712       0.04892372       0.75708421       0.95480796
C        3.71145365       2.15064465       7.42561098       0.94356632       0.69780691       0.55158879
C        6.23427839       2.13644087       7.45563240      -1.88094194      -0.30529922       0.30854909
C        8.61950844       2.11545429       7.44879042       0.41948782      -1.63350643      -0.20609912
C       11.05030570       2.09889066       7.40817940       1.01779767       0.81613139       0.57506759
C       -2.47170352       4.25607645       7.57636231       1.45479008      -0.50280982      -0.38368058
C       -0.00834144       4.18098173       7.54063247       1.42714866       4.15155565       0.31064197
C        2.47702834       4.27027679       7.51529937       0.97053616      -0.92280466       0.05607036
C        4.99743125       4.27382801       7.47481161      -0.71864210      -0.87663408      -0.34449774
C        7.42978435       4.26563097       7.23865525      -1.37156295      -0.70160854       0.99757209
C        9.83744312       4.29731982       7.34844996       1.63437829      -2.53062783       0.27038209
C       -3.65056008       6.41573239       7.51865632      -2.30493433      -0.64793934      -0.42266622
C       -1.21221889       6.42709945       7.51717015       0.45926844      -1.41981562       0.84142385
C        1.21397569       6.38416185       7.57821564      -0.01228319      -0.76637258       0.14332332
C        3.70863206       6.36354574       7.54620332       0.23180629       0.44080330       0.05334345
C        6.15059200       6.43874495       7.27669539       0.89836761      -1.01809155       0.36492079
C        8.64068534       6.41415553       7.23791501      -1.15487346      -0.47652980       0.06518646
C       -4.99276826       8.56146574       7.41618543       1.80469870      -1.67742318      -0.39739510
C       -2.46645143       8.52638120       7.42476350      -0.57137471       0.73591066       0.25978118
C        0.01972042       8.57659432       7.58036836      -2.41322020      -1.35923888      -0.41121993
C        2.45040808       8.46485638       7.78455957      -0.38304938       0.29387452      -0.71864005
C        4.91668819       8.53948572       7.57352722      -2.47711854      -1.13139621       0.41073604
C        7.31488418       8.56007259       7.33595845       1.25871929      -0.51742654       0.25968708
C       -6.18848243      10.67425472       7.48509619       0.26559778      -0.40232237       0.09162049
C       -3.71325785      10.64233762       7.40379167       1.08789674       1.31236022       0.01151623
C       -1.22386964      10.64988150       7.57158504      -0.51878357       1.41548279      -1.33246419
C        1.20665248      10.62610783       7.73269200       0.03314666       0.41502284      -0.43650904
C        3.63333320      10.65981770       7.80919287       1.58857717      -1.82077993      -0.50988267
C        6.10505679      10.64534755       7.58438318      -0.27714898       0.59701838       0.81981398
C        1.25484186       0.72248919       7.48001488      -1.75001597      -1.24730822       0.08337265
C        3.72293998       0.76205810       7.41344836      -1.46605331      -2.21530002      -0.16249809
C        6.19882994       0.72616832       7.54675272      -1.85528799      -0.90710628      -0.79766470
C        8.59092669       0.64919198       7.53617316       1.41797985       2.27429090      -0.41105975
C       11.05613151       0.70013682       7.44355927      -0.66514387      -0.99736100       0.57466007
C       13.48689449       0.68669297       7.58146867       1.61392876       0.33109510      -0.65481421
C        0.00680171       2.83739714       7.55549393      -0.06471775      -3.11956523      -1.00159998
C        2.46592498       2.83496153       7.50590692       0.43841397       0.59748838      -0.75275216
C        4.98718553       2.83534134       7.46284336      -0.42488071       0.75617610      -0.17934242
C        7.44130838       2.83567497       7.39159399      -0.93995598       1.25910598      -0.28940363
C        9.82652175       2.80537840       7.39459318       1.07379835       2.04714962      -0.10046380
C       12.30780175       2.80383821       7.54448485      -0.94284384       1.22684712      -0.97625327
C       -1.19840393       4.94468082       7.57734295      -1.43650362       1.23922133      -0.26075717
C        1.25116202       4.93471166       7.53542398      -1.64106033       0.98185468       0.02940416
C        3.74971133       4.95806328       7.49134895      -0.91258324       0.01091125       0.27715695
C        6.20240558       4.99843731       7.36721015      -0.01478410       0.11790462      -0.82753835
C        8.62944729       4.94678692       7.24890030       0.31744999       2.94847966      -0.21689929
C       11.09275541       4.99624626       7.46324546      -0.99788987      -0.40834877       0.31065225
C       -2.45868350       7.10385511       7.56752529       1.41003951       1.21921738      -0.96859524
C        0.01044994       7.17827040       7.56244245      -0.41293742      -2.67442397      -0.22901793
C        2.45102362       7.02971272       7.65971737       0.71274553       1.58435773      -0.07425603
C        4.93004375       7.12030309       7.46930703      -0.51702802      -0.28915038      -0.09660303
C        7.38731698       7.15609432       7.17752862      -0.26186120      -0.84448680       0.85596164
C        9.84061014       7.11310521       7.40755423       0.28213255       0.58973959      -0.18275041
C       -3.74488135       9.24190382       7.36700539       1.36332642      -0.41661101       0.70061327
C       -1.23811690       9.27161887       7.44719074      -0.05631950      -1.88975620       0.98840353
C        1.21567751       9.20516265       7.70515039       1.96170955       1.21119811       0.66266430
C        3.65259081       9.20429306       7.75289610       0.68154725       0.86225827       0.22170057
C        6.08709339       9.23815765       7.54578468       1.90128708       0.64800053      -0.82119904
C        8.56150763       9.24815784       7.40960090      -0.79530160       1.05090216      -0.06380141
C       -4.93791269      11.36468705       7.46747836      -0.07096656       0.60901412      -0.42077877
C       -2.42332374      11.38181529       7.44334198      -2.51426378      -0.86152885       0.26508948
C       -0.00695710      11.36193528       7.57834818       0.39651347      -1.45632065       0.82736326
C        2.42134990      11.32960661       7.76738604       0.17947457       1.64874176      -0.73418365
C        4.89185658      11.36183312       7.69933097      -0.97809547      -0.86918071      -0.24571904
C        7.32457368      11.36077978       7.57871779       1.20568129       0.01218163      -0.38603186
72
Lattice="14.76 0.0 0.0 -7.38 12.782534959858314 0.0 0.0 0.0 15.0" Properties=species:S:1:pos:R:3:REF_forces:R:3 REF_energy=-11166.607765313513 config_type=fd_force_conv_snapshot_045 split=train degauss_Ry=0.0019000869 kgrid=8 lattice_temperature_K=300.0 pbc="T T T"
C       -0.05894582      -0.00526141       7.39128933       2.77350580      -0.36159583       1.28645455
C        2.40973223       0.03051674       7.26478933       1.65499879      -1.11694635       0.12242051
C        4.92149959      -0.00876308       7.34701201      -0.08852308      -0.69084385       0.16674504
C        7.36470042      -0.00264362       7.52830370       0.34621292       0.13771806      -0.44530864
C        9.83248325       0.00670674       7.66093169      -0.47448732       0.52424048      -0.40097151
C       12.34018087       0.01977753       7.59691102      -3.79041618      -1.74675401       0.90447810
C       -1.19402328       2.13088177       7.61691101      -0.40922963      -0.14468832       0.45566659
C        1.22932281       2.17802243       7.44736602       0.73256488      -1.45155974       0.52277726
C        3.67825601       2.09773128       7.30915981       2.42584637       1.63838664       0.05680647
C        6.16774709       2.12411730       7.23419959      -0.59679547       0.44575678       1.05752610
C        8.65667913       2.09881783       7.42188654      -2.47973464       1.28703022       0.22576600
C       11.09141811       2.12831418       7.64751762      -0.62268339      -0.25311919      -0.28212715
C       -2.42292782       4.22586039       7.47508422      -0.78484698       1.22962752       0.79883558
C        0.02526082       4.29622412       7.58878610      -0.31099652      -1.37207974       0.39041224
C        2.46853314       4.22995481       7.54522105       2.16793002       1.74365377      -0.78926002
C        4.96049362       4.30012929       7.33076217      -1.35986880      -1.67470681       0.51310812
C        7.42835974       4.23604068       7.25941196      -1.92547833       1.10238285       0.26464905
C        9.85383769       4.27801728       7.30653093      -0.72685755      -2.46772502       0.36764795
C       -3.70404330       6.33044257       7.35724535       2.25048223       2.10517145      -0.32716491
C       -1.18033959       6.38120947       7.62203839      -2.64733740      -0.39477206      -0.09913891
C        1.22199021       6.38967977       7.73507954       1.29429976      -0.27465732       0.13659088
C        3.71681267       6.45426106       7.61024730      -2.04449675      -2.69887850      -0.21484035
C        6.17241178       6.44010824       7.44498600      -0.21546410      -2.77743805      -0.08064959
C        8.59679081       6.39278551       7.20052827       1.61661839      -1.32582251       0.70303242
C       -4.92392750       8.49463939       7.34110169       1.82131343       0.69672319      -0.18099538
C       -2.47539564       8.50896577       7.55496464       0.52768164      -0.73125388      -0.19477341
C       -0.05723178       8.48791856       7.89809498       2.12125730       0.80825816      -0.64703431
C        2.37972447       8.58637460       7.77443915       3.05846862      -1.93385473       0.59688546
C        4.94240200       8.54798593       7.57977247      -1.21444361      -0.24351715       0.32651288
C        7.42102741       8.50801383       7.39623553       0.08635410       0.90295729       0.30909314
C       -6.15074461      10.65290181       7.36830535       0.09814235       0.43802702      -0.88139396
C       -3.67859438      10.64342604       7.36423216      -1.74647787       0.50194156      -0.11267680
C       -1.24630865      10.62813104       7.67265437      -1.26625777       0.04100087      -0.47976117
C        1.14204187      10.67616866       7.80995007       1.52077949       0.39120697      -1.19087199
C        3.61690611      10.66715131       7.66906999       0.65924731       1.30500429       0.05959971
C        6.10037295      10.66263620       7.53253343       1.24395525      -1.22040085      -0.53796606
C        1.19963626       0.73500621       7.42781099      -0.57791791       0.07513021      -1.19798675
C        3.69712043       0.71003086       7.27910784      -1.12878911      -1.08112163      -0.09181178
C        6.16410807       0.67541094       7.33326663      -0.90403664       1.76550866       0.10322234
C        8.60286922       0.71243604       7.55634842       0.29053337      -0.72364907       0.03174207
C       11.07237737       0.69770389       7.68231728       0.75208778       1.07837209      -0.33648696
C       13.52504722       0.68708609       7.61187276       1.05915026       2.16679385      -0.95030672
C        0.01215470       2.87886806       7.59602840       0.35667269      -0.63574562      -0.65393798
C        2.51499945       2.82926814       7.40643919      -3.21133510       0.23687831       0.31717257
C        4.91575880       2.85582811       7.31314436       1.06481466      -0.90485759      -0.79778349
C        7.40309051       2.85471887       7.32563163       0.33786687      -2.38683143      -0.63085281
C        9.83461131       2.81794297       7.49320343       2.13490008       1.39532972      -0.40467904
C       12.34345218       2.83377622       7.63068197      -0.80427244      -0.57363137      -0.51562805
C       -1.21160795       4.95289338       7.59431265       0.02073646       0.88849612      -0.57098956
C        1.26178551       4.96391409       7.60241575      -0.44038652       0.61030661       0.42446445
C        3.72394596       4.98323439       7.46784288      -1.15707690       1.23944347       0.67052005
C        6.17874857       4.96161505       7.34766615       1.06361421       1.99902448      -0.25240983
C        8.61897604       4.95293560       7.19517275       0.87224520       1.25279907       0.35167446
C       11.07287432       4.94276519       7.37511235       1.26451353      -0.55090616      -0.06629101
C       -2.42312915       7.07948959       7.47362170      -1.57219487      -0.35919134       0.53778865
C       -0.00644623       7.08847381       7.81411449       0.66465845      -0.16251506      -0.30195807
C        2.43472759       7.11900945       7.74921109       0.68060854       1.13673562      -0.33143654
C        4.93026501       7.11484628       7.55267603       0.87598487       1.57751217       0.02673690
C        7.41771703       7.09490603       7.42985946      -0.95067362       0.93570594      -1.18148592
C        9.85772633       7.06647670       7.24432420      -0.98906431       0.51187604       0.40454046
C       -3.68711323       9.24093939       7.42445940      -0.46327525      -1.45596610      -0.12586373
C       -1.23567656       9.18010084       7.71632788      -1.45126329       1.78375321       0.25365373
C        1.18054453       9.26036764       7.87237187      -1.45039066      -0.12518238       0.11892818
C        3.67235534       9.28571532       7.74698790      -0.46739056      -2.01427395      -0.93924198
C        6.18450484       9.20232820       7.44861626      -1.14723189       1.77599594       0.87863157
C        8.65816892       9.24615300       7.36550010      -1.88545705      -1.28208702      -0.02840632
C       -4.93494258      11.36366863       7.19431581       0.15849668       0.63856664       1.55177286
C       -2.48280895      11.34116474       7.51292145       1.24364980       0.59002807      -0.65988751
C       -0.06451873      11.37647631       7.63111796       0.82211538      -0.57431503       1.17134112
C        2.38345565      11.39966185       7.64126843       0.41782689      -1.98761367       1.27670493
C        4.86207943      11.36931814       7.61291217       1.42020977       0.20441993      -0.35969965
C        7.35662816      11.34934730       7.42746619      -0.59519316       0.53673810      -0.12182452
72
Lattice="14.76 0.0 0.0 -7.38 12.782534959858314 0.0 0.0 0.0 15.0" Properties=species:S:1:pos:R:3:REF_forces:R:3 REF_energy=-11166.59112147057 config_type=fd_force_conv_snapshot_049 split=train degauss_Ry=0.0019000869 kgrid=8 lattice_temperature_K=300.0 pbc="T T T"
C        0.00816600       0.06214526       7.43127072       0.71112368      -1.28521579       0.42468814
C        2.45667297      -0.03570024       7.45329093      -0.85162059       0.10714584       0.44649289
C        4.91539585       0.00818885       7.45939308      -2.16474725       0.13429875       0.34824204
C        7.33603450      -0.04457151       7.48094780       0.29909077       2.54087110      -0.46909649
C        9.76753820       0.02635775       7.63479755       2.52749519      -1.53470073      -1.09047684
C       12.35690383       0.05112628       7.55688927      -2.11415565      -1.78697995       0.57270706
C       -1.19183879       2.14067722       7.34067063      -0.81085369       0.35680150       1.94971792
C        1.24801896       2.13885507       7.49182409       0.82467440      -1.48614596       0.31996916
C        3.68462399       2.12398230       7.47969252      -1.32044994       0.25245765      -0.19049740
C        6.07899880       2.12992373       7.36752454       1.39914626       1.13560844       1.46118827
C        8.54683995       2.11667911       7.50875456       0.76430772       1.46696733      -0.12470725
C       11.07734390       2.11305782       7.43319001      -1.11731427      -0.05214943       1.03442705
C       -2.41938111       4.27615537       7.55176549      -2.10702701      -1.23145583      -0.51628369
C       -0.02562116       4.22981691       7.57440764       2.31790684       1.10422890       0.27749068
C        2.44227063       4.30023904       7.51106855       0.59886598      -1.53709237      -0.53279454
C        4.90808144       4.27888594       7.42908719      -0.68116982      -0.18627874      -0.23910822
C        7.36598542       4.28323840       7.41146171       1.33209523      -0.36087361       1.46047221
C        9.87261120       4.22885636       7.53589975      -1.16851959       0.96088630      -0.13446432
C       -3.70584554       6.37402429       7.58783388       0.82098846       0.86049321      -0.09435280
C       -1.19992303       6.35371314       7.71284207      -0.60145713       2.45603113      -1.01805375
C        1.23225090       6.38494902       7.65179637       0.24006853       1.72235990      -0.72526784
C        3.69515571       6.38673038       7.37238356      -0.28062794       2.12672912       0.96111641
C        6.11963434       6.36785613       7.51059975       2.02798847       0.37143776      -0.34294094
C        8.60948499       6.38376277       7.47081342      -0.84124721      -0.03963407       0.26494267
C       -4.93887061       8.49748249       7.43668254       0.96716185       0.47528873      -0.02072463
C       -2.44887258       8.47716228       7.48231691      -1.32468249       0.47644753      -0.03986624
C       -0.01598734       8.51785805       7.45067220       0.26502057       0.20470223       1.05252787
C        2.50752934       8.55869963       7.58511605      -2.44867854      -1.22197411      -0.12214257
C        4.93608640       8.51232788       7.48535316       1.15424997       1.30519095       0.99201799
C        7.41912416       8.48041287       7.43625524      -2.14659552       1.23616609      -0.10632309
C       -6.18580575      10.63974773       7.39515260       1.96772233       0.78131300       0.32918914
C       -3.67672149      10.61846337       7.48998610      -0.68526481      -0.05096106      -0.86508725
C       -1.24970124      10.67631864       7.44759417       0.66251338      -1.75600304      -0.63317092
C        1.27864010      10.67054866       7.48161065      -2.78164051      -2.07478229      -0.09110293
C        3.72738182      10.67127588       7.70319427      -0.20074402       0.49289616      -0.66434169
C        6.21853286      10.67963017       7.53496877      -1.33902410       0.32617657       0.01764214
C        1.22089931       0.69595173       7.45417159       2.22923103       1.65299128      -0.21839542
C        3.64985238       0.71042277       7.51525099       1.53634084      -0.58685867      -0.70965224
C        6.10030319       0.71465996       7.47424281       1.41069926      -0.32090504      -0.62744070
C        8.55722980       0.71272659       7.47158154      -0.44206802      -0.51497371       0.97233697
C       11.04907977       0.69782843       7.59233467       0.80704434       0.64243615      -0.67775899
C       13.57833291       0.74535459       7.48594228      -2.06833139       0.58035918      -0.97733468
C        0.04519315       2.81911123       7.54291051      -2.09577072       1.36534500      -1.32493857
C        2.46540752       2.83067157       7.49714496      -0.23771340       1.73512799       0.16860677
C        4.86803623       2.86810512       7.40388504       1.15997119      -0.91137354       0.04841824
C        7.31972005       2.87468997       7.50385463       0.48160979      -1.52184907      -1.36508094
C        9.81982428       2.81463414       7.50800196       0.10604541      -0.23394493      -0.20569725
C       12.30286624       2.82722289       7.43567639       1.25614947       1.09349532      -0.34441161
C       -1.21578542       4.97481790       7.57283343       0.22419582      -1.43029055       0.80214871
C        1.21934755       4.98978862       7.60673536      -0.50104296      -1.48667510      -0.07932316
C        3.67362233       5.00949773       7.35862590       0.19630090      -1.58391113       1.01126244
C        6.14069009       4.95519368       7.51363718      -0.42981903       0.64414542      -1.01408448
C        8.65651949       4.98729333       7.49940228      -1.71131264      -1.78674520      -0.37882120
C       11.08010392       4.97436614       7.57120689       0.72366655      -1.08988189       0.13306564
C       -2.43171761       7.08221697       7.60762328      -0.93349814      -1.28877523       0.07200580
C        0.01181398       7.11391837       7.65323179      -0.38123238      -0.72196988      -0.26049672
C        2.45311715       7.11476772       7.51387944       1.30104068      -0.04378074       0.13268564
C        4.96310463       7.09574903       7.47095692      -3.06714815       0.31248931      -0.55537037
C        7.34638461       7.08688130       7.45508590       1.46235452      -0.95806066       0.22561585
C        9.81186270       7.08084354       7.51755019       1.21875612       0.57263918      -0.27227545
C       -3.69353980       9.19010799       7.41402654       0.29134224       0.33003349       0.76171836
C       -1.27628711       9.20618840       7.43003377       2.12139048       1.78343234       0.16541629
C        1.22353075       9.23062026       7.51042580       1.24978908       0.56127516      -0.07841813
C        3.72332847       9.25819206       7.66016639       0.43004271      -0.50898124      -0.89880547
C        6.18765979       9.23889792       7.48735098      -0.01148820      -0.23503354      -0.01146429
C        8.61242537       9.21587266       7.39289497      -0.33507851       0.04328812       0.21005373
C       -4.92571940      11.30172128       7.46383252       0.19907898       1.11718186      -0.32084591
C       -2.46914233      11.38732817       7.43853230       0.19497010      -1.23478952       0.51085506
C        0.01730078      11.35930484       7.42140164      -0.96612569      -0.82350172       0.53895207
C        2.45510419      11.34416081       7.57718511       1.78685216       2.33151517       0.98322379
C        4.96629236      11.38887316       7.64130993       0.35381311       0.20059618      -0.24539534
C        7.42248810      11.46426395       7.44996688      -1.45465612      -3.97430045      -0.06238293
72
Lattice="14.76 0.0 0.0 -7.38 12.782534959858314 0.0 0.0 0.0 15.0" Properties=species:S:1:pos:R:3:REF_forces:R:3 REF_energy=-11166.72716995437 config_type=fd_force_conv_snapshot_053 split=train degauss_Ry=0.0019000869 kgrid=8 lattice_temperature_K=300.0 pbc="T T T"
C       -0.01199673      -0.01220842       7.58080906       0.19360741       0.07259150       0.67482793
C        2.46215935       0.02489512       7.54521922      -0.05179796      -0.79270247       0.02339035
C        4.95082608      -0.01532939       7.53138540      -1.33924701      -1.16859235      -0.15998767
C        7.40461660       0.02208741       7.51041947      -0.24184645      -1.95348407      -0.55419074
C        9.88521436       0.00658574       7.32098701      -0.74038746      -0.12496770      -0.20013956
C       12.28211268      -0.01305503       7.38394767       2.47270524       0.75556854       0.61927385
C       -1.23384773       2.14624253       7.53150530       0.06124959      -1.36056249       0.67988864
C        1.21669990       2.14263091       7.56196134      -0.70001240       0.58759760      -0.18127511
C        3.64664000       2.13006256       7.45027453       1.28783755       0.28872049       1.24972891
C        6.10812170       2.13120966       7.56501376       0.77111935      -1.73146392       0.11758735
C        8.60913948       2.15361581       7.48361643      -0.74815271      -1.96429273       0.37336146
C       11.05939394       2.12629638       7.53237795       1.03279800       1.67701541      -0.12075983
C       -2.47988350       4.27909637       7.46547093       1.14959962      -0.38357722       0.55126072
C       -0.03112518       4.22665096       7.40318922       0.07287432       3.04987985      -0.22014788
C        2.43156037       4.27433468       7.51132037       0.77656057      -1.27821545      -0.25542342
C        4.92276939       4.25444888       7.63294133      -0.93004566       0.64940847       0.41767494
C        7.33941000       4.20379374       7.56748008       1.02785582       2.08733622       1.27904052
C        9.80581937       4.24731807       7.54835763      -0.10840028       1.85402943       0.83962253
C       -3.68214650       6.39600604       7.63125588      -1.48937321      -0.34571567      -1.75441050
C       -1.22475625       6.44674419       7.30472593       1.00447010      -1.80564744       0.13481528
C        1.28495749       6.35410091       7.36872314      -2.71859527       1.24685571      -0.29407969
C        3.66826358       6.39054078       7.51597180       1.12660855       0.99046119       0.01893283
C        6.16398877       6.35756491       7.68465863      -1.24250849       2.83950293       0.00269220
C        8.51757389       6.40049182       7.62256152       2.28178181       0.02626716       0.25909367
C       -4.87093144       8.50031486       7.68747829      -2.11502340      -0.43159515      -0.75625811
C       -2.39219163       8.52505613       7.46774108      -1.95100296       0.81612034      -0.63779762
C       -0.00619881       8.53439394       7.28386401       1.84077231       0.13083187       0.30755896
C        2.45925069       8.53487787       7.34014411       0.02726681       0.52749164       0.50481708
C        4.95509331       8.50990384       7.48362119      -2.03097764       0.74259861      -0.85376720
C        7.35386475       8.55515910       7.65868231       1.60359267      -0.16434980       0.26941947
C       -6.12838009      10.63699675       7.69278446      -1.66327955       0.00917858       0.00777913
C       -3.67643113      10.61289211       7.62451832      -0.11082920       1.70498824      -0.30873267
C       -1.18702328      10.65736689       7.46174348      -0.80714899      -0.10091040      -0.19112655
C        1.25439081      10.65018703       7.30397201      -0.61179040       0.80662242       0.29248304
C        3.70601673      10.63917680       7.24250249       1.05436441       0.18892697      -0.20655394
C        6.17251107      10.65148037       7.42164233      -1.55210684      -0.70818388       0.54460542
C        1.22161100       0.74662353       7.57656762       0.07918535      -1.84673161      -0.01020497
C        3.71599809       0.71229185       7.44292717      -1.17454832      -0.30189019       0.67829018
C        6.14568613       0.66922653       7.54470302       1.02610207       2.40826414       0.00263384
C        8.63792316       0.70491762       7.44201123       0.31229982       0.85757629      -0.06920587
C       11.11913503       0.76155508       7.34380199      -2.42651358      -2.45077682       0.49495844
C       13.51917601       0.68643934       7.62293069      -0.13437408       0.97822171      -1.66613707
C       -0.01576390       2.86808479       7.51309522      -0.18545290      -2.29741540       0.07303578
C        2.42171034       2.85040103       7.55038884       1.10837043      -0.28191606      -0.59729683
C        4.89715578       2.83523768       7.62863365      -0.64119970       0.26848308      -1.21802978
C        7.34482333       2.81263789       7.52949831       0.41585228      -0.13775739       0.00323393
C        9.81696709       2.83964484       7.58125305       0.60363692       0.15422659      -0.88404811
C       12.31531637       2.84463244       7.54695064      -1.36347092       0.59894671      -0.49054154
C       -1.24419101       5.00817111       7.38054667      -0.08120315      -0.74728959      -0.08162070
C        1.21531744       4.92386691       7.37298784      -0.05915054       1.73741062       0.63093869
C        3.66603099       4.97445384       7.52802804       0.88906665      -0.05038925       0.48699959
C        6.16824671       4.96077082       7.75026506      -1.65405391      -1.04237382      -1.43684686
C        8.54183074       4.98355682       7.61204500       1.09882033      -1.73395094      -0.67883731
C       11.05811146       4.96275889       7.57112747      -0.68299324       0.71194489      -0.20734610
C       -2.45121719       7.12263519       7.41107484      -0.13658137      -0.24288492       0.82883239
C        0.04969102       7.12085055       7.26013385      -1.06477635      -0.84859286       0.39695699
C        2.44990546       7.12660572       7.47397115       0.97447689      -1.28420484      -0.82567224
C        4.92480203       7.12134814       7.54451152       0.09134692      -2.76766040       0.66506803
C        7.35032442       7.16312851       7.70060322      -0.85798432      -2.34613061      -0.37126087
C        9.77336175       7.07084381       7.56410276       2.67902727       0.60565857       1.40961194
C       -3.65192946       9.21508620       7.57123631       0.20800713      -0.48503990       0.67744763
C       -1.19897656       9.26324538       7.33130267      -0.41376069      -1.43173062       0.64235284
C        1.22290906       9.26117273       7.36698317       0.81480676      -1.43894951      -1.09863110
C        3.70836942       9.23448043       7.29474368      -0.05347355      -0.86770104       0.64908476
C        6.13769317       9.22563753       7.51245317       1.06337073       1.13730203       0.11664144
C        8.64112054       9.21569823       7.73273117      -0.28931158       0.49155790      -0.48786631
C       -4.94384488      11.36225666       7.64872296       2.12863430       0.31588419      -0.15131842
C       -2.42176206      11.32427178       7.56011693      -1.31373267       1.12754084      -0.03605021
C        0.01589162      11.35228248       7.41813375       1.19490811       1.80088781       0.03307878
C        2.48625008      11.33946352       7.22970633       0.07224080       1.66897917       0.49338775
C        4.96185669      11.36279909       7.30443885      -1.87245499      -0.26452049      -0.00681060
C        7.34497467      11.33211522       7.61440457       3.01234483       1.26728903      -0.43803190
72
Lattice="14.76 0.0 0.0 -7.38 12.782534959858314 0.0 0.0 0.0 15.0" Properties=species:S:1:pos:R:3:REF_forces:R:3 REF_energy=-11166.864419820766 config_type=fd_force_conv_snapshot_058 split=validation degauss_Ry=0.0019000869 kgrid=8 lattice_temperature_K=300.0 pbc="T T T"
C       -0.00192804      -0.00437910       7.49236023       0.74088806      -0.31093456      -0.06593414
C        2.44221450      -0.00604767       7.64196985       0.91318154      -1.27818151      -0.53230346
C        4.90634065       0.01932071       7.59076940       0.21429759      -0.29719947       0.27989877
C        7.35723377       0.03896891       7.46559638       1.49683841      -0.37868776       0.27193504
C        9.86308627       0.00802123       7.32447641      -0.26361932      -0.96117221       0.79223762
C       12.35952230       0.01580206       7.37879598      -1.94712496       0.09565224       0.16424001
C       -1.20279834       2.15410024       7.27807401      -2.24775917      -0.58139482       0.64077933
C        1.23232200       2.10906236       7.49762482      -2.00721859       0.28418043      -0.40519172
C        3.64113230       2.12276307       7.69351425      -0.10091323      -1.49113622       0.36194525
C        6.10642791       2.16262510       7.77449737       1.57136441      -1.08354746      -0.36055351
C        8.60869579       2.15715049       7.59234260       0.52245048      -2.29474351       0.32250298
C       11.00556717       2.17373388       7.54176271       3.98836182      -2.78923324      -1.37275569
C       -2.50057349       4.27566514       7.42206361       2.09905608      -0.90607707      -0.06325762
C        0.02530164       4.30095573       7.27543801      -2.57765048      -1.95923075       0.10869441
C        2.43652802       4.22981083       7.56236011       0.56113092       0.24471014      -0.67939010
C        4.89673138       4.18901660       7.72934358      -0.16124596       2.86531347      -1.01062840
C        7.42699119       4.25770098       7.74573228      -1.91511499       0.06686411      -0.73341566
C        9.84990413       4.26747163       7.64996067       1.05963569      -0.16045304       0.11480773
C       -3.70865634       6.40839794       7.48058358      -0.01623729       0.27162574       1.01314320
C       -1.23432981       6.42090753       7.25872591      -0.89045144      -1.66009086       0.77256302
C        1.21264259       6.39321292       7.28113100       0.91670318      -0.59322240       0.61749979
C        3.67240659       6.34578414       7.42453722       0.29011351       0.36902067       0.90625473
C        6.13075368       6.36447139       7.55448771      -1.32903073       0.04500999      -0.03008191
C        8.56388436       6.37997154       7.65352661       1.81116194       0.77322842       0.08667266
C       -4.91845630       8.53010021       7.62960679       0.11322187       0.99553603       0.46665728
C       -2.47453201       8.54442147       7.33901878       1.02551046      -1.14676729       1.49965814
C        0.00809823       8.51971616       7.36046388       1.16337790       0.48951464      -0.71019320
C        2.53062677       8.49981769       7.29791064      -0.17500574       0.81782704       1.52683830
C        4.96411966       8.50345097       7.46426936      -0.57287829       0.69859495       0.16497381
C        7.36071611       8.51685770       7.60233208       0.85137479       0.01272130       0.46144514
C       -6.12911087      10.60103794       7.66876546      -1.11309664       2.89979042      -0.46223781
C       -3.70068869      10.66040382       7.47002880       1.54636583      -0.68030464       1.33571997
C       -1.23082171      10.69087566       7.41535725       0.09827810      -1.07264624      -0.41329095
C        1.23136994      10.64272114       7.35490327       1.51510841       0.80630052      -0.36511259
C        3.72729127      10.65681426       7.39453908       0.09503543      -0.05700470       0.14568333
C        6.16131962      10.66823841       7.50968041       0.46656369      -0.99440192       0.26934028
C        1.23401245       0.69294957       7.53369570      -0.51545193       0.24483895       0.31524373
C        3.67371923       0.69357616       7.67336155      -0.56691179       0.75074901      -0.19847451
C        6.13322200       0.74955070       7.64444327       0.02192328      -0.36744227      -0.37220781
C        8.63534439       0.70568546       7.47169940      -1.29978932       1.26342261      -0.24329552
C       11.07220042       0.71355694       7.40244405       0.84591582       0.95493317       0.10549699
C       13.57012868       0.73836194       7.36212479      -0.50993357      -0.75956944       0.09969273
C       -0.02610376       2.85056912       7.32797166       2.90282689       0.98349298       0.16412740
C        2.42268050       2.80863013       7.61713256       0.39724058       0.95851369      -0.08683027
C        4.84207782       2.80762158       7.76607960       2.24303528       0.26667328       0.20238696
C        7.41523980       2.83936363       7.75400215      -2.76959130       0.59957200      -0.12935888
C        9.82636205       2.85563526       7.60206542      -0.67724503       0.96197928       0.16816223
C       12.29252247       2.82782196       7.38452180      -1.02919074       1.38635708       0.43650518
C       -1.26050735       4.98915533       7.30762575       1.24700149       0.04022877      -0.42880421
C        1.25047108       4.94746168       7.29878672      -0.28434216       1.69644909       0.69305551
C        3.67695888       4.92500365       7.59480673      -0.06918941       0.15287317      -0.13247198
C        6.12108405       4.94687833       7.59542562       1.58766366      -1.11824347       1.49213175
C        8.65979431       4.94885187       7.68495206      -2.50845823       1.85016943       0.10583123
C       11.07147667       4.98746899       7.59408385      -0.86586913       0.28535131      -0.87752856
C       -2.45639897       7.09515705       7.40323099      -1.17917219       1.50991633      -0.91858085
C       -0.01713587       7.09939843       7.28438279       1.04447029       0.69412432      -0.17952162
C        2.45866882       7.07925105       7.42091831      -0.06802728       0.09055297      -1.52400520
C        4.88816124       7.08974590       7.46349560       1.26278163      -0.90023398       0.09327140
C        7.33598185       7.08442849       7.64363668       0.72254581       0.10657068      -0.44660268
C        9.80436169       7.15044811       7.60693913       0.48615884      -2.75066309      -0.28522841
C       -3.66419268       9.23861005       7.60980723      -1.20687968       0.07214618      -1.93762885
C       -1.22114446       9.23428335       7.33501438      -0.02630367       1.14227583       0.26416568
C        1.31485284       9.22758848       7.34305689      -2.80432253      -0.55094113      -0.15170306
C        3.76881767       9.24032538       7.44403860      -1.70382507      -0.86539501      -1.02627485
C        6.17199128       9.25164761       7.52897750      -0.29681483      -1.16916957      -0.02125531
C        8.60177972       9.23311698       7.68573381       0.16218262      -1.72899797      -0.41002925
C       -4.89488404      11.32815358       7.58052700      -2.10786442       1.36515782       0.46251061
C       -2.47541445      11.38622339       7.49155155       0.72901239      -0.10314160      -0.37764440
C        0.00799486      11.39436703       7.36327983      -0.67465773      -0.45888689       0.57130272
C        2.49140222      11.34810129       7.33217779      -0.75842067       0.52987402      -0.03620576
C        4.96262727      11.36056058       7.43887544      -1.05960561       1.53990876      -0.35838736
C        7.37250225      11.35263095       7.59258351       1.58643467       0.28709349      -0.15098855
