72
Lattice="14.76 0.0 0.0 -7.38 12.782534959858314 0.0 0.0 0.0 15.0" Properties=species:S:1:pos:R:3:REF_forces:R:3 REF_energy=-11166.917802161235 config_type=fd_force_conv_snapshot_000 split=validation degauss_Ry=0.0019000869 kgrid=8 lattice_temperature_K=300.0 e1_config_id=T300_snapshot000 e1_source_identity=T300:snapshot000 diagonal_degauss_Ry=0.0019000869 pbc="T T T"
C        0.00510370      -0.01942390       7.38759368      -0.76439591       0.90045766       1.11555487
C        2.43371386       0.01215294       7.61238722       0.58220986      -1.57643231      -0.26140894
C        4.87309044       0.05556129       7.51714612       1.17253206      -2.09478188       0.13531407
C        7.34906766      -0.05943043       7.47504195      -0.92790290       1.89415535       0.11254001
C        9.81560454      -0.00132801       7.50160947       1.91543535      -0.35577460       1.44181140
C       12.32280025       0.04266828       7.58981355      -0.90738344      -0.62047996      -0.38625940
C       -1.22715689       2.18758723       7.41907184       0.00243303      -2.56288566      -0.41369050
C        1.25526139       2.11571119       7.51838058      -0.30431114       0.33869528       0.02382179
C        3.67610675       2.12974472       7.44114445       0.85704330       0.73006577       1.02623243
C        6.11110642       2.16736901       7.34492546       1.31092914      -0.72581625       0.02563261
C        8.59193641       2.08931831       7.37507468       0.25705247       1.04591448       0.23322477
C       11.07974256       2.14909911       7.46336385      -0.21873326      -0.55228376       0.24329218
C       -2.41750163       4.32438255       7.37452923      -1.83418052      -3.65854019       0.87133529
C       -0.00247084       4.25592285       7.56377364       1.08025799      -0.60382923      -0.13404318
C        2.47282021       4.25631368       7.53338688       0.50930623       0.51849458       0.63520389
C        4.93948213       4.29136259       7.41999041      -1.78283147      -0.35483178       0.31723402
C        7.38390711       4.28975340       7.37415406      -0.39940262      -1.22650928      -0.27736418
C        9.84244958       4.22754468       7.39876094      -0.06064461       0.99537148      -0.16988487
C       -3.66812019       6.33155426       7.33975923      -0.13155024       0.53109864       0.13264295
C       -1.21444728       6.39103959       7.50487690       0.15069930      -0.31840824       0.31140764
C        1.22511831       6.34887418       7.68550746       0.35878793       1.49034997      -0.17588865
C        3.68167651       6.37993589       7.56512677      -0.25047250       2.77928898       0.80305322
C        6.09100433       6.41692227       7.49403525       2.70855511       1.00438242      -0.23211225
C        8.61339903       6.37636937       7.33715784       0.36317886       1.04370076       0.94490124
C       -4.90404964       8.45011705       7.30791755       0.02629956       2.62393342       0.80647253
C       -2.50854061       8.48418222       7.45310316       1.74137783      -0.49028238      -0.56551234
C        0.01503638       8.51278871       7.67227298       0.18798595      -0.65403542      -0.52044142
C        2.50986597       8.55081328       7.63815844      -1.97825588      -2.18518495       0.23713259
C        4.94692576       8.57133277       7.65613477       0.43850653      -0.29353179      -0.38027336
C        7.43843838       8.53335065       7.45564824      -1.68628912       0.69092175       0.27815582
C       -6.12861464      10.62651835       7.43499293      -0.51168398       0.78599061       0.69861912
C       -3.73083469      10.66011414       7.49149531       1.63380210      -1.52978761      -0.33742567
C       -1.27558986      10.61308085       7.58274163      -1.23252026      -0.30189739      -0.22572846
C        1.23829366      10.65457183       7.68398190      -1.14026034      -0.22951055      -0.72747796
C        3.67635965      10.67156185       7.61881380       2.46186213       0.03809706       0.80193813
C        6.14558784      10.67113236       7.56341647       0.91717189       0.59680755       0.35222314
C        1.22007770       0.69719682       7.57375741      -0.10007273       0.42202473      -1.08759129
C        3.64971847       0.72622539       7.57531001       0.21446189       0.22383176      -0.60372819
C        6.12195224       0.74717362       7.41397502       0.12876213      -1.46356525       0.26504217
C        8.59268321       0.67317284       7.50600804      -0.87016595       0.03210151      -0.97742852
C       11.07111800       0.71931912       7.58457611      -0.63743381       0.57349896      -0.94605335
C       13.51706680       0.73168089       7.36864206       1.44939333       0.51751936       1.07195179
C        0.02835986       2.81740831       7.41865541      -0.34316797       1.97138332       0.96190626
C        2.49494038       2.84403548       7.54399987      -1.82213464      -0.14267746      -0.62512877
C        4.89861362       2.87329987       7.40803354       0.12740767      -0.36961742      -0.39551100
C        7.37327746       2.83188572       7.29535043      -0.20833212       1.10752788       0.75926965
C        9.83771063       2.83642076       7.40065439      -0.67944615      -1.38551350       0.09484131
C       12.30202299       2.87224032       7.45603434       0.64495686       0.77060693      -0.53050651
C       -1.22670718       4.98010695       7.54422723       1.68605361       0.30969092      -0.81797462
C        1.25465053       4.95316638       7.65054942      -1.24212513      -0.76111827      -0.52863784
C        3.69450472       5.00715076       7.53711167       0.38061351      -2.13097838      -0.63126573
C        6.13439525       5.00136513       7.40067187       0.97899227      -0.01403128       0.19979220
C        8.61648497       4.97307832       7.42550991       0.04964852      -0.40875552      -0.78045271
C       11.08394496       4.92356517       7.36112371      -0.49663069       1.26358408      -0.07384131
C       -2.44344693       7.04189449       7.36662729      -0.96055771       1.63834576       0.62705555
C        0.00531883       7.07265443       7.64249897       0.25152665       1.13274398       0.01411741
C        2.43511838       7.08321793       7.63604852       1.35071722       0.92894960       0.04901500
C        4.91050404       7.16257204       7.63000755      -0.51106589      -1.62082138      -0.69830571
C        7.38341179       7.13375620       7.40464135      -0.39651913      -1.74003315       0.19678812
C        9.88818472       7.06942085       7.37566389      -1.74298811      -1.36768753      -0.94160431
C       -3.71803387       9.20889618       7.34777788       0.88404991       0.35837296       0.69491931
C       -1.24735197       9.16380946       7.56682475      -0.41257850       1.44953603       0.31466832
C        1.27671916       9.24799492       7.67528213      -1.37485551      -0.51551133       0.25528483
C        3.70556324       9.24700401       7.63591941       0.89719159       1.06213917       0.12612084
C        6.19614097       9.27396575       7.56751683      -0.77172304      -1.47439962       0.09068769
C        8.66019413       9.22738794       7.43755530      -0.45069741      -1.26831131      -0.85117141
C       -4.91822841      11.33921419       7.50844922      -1.35910004       2.08028317       0.10885074
C       -2.51078206      11.37835260       7.55936233       0.98655337      -0.11653782      -0.22822294
C       -0.07985393      11.30849899       7.56873853       2.99070026       1.00251606       0.46794335
C        2.47822267      11.34920178       7.63341173      -1.93259360       1.54905340      -0.48279558
C        4.94744836      11.41586854       7.68097287      -1.45165590      -1.48008125      -1.04370899
C        7.38948065      11.35034910       7.50322099       0.19820686       0.19300706      -0.79455804
72
Lattice="14.76 0.0 0.0 -7.38 12.782534959858314 0.0 0.0 0.0 15.0" Properties=species:S:1:pos:R:3:REF_forces:R:3 REF_energy=-11167.140091819976 config_type=fd_force_conv_snapshot_013 split=train degauss_Ry=0.0019000869 kgrid=8 lattice_temperature_K=300.0 e1_config_id=T300_snapshot013 e1_source_identity=T300:snapshot013 diagonal_degauss_Ry=0.0019000869 pbc="T T T"
C        0.06430388      -0.00637192       7.40017405      -3.28779637       0.02326000       0.92654973
C        2.45089948      -0.02024442       7.64189613       1.75705590       1.38356820      -1.33346486
C        4.95957913      -0.03707891       7.44165722      -0.74693709       2.18752337       0.42995504
C        7.42399796      -0.02371651       7.38784381      -0.99193366       2.03100695       0.50558790
C        9.86737145      -0.05001074       7.54152703      -0.43604007       2.67148931      -0.25187992
C       12.31936639       0.00486079       7.64395874       0.64582538       1.14535472      -1.28511038
C       -1.18677876       2.12595231       7.54309756      -2.82808338      -1.12682838      -0.34430594
C        1.24189422       2.14544821       7.48339862       0.01474348      -0.53868031       0.56840329
C        3.66139936       2.14947101       7.50278835       1.63610556      -1.00431223       0.17387059
C        6.15025482       2.10750797       7.45774678      -0.42597369       0.78256873      -0.78127238
C        8.60568882       2.14620199       7.46680677       0.08462786      -0.78067562      -0.24317057
C       11.04193463       2.13640828       7.53165999      -0.64355535      -0.38098221      -0.27351241
C       -2.45755308       4.23631132       7.53523258      -1.31645470       0.04208125       0.19894065
C       -0.02920219       4.24126304       7.55032506       0.93228381       0.50693078      -0.22736265
C        2.45295349       4.29747543       7.42069618      -0.79759914      -0.84383117       0.20615105
C        4.91384224       4.23136964       7.46035918       0.14444329       1.17964116      -0.58070139
C        7.39598388       4.25987355       7.54364580      -1.21817479      -1.83389487      -0.58868595
C        9.82617370       4.28790935       7.55590602       0.41140145      -0.08314870      -0.40407277
C       -3.67965834       6.43718318       7.53128949      -0.66999760      -1.22023322      -0.14738977
C       -1.26113523       6.39340143       7.50469741       0.86811267       0.92678704       0.98511998
C        1.14895864       6.40786826       7.56778311       1.89811331      -0.73095743      -0.85738269
C        3.62088564       6.38170685       7.39395817       1.68854989      -0.41343107       0.22322009
C        6.14602692       6.36742535       7.56386079      -0.74992549      -0.75334865      -0.52086411
C        8.57925803       6.39441228       7.62656945       0.54290849      -0.12901359      -0.43102153
C       -4.95799897       8.53382601       7.53530894       0.71239509       0.17486227       0.23517315
C       -2.47663068       8.58784493       7.42664520       0.91292751      -0.92144121       0.82615175
C        0.00280000       8.56349433       7.53682442      -0.00452566      -1.03211409       0.27998799
C        2.49575040       8.53401207       7.27933305      -1.70374845      -1.56450856       1.33523352
C        4.96287713       8.45757358       7.49639153      -1.75323833       0.81110257      -0.43897576
C        7.36515739       8.50998871       7.57193041       0.25473359       0.88255070       0.32431253
C       -6.16053701      10.66357414       7.57142317       0.80292055      -0.82911212      -0.60310213
C       -3.70115707      10.65903114       7.44509007       0.84287267       1.10539618       0.58355866
C       -1.20799585      10.66086714       7.47577143       0.05058800       0.56703186       0.38119535
C        1.24735391      10.64564788       7.36948912      -0.15901013       0.15087413       0.94027685
C        3.73677729      10.65577834       7.47506158      -0.17891587      -1.25886841      -0.74281561
C        6.18518137      10.63150214       7.55582109      -1.21712835       1.09774509      -0.43972523
C        1.23065302       0.71358215       7.52033365       1.81628949       0.33680372      -0.01613624
C        3.73176230       0.71036061       7.57913295      -1.80024710      -0.62152382      -0.43032142
C        6.17519490       0.72142898       7.35701983       0.13860123      -2.29388425       0.72626260
C        8.62170079       0.72374183       7.49371028       1.22962649      -1.53280763      -0.49006409
C       11.09092677       0.71885386       7.57787315      -1.10063270      -1.22745570       0.30410700
C       13.55687224       0.71160501       7.49606422       0.81617459      -0.43373559       0.32030726
C        0.01194179       2.81680909       7.50102153      -0.06719295       1.43069704       0.14293817
C        2.45477744       2.87740940       7.52066155      -0.32652265      -0.47301408      -0.67332384
C        4.91033301       2.83510919       7.43960602      -0.17433828      -0.63779479       0.47843165
C        7.37180490       2.80078942       7.43791352       0.22274778       2.16240729       0.72756332
C        9.80642394       2.88919949       7.44560561       1.14954254      -1.38977562       0.96369729
C       12.25696541       2.78768999       7.54097047       2.94658835       2.28593157       0.15594281
C       -1.24396328       4.96850202       7.58004153      -0.33648310      -0.26517792      -0.59249324
C        1.18525712       4.97316387       7.48205921       0.30409337       0.39600645       0.52135287
C        3.68555663       4.97234612       7.36837442      -0.33880403      -0.30943946       0.69697876
C        6.15617522       4.93275485       7.49311769      -0.07764012       1.08545162       0.56730594
C        8.59287210       4.96773096       7.59808739       0.30364985       1.04407871       0.00057310
C       11.06884991       4.97818923       7.54366945       0.58531832       0.80654246       0.04002873
C       -2.45023891       7.15685176       7.45863495      -1.23850296      -0.52036531       0.16285265
C       -0.03246757       7.13375256       7.62913111      -0.87007339      -0.13523771      -1.11423255
C        2.39997379       7.07941007       7.39866075       0.45402211       1.60395417      -0.03057864
C        4.88735199       7.03810750       7.51638045       0.73363395       1.14472275      -0.48313779
C        7.36267002       7.11299019       7.55672650      -0.16524866      -1.21719572       0.58763874
C        9.81271297       7.10454011       7.57512822       0.61194775       0.61927256      -0.07610877
C       -3.71196776       9.27960114       7.45740519      -0.43159849      -2.08755502      -0.09889543
C       -1.21838349       9.27408069       7.54074212      -0.60269126      -0.81226548      -0.89189178
C        1.24186668       9.24277133       7.42872265       0.68954467      -0.34493072      -0.74488998
C        3.74191222       9.18272281       7.33013572       0.07874235       1.86484195       0.84815423
C        6.15125644       9.21919631       7.55771714       0.30314000      -0.41422760       0.02722078
C        8.57539412       9.24321394       7.62110569       0.82061103      -0.34055496      -0.66996366
C       -4.91648277      11.36232484       7.49325700      -0.65892772       0.17890739       0.95525944
C       -2.43773958      11.34859694       7.49600472      -0.66938619       0.00300870      -0.75114727
C        0.02667594      11.36210222       7.46508052       0.09804799      -0.38030832      -0.77802019
C        2.47964676      11.33819372       7.44035925       0.80345920      -0.16258268       0.09694833
C        4.95958943      11.39316051       7.54713747      -0.49356953      -2.03618412       0.41792819
C        7.39609718      11.35246932       7.47643863       0.17450823       0.44899920       0.47084021
72
Lattice="14.76 0.0 0.0 -7.38 12.782534959858314 0.0 0.0 0.0 15.0" Properties=species:S:1:pos:R:3:REF_forces:R:3 REF_energy=-11167.277412708085 config_type=fd_force_conv_snapshot_029 split=validation degauss_Ry=0.0019000869 kgrid=8 lattice_temperature_K=300.0 e1_config_id=T300_snapshot029 e1_source_identity=T300:snapshot029 diagonal_degauss_Ry=0.0019000869 pbc="T T T"
C        0.02096621       0.03979058       7.58595272       0.26319509      -1.56747458      -0.99891497
C        2.47649111       0.06309942       7.58786326      -0.61673411      -2.75217901      -0.40798702
C        4.93902310      -0.03210456       7.39743446      -0.09606464       0.52564147       1.31103481
C        7.45726219      -0.00575981       7.47437864      -3.32496449       0.47026325       0.10150792
C        9.84959157       0.02265084       7.33051955       1.07225980      -1.02177208      -0.31939658
C       12.32711630      -0.00922162       7.29814476       0.13285481       0.17239632       0.48610870
C       -1.25071674       2.11656203       7.46497458       0.46020433      -1.08966334      -0.37950100
C        1.19004211       2.15107787       7.52680092       0.81056830       0.68215789      -0.73794826
C        3.68179741       2.14366101       7.49172302      -0.20997351       0.21306115      -0.34551847
C        6.09992062       2.06371792       7.60603736       2.00329740       1.80326274      -0.12051969
C        8.56914388       2.11441749       7.52072713       2.25525574      -0.10058464      -0.09543884
C       11.04750995       2.09154108       7.38544442       0.91052302       1.34668239       0.29609390
C       -2.44395308       4.24354239       7.53234837      -1.83947519      -0.39717219      -0.04212753
C       -0.00233542       4.24875414       7.51008823      -0.55430567       2.34391689      -0.18593472
C        2.42832615       4.27056815       7.44758270       1.42077747       2.05294643       1.03063930
C        4.90866245       4.25960095       7.63064077      -0.62299244       0.39554288      -0.40164565
C        7.36842848       4.19592988       7.70185280      -0.89707589       0.49501783      -0.08219868
C        9.77560661       4.22623863       7.66610986       2.19762163      -0.00531858      -0.18379120
C       -3.69371773       6.34679725       7.68464727      -1.33305245       1.17142494       0.30459859
C       -1.22002117       6.41238291       7.44864398      -1.58167762      -0.57213010       0.32340570
C        1.23350366       6.41156897       7.30937912       0.06106036       0.87215522       1.23802037
C        3.69570685       6.45190689       7.52553796      -0.31451894      -0.80318460      -0.28153168
C        6.14254290       6.36408328       7.64258259       1.10619477       0.16946449      -0.32180801
C        8.56654688       6.36584486       7.79983590       0.70201452      -0.16822368      -0.94130452
C       -4.91810458       8.50151402       7.71418626       0.20103327       0.58582945      -0.19435689
C       -2.43431980       8.52859295       7.59918235      -1.23573517      -0.48988334      -0.15276312
C       -0.00653428       8.53598899       7.26812410       0.20234839      -0.13382181       0.37189670
C        2.44221428       8.55873508       7.26327463       0.71968109      -0.04289654      -0.70187311
C        4.94017677       8.51183465       7.39776528       0.14226608       1.16729960       0.09864937
C        7.38516374       8.50740379       7.59772901      -0.04287597       1.14293532      -0.24375266
C       -6.13713685      10.64790344       7.56687615      -0.68204888       0.67433505       0.38844535
C       -3.65675975      10.67898685       7.62096324      -1.52007013      -1.80437474       0.00792748
C       -1.16339551      10.66954260       7.50730276      -2.34618871      -1.38916652      -0.58459815
C        1.24735505      10.67589355       7.31052477      -0.32304754      -0.28454270      -0.64368853
C        3.66175742      10.64345994       7.22967853       2.98194976       0.55739408      -0.08593090
C        6.16487461      10.68059835       7.44016496       0.60169702      -0.00545845       0.13713364
C        1.24325253       0.74396789       7.54942069      -0.02759694       0.51416612       0.64751665
C        3.71204872       0.71637174       7.47497911      -0.05803520       0.30669918       0.05790690
C        6.15462260       0.68091889       7.53535934       0.74729936      -1.06304960      -0.81056573
C        8.63305393       0.71545090       7.42209486       0.23841814      -0.11482650       0.17355743
C       11.09972999       0.69652955       7.31879892      -1.12450693      -0.01521605      -0.18218991
C       13.55428082       0.66866336       7.42476173      -0.72233266       2.52550130       0.30916564
C       -0.05261955       2.85846317       7.49015948       1.47454438      -0.89974110       0.43812678
C        2.42435549       2.87915640       7.43622202       0.55825514      -1.75506716       0.77323408
C        4.92499843       2.83041402       7.55477650      -1.56412778       0.19336007       0.30683211
C        7.36511768       2.77436733       7.64183676      -1.55642450       0.94373370      -0.02814227
C        9.82552041       2.81885343       7.49601107      -1.06093847      -0.30075711       0.30409131
C       12.30182157       2.78993632       7.43312636      -1.13716216       1.82779518       0.31501284
C       -1.24328854       4.98712248       7.49014953       0.84886539      -0.68633002       0.10161308
C        1.23623010       5.01916455       7.52255411      -1.16289376      -1.69232633      -1.39889738
C        3.66863137       5.03036563       7.57715582       0.33329339      -1.77622219      -0.60629184
C        6.13932059       4.93359389       7.65743771       0.28642681       0.42318018       0.45347575
C        8.56968708       4.92691219       7.74960884      -0.11146941       0.47955728       0.05921045
C       11.03226550       4.93226322       7.65958320       1.15364807      -0.09396816      -0.42071604
C       -2.47721388       7.09699547       7.58484604       0.81465532      -0.21668692      -0.18888018
C       -0.01635772       7.11542030       7.32181435       1.16287988       0.22741510      -0.27490621
C        2.46368343       7.16941025       7.36278780      -0.44202586      -1.89971485      -0.13437871
C        4.96325858       7.10138427       7.53689116      -1.55203794       0.34223851      -0.14863059
C        7.37953858       7.09598076       7.62361284      -0.99250264      -0.63860520       1.02047110
C        9.78329602       7.07989686       7.75843245       2.26776004      -0.56643562       0.04637190
C       -3.66653816       9.23106855       7.68815852      -0.45709946       0.35399874      -0.21099270
C       -1.22397067       9.22610434       7.43721821       0.94257208       1.09120035       0.29413574
C        1.22397854       9.26635541       7.20347233      -0.26370957      -0.28503044       0.60972374
C        3.69717986       9.22157126       7.20746920       0.03620216       0.56729746       1.06570761
C        6.15665969       9.25881540       7.51257288       0.19376476      -1.00870162      -0.60226960
C        8.62623710       9.22873908       7.60161755      -0.48320567      -0.48368493       0.43370217
C       -4.93752289      11.36056102       7.63453140       2.11948401       1.74997072      -0.45295716
C       -2.42468356      11.33433130       7.49568687       0.18219583       1.15468449       0.15506220
C        0.02337445      11.38271993       7.42699881       1.35909156      -0.36558002      -0.09335547
C        2.47232637      11.37758062       7.23938227      -0.65319184       0.22999161       0.48487483
C        4.95615717      11.38251537       7.32224703      -2.15693444      -1.65644941      -0.37671804
C        7.39882467      11.41205077       7.52320092       0.10283718      -1.62627803       0.23716807
72
Lattice="14.76 0.0 0.0 -7.38 12.782534959858314 0.0 0.0 0.0 15.0" Properties=species:S:1:pos:R:3:REF_forces:R:3 REF_energy=-11166.974303198409 config_type=fd_force_conv_snapshot_042 split=train degauss_Ry=0.0019000869 kgrid=8 lattice_temperature_K=300.0 e1_config_id=T300_snapshot042 e1_source_identity=T300:snapshot042 diagonal_degauss_Ry=0.0019000869 pbc="T T T"
C       -0.02850012       0.01226967       7.55309857       0.02941085      -0.23944067      -0.35909775
C        2.43766549       0.01643133       7.46780040       1.77120649      -0.25281683      -0.10234765
C        4.95587838       0.00079455       7.41762301      -0.15160664       0.83357736      -0.01399554
C        7.41486760      -0.01221081       7.53726475       0.05691574       2.00983571      -0.33308204
C        9.87520636       0.02432283       7.63507207      -0.43756911      -1.90763616      -0.02945841
C       12.30121211      -0.01919589       7.65871916       0.04945311       0.50551796      -0.16127810
C       -1.26889327       2.14862641       7.59884870       0.46664957       0.32023810      -1.53661775
C        1.19776249       2.11855911       7.45606133       0.66659989       1.24909539      -0.36215968
C        3.71627929       2.10932434       7.40886501       0.01483809       0.21130946      -0.75038083
C        6.15885882       2.11000360       7.38909491       0.91348596       0.54128021      -0.50633660
C        8.66164869       2.14991552       7.40016847      -1.21380212      -2.05244686      -0.20846967
C       11.09142404       2.11927938       7.38346398       0.97502043       0.12859887       0.49368009
C       -2.47768776       4.32822649       7.52444051      -0.52370029      -2.46288260      -0.36681029
C       -0.07287277       4.26962832       7.59374882       3.33609865       1.28389708      -0.10705534
C        2.47223679       4.22989534       7.50305705      -0.51395401      -0.46631944       0.10488584
C        4.91748091       4.24258287       7.30363802       0.54964581       0.03720206       0.49793449
C        7.41834671       4.28491613       7.32972319      -1.80750121      -2.44541375      -0.75046670
C        9.83633483       4.25476018       7.34051252       1.10984522      -0.24056681       0.13277897
C       -3.72111952       6.40539458       7.43724092      -0.36050337      -0.21168895       0.03631040
C       -1.28213413       6.40029072       7.57579398       0.90850110       0.27034096      -0.40484102
C        1.23911339       6.39687655       7.69612705      -0.06918556      -2.01478791      -0.45725476
C        3.66473634       6.35147087       7.65126729       2.19685673      -0.44467383      -0.60600310
C        6.15751004       6.39761818       7.31836741      -1.17544974      -2.04905661      -0.25948499
C        8.60571918       6.42456944       7.27905999       0.35510946      -1.46960889       0.03538275
C       -4.87412492       8.58088950       7.33114336      -0.71772653      -1.00348357       0.19617826
C       -2.45702615       8.54221577       7.48156357      -0.28282109       0.11668129      -0.10396693
C        0.02039960       8.47406651       7.64816863      -1.83690846       0.86041582       0.29216242
C        2.44744378       8.50550595       7.75629987      -0.36591040      -0.37504579       0.13669219
C        4.88504630       8.48016878       7.59531713       1.30964616      -0.06481160      -0.10530442
C        7.40713318       8.51818291       7.28519715      -0.95319279       0.58143364       0.34348473
C       -6.16941116      10.70216664       7.42697350       1.27023886      -1.54593825      -0.13053748
C       -3.74151416      10.69622102       7.40523697       4.59132664      -0.36347814       0.07976822
C       -1.23696604      10.65424127       7.56451018       0.53546926       0.53183089       0.62128780
C        1.24269173      10.66846542       7.71043646      -0.88724348      -0.81195618       0.64893744
C        3.67146172      10.63390940       7.85348789       0.86546958      -0.70212585      -0.43143985
C        6.12865811      10.62892431       7.62331146       0.34401849       0.54569248      -0.54467124
C        1.20056877       0.70959280       7.47175507       0.15155239       0.14377583       0.27505584
C        3.72291980       0.70407476       7.44372558      -1.37771303      -0.16065821      -0.16470050
C        6.19573923       0.70856261       7.39331133      -0.74423615      -0.74333601       0.70072974
C        8.65243353       0.69971953       7.49272920      -0.09838403       1.10908083       0.33570508
C       11.10376765       0.69857287       7.56872699      -0.67157832       0.82313842      -0.11189878
C       13.50176882       0.71349993       7.54154142       0.54344199       0.36620788       0.90623673
C       -0.04132249       2.88570904       7.50782395       0.36081885      -2.26364473       0.69859547
C        2.47599108       2.78557559       7.35773569      -1.29908021       1.34296714       1.19029015
C        4.94650860       2.83351609       7.31256415      -0.88583863      -0.53068032       0.54875158
C        7.39263407       2.80032671       7.39367783       1.24359606       2.53461278      -0.28910307
C        9.89931394       2.81612463       7.31413780      -2.05757467       1.43109093       0.44114500
C       12.28658789       2.89079403       7.44913966       0.29105633      -0.79978432       0.84478917
C       -1.26432022       5.00183582       7.58395679      -0.19071800      -0.00469792       0.13565654
C        1.25628865       4.96894118       7.64201175      -1.80411815      -0.75281515      -0.48724642
C        3.69679406       4.93554262       7.52875889      -0.42006144       0.17178003      -0.58954984
C        6.14830267       4.93547593       7.24271896       0.91095599       1.80985068       0.82648548
C        8.63097624       4.97901038       7.28112145      -0.15310019       0.60261542       0.37154523
C       11.04708230       4.97358359       7.48210864      -0.35308188       1.26703270      -0.71597510
C       -2.50414140       7.11483915       7.43650566       0.69942388       0.37906777       0.87852590
C       -0.01700462       7.04031789       7.60427499       0.29273629       2.22084306       0.67085712
C        2.48339534       7.07253411       7.70130856      -1.75990160       1.20994212       0.37188359
C        4.91917495       7.04993035       7.52202302      -0.60536495       1.14515598       0.01791159
C        7.36918249       7.08246768       7.23586339       0.65264728       1.88040072       0.36659252
C        9.81735065       7.12511916       7.38608155       0.93442862       1.15974236      -0.70473115
C       -3.65173717       9.30874130       7.37719478      -1.11682371      -2.15550259       0.23471755
C       -1.23456888       9.21341527       7.64979493       1.01952519       0.52876151      -1.06790333
C        1.20122153       9.23060030       7.73150448       1.45108357      -0.42712580      -0.09451015
C        3.66770590       9.17756175       7.81105532       0.72255969       1.68865685      -0.47831441
C        6.13140929       9.21150369       7.42804121       0.35896482      -0.09048201       0.94907902
C        8.65334982       9.27101998       7.33035188      -1.74613514      -0.21042962      -0.07834177
C       -4.89889631      11.36418243       7.44103363      -3.95017091       2.53579626      -0.07883157
C       -2.46593571      11.40252678       7.44412489       0.34471629      -2.07283468       0.21913667
C        0.02401705      11.40545973       7.67855039      -1.17307327      -2.82868219      -0.85792776
C        2.47057478      11.34050038       7.77468813      -0.07300493       1.64279222      -0.18845621
C        4.89733586      11.36403374       7.77015616       0.73055968      -1.55147512      -0.24889950
C        7.37065430      11.37660215       7.52919942      -1.24683848      -0.30393113       0.18427688
72
Lattice="14.76 0.0 0.0 -7.38 12.782534959858314 0.0 0.0 0.0 15.0" Properties=species:S:1:pos:R:3:REF_forces:R:3 REF_energy=-11166.7493517221 config_type=fd_force_conv_snapshot_059 split=validation degauss_Ry=0.0019000869 kgrid=8 lattice_temperature_K=300.0 e1_config_id=T300_snapshot059 e1_source_identity=T300:snapshot059 diagonal_degauss_Ry=0.0019000869 pbc="T T T"
C       -0.00440673       0.01729802       7.54026919      -0.68236769      -0.62500715      -0.14337500
C        2.40974171       0.04092027       7.61788164       1.14138751      -1.20099931       0.47706228
C        4.87377724      -0.02987609       7.57966609       0.41075610       0.42426159      -0.15540365
C        7.34540582      -0.00147929       7.49143193       0.64964295      -0.15823006       0.10574279
C        9.81480962      -0.00126106       7.42329096       1.50184872       0.63068955      -0.62244505
C       12.29077688       0.00547930       7.40708722      -0.45907818      -0.46744018       0.00904026
C       -1.22699854       2.13058518       7.41138127      -0.08793481      -1.02351992      -0.38432850
C        1.22607226       2.15593389       7.42148114      -0.20489352      -0.12548475       0.37652597
C        3.69315275       2.16886314       7.72227809      -0.27991214      -0.75432593      -0.71131909
C        6.10177402       2.10676353       7.72581899       1.08596301       0.50394008      -0.33767661
C        8.59582982       2.10345015       7.66882367       0.77099876       0.12316664      -0.78515371
C       11.10200521       2.17156159       7.39030910      -1.78519740      -2.65551068       0.72723807
C       -2.45659264       4.25996735       7.46544141       1.88235219      -0.99902604      -1.23116838
C        0.06657753       4.24310987       7.25379432      -3.37210490       0.44537163       0.25844420
C        2.46301072       4.31279158       7.43154162       1.64402095      -1.77700201       0.86388475
C        4.91223859       4.30050585       7.65804299      -0.96421896      -0.01596527       0.55176979
C        7.31653407       4.24009268       7.66188247       1.04274817       0.18536034       0.78500202
C        9.79642899       4.25739726       7.64936790       1.18532972      -0.74934904      -0.53363323
C       -3.63611280       6.36042709       7.47990981      -0.60981630      -0.13322377      -0.30348685
C       -1.18054746       6.37922453       7.28079145      -0.58128092      -1.04266332      -0.33472935
C        1.27110735       6.39365167       7.33521691       0.16276317      -0.13838834      -0.60793837
C        3.72544443       6.44712471       7.62040520      -1.32109065      -0.56792429      -1.18303913
C        6.19901816       6.38399005       7.53486434      -2.16204399       1.82889433       0.47236770
C        8.60848822       6.41129813       7.67700520       1.32023422      -1.40113372      -0.46438211
C       -4.90424493       8.45209439       7.67140687       1.48346250       2.69752353      -1.46435175
C       -2.42152374       8.49356374       7.43819658      -1.55951933      -0.16983345      -1.09362876
C       -0.00012961       8.51804368       7.34497758       1.19431341      -0.58917497      -0.02992147
C        2.42181687       8.54996971       7.43945393       0.70964144       0.58728984      -1.55819059
C        4.87108252       8.52655052       7.44579669       2.30733420       0.02614401      -0.07581540
C        7.40910599       8.52181129       7.52049344      -1.12962034       0.19716427       0.12019933
C       -6.15940985      10.61656726       7.64864562       1.01365408       2.12954088      -0.11560451
C       -3.67532903      10.63955081       7.53919459      -2.33107320      -0.89943899      -0.56613403
C       -1.23409355      10.64679488       7.47090066      -0.04562937      -0.90536487      -0.19815235
C        1.20591355      10.67481606       7.34507127       1.32552298       0.47082838       0.67014236
C        3.67498413      10.63248192       7.40686126       0.82209327       0.96100946      -0.65831374
C        6.18285672      10.66495875       7.52877539      -2.50547704      -1.10347480      -0.61029762
C        1.18089307       0.74008032       7.55568486       1.66156796       0.52918908      -0.15220905
C        3.66948546       0.71929193       7.67702643      -0.30143562       0.41243117      -0.23342326
C        6.10917903       0.68463654       7.57289219      -0.29881901       0.48265108       0.60662788
C        8.59780432       0.70190789       7.47059140      -1.31647475      -0.07846775       0.83270164
C       11.05368265       0.72618933       7.35412556       0.53228675       0.05547926       0.50059610
C       13.53469496       0.69486259       7.44373009      -0.71870869       1.03655618       0.02491039
C       -0.03059904       2.84621657       7.32094280       2.61560176      -0.45719151       0.34040635
C        2.48384592       2.86496375       7.51943045      -1.25345599       0.56934997      -0.14286360
C        4.91049466       2.89220038       7.73694769       0.02033408      -1.40455226      -0.12850296
C        7.35925927       2.80184394       7.74032715      -0.62430113       0.71573984      -0.44662839
C        9.85443645       2.80323309       7.59423737      -1.29474096       2.30770598      -0.03202103
C       12.31893486       2.81751673       7.42817922       0.03904066       2.10304232      -0.07940029
C       -1.18392605       4.95641653       7.29428870      -0.73318940       0.03884474       0.43305348
C        1.24307939       4.95664375       7.30778211       1.26557925       1.77055343       0.00718263
C        3.69844343       5.02124225       7.62620345      -0.88280164      -0.10920324      -0.61560720
C        6.11172218       5.00336787       7.63972725       1.70985636      -1.26028664      -0.20189150
C        8.54049412       4.97339594       7.70356254       1.55499394      -0.22313576      -0.34651246
C       11.08788830       4.93594692       7.46091109      -1.76352172       0.68405382       1.15002590
C       -2.42969454       7.06344159       7.30513040       0.65893415       0.88244940       1.18785609
C        0.04676481       7.06225080       7.26249151      -0.41157757       2.18452186       0.50561284
C        2.49126696       7.16389118       7.37518616      -0.76103522      -2.31451144       1.56081054
C        4.93602504       7.12702692       7.58174304       1.01504427      -0.50479445      -0.50799034
C        7.40637791       7.10645088       7.50913765       0.26757548       0.14363031       0.75379757
C        9.91421064       7.08045831       7.65070055      -2.17277218      -1.68148296      -0.09984416
C       -3.69026096       9.19174916       7.41321948       0.71141473       0.37813060       2.20161173
C       -1.20378240       9.20480388       7.44408153      -0.98893575       1.01307430      -0.39773757
C        1.20555066       9.28382969       7.34628764      -0.03540383      -1.90831570       0.24424272
C        3.66318694       9.21875047       7.34186485      -0.32512576       0.89042316       1.34446044
C        6.13773155       9.20744995       7.45853463       1.03766587       1.54168796       0.42084819
C        8.65417070       9.21363580       7.64315000      -1.70261665      -0.64873664      -0.06489130
C       -4.93016913      11.38161151       7.65266134      -0.00100042      -0.76605196      -0.49540376
C       -2.48607154      11.32917901       7.44464672       1.22556054       1.02389375       1.00022366
C       -0.01087376      11.35181336       7.48400546      -0.66391900       1.06199750      -0.89149634
C        2.48012834      11.37945989       7.36436878      -1.78162074      -0.87192253       0.19469962
C        4.90610003      11.35577329       7.44817991       0.78478065       0.01491934       0.10111017
C        7.37094881      11.38456892       7.58026289       1.35841022      -1.32037589       0.17671501
72
Lattice="14.76 0.0 0.0 -7.38 12.782534959858314 0.0 0.0 0.0 15.0" Properties=species:S:1:pos:R:3:REF_forces:R:3 REF_energy=-11165.047700349303 config_type=fd_force_conv_snapshot_003 snapshot_index=3 split=validation degauss_Ry=0.00285013035 kgrid=8 lattice_temperature_K=450.0 trajectory_seed=0 p4_key=seed0:snapshot003 e1_config_id=T450_seed0_snapshot003 e1_source_identity=seed0:snapshot003 diagonal_degauss_Ry=0.00285013035 pbc="T T T"
C       -0.02030902      -0.01939019       7.73003020       0.59096112       2.57076043      -0.83916873
C        2.41023112       0.01619341       7.77390649       0.19538456      -1.66889432       0.18307103
C        4.87394512      -0.04254704       7.61737085       0.42248033       1.65505047       0.70411794
C        7.37294363       0.00436466       7.49248159      -2.18678032       0.91475377       1.48823858
C        9.83420387      -0.02112779       7.44368783      -1.32753281       1.02629362       0.17461210
C       12.29065780      -0.00190723       7.52256476       1.63826657      -0.39222719      -1.11656608
C       -1.25316303       2.09083998       7.33165713       0.99416692       3.05302328       1.77645591
C        1.20614100       2.12256824       7.60126804       0.31421426      -0.49711688       1.24381615
C        3.63964486       2.10617960       7.67694538       0.40987292       0.09159504       0.53944573
C        6.08255997       2.10889677       7.72169411       3.30654074      -2.36489143       0.38115627
C        8.54424248       2.16757104       7.66677632       0.97361815      -1.50567504       0.47294080
C       11.03156658       2.08442245       7.46754416       0.15014523       3.77774681       0.22802574
C       -2.45311913       4.26432704       7.52553388      -1.23746501      -0.25304103      -0.55536214
C        0.03204577       4.27054150       7.47883691      -0.75787868      -1.05670360      -0.78021257
C        2.45681558       4.25018606       7.52926759       0.70328130       0.06419787      -0.09730006
C        4.94369932       4.19885421       7.57506594      -0.13749694       0.68708978      -1.07787946
C        7.38596745       4.28985414       7.50297536       0.75779872      -0.85545204       0.70416396
C        9.83492193       4.31202035       7.64157541       1.06584387      -1.12740945      -0.45601291
C       -3.66233380       6.44065515       7.39854408      -1.03113681      -2.38958996       0.94001049
C       -1.20138258       6.36677816       7.49496579       1.22452516      -0.20618782      -0.31801127
C        1.31532494       6.39493360       7.39684132      -2.48789609       0.01762903       0.36535273
C        3.67829913       6.34491475       7.39922159       1.93766999       0.64510341      -0.41487655
C        6.12972845       6.34499096       7.29193968       2.28926423       1.53080243      -1.32003907
C        8.68234846       6.41038067       7.39088122      -2.08955071       1.82420695      -0.62738465
C       -4.86488628       8.57567154       7.53510509      -1.93858479       0.73579830      -1.43356819
C       -2.41419264       8.45118930       7.41941086      -1.03499064       3.68753298      -0.43511370
C        0.00712576       8.47573810       7.37312224       0.37980053       2.39247628       0.49136250
C        2.47280059       8.56825298       7.32835444      -1.17317586      -1.39541842       1.37938913
C        4.89942204       8.54743323       7.35324693       2.38488922      -1.94320737      -0.07117353
C        7.38645980       8.50203647       7.38311806       0.68994422       1.09839610      -0.32888575
C       -6.21308833      10.67685620       7.54510627       5.16401365      -0.59091433       0.86820394
C       -3.63995233      10.69819496       7.56465906      -2.88830684      -1.41805441       0.24638419
C       -1.20780228      10.66385003       7.46336937      -1.38071248      -0.90441999       0.15656424
C        1.21735949      10.66837405       7.43882658      -2.82910591      -0.33621442      -0.09918030
C        3.69543325      10.65737480       7.37197787      -0.42057257       0.26913639       0.52004264
C        6.18969622      10.69439159       7.51785565      -0.33893747      -2.53762020      -1.07827516
C        1.19066598       0.70034999       7.83198504      -0.08649088       0.95951616      -1.38654297
C        3.61915300       0.68359608       7.68716449       1.78580624       1.11255079       0.15569752
C        6.10319851       0.64905390       7.67041985       0.41402783       2.37156396      -0.76706446
C        8.57088544       0.67962563       7.59380954       2.29880817       2.55977051      -0.76632732
C       11.08586490       0.70213172       7.41551156      -1.71287895      -1.31229337       0.59664326
C       13.54332821       0.73466866       7.52915812      -1.71325536      -2.70460332       0.16593488
C        0.01234253       2.81782343       7.48550528      -1.62046425       1.19646208      -0.70847956
C        2.41364251       2.86592775       7.66039942       1.15858511      -2.03081694      -0.49890431
C        4.92225789       2.76171156       7.70914948      -3.57156260       2.83685624      -0.55544956
C        7.31533492       2.85639684       7.77256109       0.78216326       0.55986697      -1.66018291
C        9.78618998       2.88253619       7.61867788       0.93530151      -1.73191334      -0.18597895
C       12.27755104       2.84716705       7.41349838      -0.39675901      -1.50930312       0.06779665
C       -1.23676540       4.95022534       7.47084750       1.91149539       0.48682836       0.36851365
C        1.27234943       4.97562824       7.38750865      -0.92010500       0.06672964       1.07782110
C        3.71281443       4.91786793       7.50736917      -0.22871428       0.52424768      -0.00837640
C        6.16764961       4.93954411       7.29596553      -1.23448690      -0.56589235       2.05868616
C        8.65582948       5.03286033       7.53723058      -2.03693591      -1.67317032      -0.32424362
C       11.06951224       5.00347468       7.54886120       0.54245289       0.14026062      -0.30484413
C       -2.42282327       7.04360268       7.44865202       0.50135175       2.11673575      -0.24523850
C        0.06893890       7.10030621       7.46494830      -1.48432871      -2.00250241      -0.61411442
C        2.49067840       7.11701277       7.41061773       0.66898639       0.51596924      -0.73881652
C        4.93137515       7.04761947       7.26263116      -1.56656570       2.10667323       1.12228807
C        7.40844067       7.10835102       7.22985010      -0.48868469      -1.57948781       1.47879878
C        9.87532012       7.16677340       7.39023313       0.72425996      -0.51567639       0.64213430
C       -3.65625536       9.29323229       7.43119677       1.07991398      -2.44816818       0.95721656
C       -1.21376784       9.21669641       7.35895946       0.04910781      -0.49249095       0.76033485
C        1.20056817       9.25005959       7.42070891       1.60911386      -0.68076924      -0.82671482
C        3.69516700       9.25158873       7.42774385      -0.30139937       0.31333340      -1.16384224
C        6.17488716       9.24160435       7.40070263      -1.29332043       0.26632335       0.11872275
C        8.60826502       9.27058116       7.50349331       0.21010361      -1.40020504      -0.16595828
C       -4.91647921      11.38244401       7.70917422      -0.93120831      -0.77413885      -0.95071630
C       -2.44422930      11.35333619       7.59864557       0.78416590       0.13749874      -0.73708900
C       -0.04787278      11.42680319       7.49185689       2.68044909      -3.69843085      -0.74321876
C        2.39186173      11.35227318       7.38010074       4.11743942       0.62179302       0.22819055
C        4.95980218      11.32999950       7.44099189      -2.07753183       2.26561625       0.65041377
C        7.41096337      11.40438141       7.52814255      -2.92139746      -0.63728777       1.08856703
72
Lattice="14.76 0.0 0.0 -7.38 12.782534959858314 0.0 0.0 0.0 15.0" Properties=species:S:1:pos:R:3:REF_forces:R:3 REF_energy=-11165.323901337815 config_type=fd_force_conv_snapshot_117 snapshot_index=117 split=validation degauss_Ry=0.00285013035 kgrid=8 lattice_temperature_K=450.0 trajectory_seed=0 p4_key=seed0:snapshot117 e1_config_id=T450_seed0_snapshot117 e1_source_identity=seed0:snapshot117 diagonal_degauss_Ry=0.00285013035 pbc="T T T"
C        0.01342284      -0.04101902       7.68727052      -0.96696516       0.64556775      -0.47387360
C        2.48083332      -0.01406132       7.55392383      -1.66433421      -0.64679854       0.15297858
C        4.93554257       0.02079314       7.38128615      -0.98541462      -1.27249578       0.90155141
C        7.30724508      -0.02065746       7.43095882       2.21919344       2.01518901      -1.01731019
C        9.90790423       0.00791755       7.36170249      -3.55581176      -1.03696036      -0.43482368
C       12.28427369      -0.03871546       7.57575240       1.94392265       3.74195500      -0.96252306
C       -1.15890606       2.17558403       7.65382375      -3.53392293      -2.00709286      -1.11124878
C        1.28613230       2.12075531       7.65874133      -0.75940129       0.64214458      -0.33883489
C        3.69076925       2.10460470       7.49957622       1.10494984       0.96025149       0.78604614
C        6.14069488       2.19826470       7.58068297       1.97057085      -2.23186435      -1.34482708
C        8.60352195       2.12222604       7.31779849       0.49614886      -0.79730937       0.96361424
C       11.06074565       2.07566540       7.45566970       0.11367027       3.74823878       0.57802898
C       -2.45873294       4.26639836       7.53778144      -1.51034596      -0.81256810      -0.67654260
C       -0.00709020       4.28023564       7.51660619      -0.50218298       0.85716517      -1.03155590
C        2.40512224       4.31158371       7.46361100       1.49418143      -1.52578955       0.81115194
C        4.90445271       4.22238186       7.57425461      -0.11434776       2.73042337       0.33224309
C        7.40007678       4.28351316       7.49766063       0.68366661      -1.24755145       0.46849073
C        9.80806640       4.22557593       7.43052874       3.61160470       1.21670438       0.80760973
C       -3.67726075       6.36257155       7.54603295      -0.80899632       2.35736607      -0.82294713
C       -1.25315206       6.39106304       7.36708146       1.29554340       1.23975741      -0.11441872
C        1.28268443       6.46035517       7.28140958      -4.01824061      -0.65145429       0.34655360
C        3.62921701       6.38145001       7.41739759       1.37592483       0.73116260       0.74620973
C        6.06777060       6.37821245       7.48971031       1.57436720      -1.70594135       0.78884736
C        8.58273250       6.33372502       7.56165078       1.32533349       2.92081921      -0.73033445
C       -4.90327988       8.52511427       7.61871411      -2.74828045      -0.82628442      -0.82770161
C       -2.49198705       8.52990177       7.56636582       1.34396962       0.16652264      -0.68377049
C        0.00681367       8.54733669       7.38730314       0.70275834      -0.24820941       0.65892309
C        2.50642467       8.59669102       7.43846463      -1.45840633      -2.10314722       0.01490546
C        4.97837888       8.51625166       7.55916754      -3.63389591      -1.57995883      -0.50518963
C        7.35795801       8.52056192       7.61086732       0.63115800      -3.13777764      -1.30081776
C       -6.18025941      10.63050089       7.54930940       1.27775702      -0.78333183       0.49209758
C       -3.71596143      10.67988385       7.47975541       2.16509101      -1.10512724       0.57590294
C       -1.20980276      10.56792932       7.43840122      -0.82820426       4.53034933       1.02578917
C        1.23172977      10.72387752       7.51753527       0.72912552      -2.39870967      -0.84853166
C        3.73432616      10.62717451       7.50991985      -0.53119763       1.66126997      -0.70137792
C        6.17235043      10.63202841       7.59815612      -2.05857174      -0.05565410      -0.93019581
C        1.23520752       0.68331448       7.68231920       0.89401011       0.64900712      -0.32886183
C        3.67613338       0.68029116       7.46042760       0.81781855       1.09142198       0.03165594
C        6.10727845       0.75655725       7.42619150       1.67827962       0.30322768       0.49038702
C        8.60489826       0.68168163       7.27823490      -0.17884619       0.16676972       1.18277405
C       11.07964116       0.71536856       7.43728536       0.96973167      -1.80340852       0.29312427
C       13.55235695       0.70848553       7.59842725       0.08160681       0.00427549       1.07953577
C        0.04179184       2.86888046       7.57180725       0.85921691      -0.54232485       1.02043074
C        2.52687562       2.86896201       7.61375785      -3.03785094      -0.74256725      -0.91281773
C        4.92967043       2.85344103       7.57439383      -1.53627810      -1.20750703      -0.22249890
C        7.41853926       2.85892892       7.47862794      -2.02295065       0.08325078      -0.03939650
C        9.82891361       2.83584962       7.47003366       0.20720340      -1.83154076      -1.47670410
C       12.25564527       2.83585492       7.55395910       3.05174621      -0.11585288       0.26980874
C       -1.25819511       4.97015967       7.42031457       1.26557154       0.12061225       0.74665041
C        1.17914155       5.02195771       7.38792529       1.76350140       0.28743828       0.16321594
C        3.64259833       4.98052951       7.52698163       0.76149159      -0.56548354      -0.85559654
C        6.16811163       4.93148527       7.59537225      -2.29156845       1.25319245      -0.96082074
C        8.66270274       4.96265650       7.48970936      -3.16799607      -0.52610967      -0.16295472
C       11.07535737       4.98337888       7.48206183      -0.86744367      -1.97763676       0.20358149
C       -2.45272254       7.12753261       7.44904449      -1.15158502      -1.15980972       0.86860581
C       -0.01976905       7.16208806       7.30459094       1.36153565      -2.49531218       0.07675926
C        2.47446237       7.15738565       7.34319791      -0.32234769       0.19679018       0.10792643
C        4.84127693       7.07625790       7.53227844       2.28289921       1.17724592      -0.50069380
C        7.32500807       7.01819345       7.48749117       0.63893970       2.81391737       1.17273415
C        9.84414526       7.10826861       7.54307551      -0.59531143      -1.32276161       0.82971273
C       -3.73198622       9.24010907       7.55690168       2.15466595       0.97514075       0.12362584
C       -1.20601162       9.21672085       7.53239122      -2.06261532      -1.23193122      -0.67721289
C        1.25081807       9.25189925       7.47701008      -0.03536964       1.89984520      -0.36024755
C        3.73286914       9.23176081       7.53898227       1.05776110       0.60149056      -0.17461570
C        6.15958548       9.20792096       7.51796060       0.40830635       1.12397446       1.04371850
C        8.56577635       9.20977236       7.57412704       2.01884974       0.28425577       0.36131918
C       -4.92751681      11.34022003       7.52015788      -0.97033999       0.94254071      -0.04135208
C       -2.41174547      11.37291680       7.49102585      -1.83933789      -1.13835078      -1.12143678
C       -0.02757135      11.36716087       7.45728771       0.46699152      -0.79625059      -0.01622700
C        2.50562218      11.35773224       7.40874919      -0.31990205       0.49487719       0.88215835
C        4.94688308      11.39510834       7.46521389      -0.02825694      -3.57766048       1.42231036
C        7.36145041      11.29661241       7.63781200       1.30745532       2.57437386      -0.11271793
72
Lattice="14.76 0.0 0.0 -7.38 12.782534959858314 0.0 0.0 0.0 15.0" Properties=species:S:1:pos:R:3:REF_forces:R:3 REF_energy=-11165.60146071861 config_type=fd_force_conv_snapshot_003 snapshot_index=3 split=validation degauss_Ry=0.00285013035 kgrid=8 lattice_temperature_K=450.0 trajectory_seed=1 p4_key=seed1:snapshot003 e1_config_id=T450_seed1_snapshot003 e1_source_identity=seed1:snapshot003 diagonal_degauss_Ry=0.00285013035 pbc="T T T"
C        0.03804084      -0.00661988       7.50975502       1.53657738       0.08692103       0.45797261
C        2.47029267       0.02801093       7.55287577       0.63100219      -0.69661778       0.72686552
C        4.92822469      -0.01806277       7.61040178      -0.47660591      -1.12923108      -1.69255490
C        7.40888825       0.00453487       7.39050723      -1.14636928      -1.24660091       1.15035861
C        9.84128537       0.01934332       7.56072876       0.78301533      -1.33926321      -0.13283142
C       12.29913251       0.03250534       7.49031645       1.45651709      -0.10532447      -0.26104719
C       -1.23835167       2.07068717       7.64361992       1.39219323       2.90908907      -0.85587242
C        1.22348786       2.16968550       7.57729420      -0.24106638      -1.80113721       0.50814923
C        3.71681294       2.11578130       7.66447689      -1.41211773       0.49540761      -1.18499882
C        6.15483855       2.12158610       7.36641342      -0.16595211       0.10031982       2.04505494
C        8.63535455       2.13178821       7.54442275       0.79098395       0.29568946       1.09148960
C       11.09528641       2.15676771       7.66638498      -1.55574444       0.41579880       0.27252125
C       -2.44057077       4.26503817       7.55041212      -0.43313627      -1.31166628       0.60354153
C       -0.00526347       4.22019620       7.71936709       0.30289524       1.41907900      -0.76621394
C        2.48972706       4.26572284       7.63141426      -1.10538770      -0.86747067       0.41711264
C        4.91051840       4.28036399       7.41178780       0.16868776       0.44738892       2.04057068
C        7.39474146       4.25308477       7.54956429       0.57872190       0.91309155      -0.00677177
C        9.82158234       4.29118174       7.66099647       0.98774687       1.10542318      -0.28268894
C       -3.70079537       6.37641264       7.38354730      -1.28182271       0.61634639      -0.36759062
C       -1.29912099       6.34647776       7.51583597       1.21439399       1.91082767      -0.66210252
C        1.19976549       6.38121445       7.68563209       0.22901947       0.02945404      -0.10331695
C        3.66712030       6.37829964       7.72213913      -0.30513312       2.69848667      -1.11080758
C        6.14499618       6.44710720       7.43654293      -1.10238671      -1.94083707       0.10264358
C        8.55816936       6.46227422       7.41397589       0.98743423      -0.75604960      -0.07324224
C       -4.92773816       8.48431210       7.39942606       2.22177046       1.33275446      -0.12900022
C       -2.46428702       8.53518455       7.29758962      -0.54837748      -1.36986988       0.13744680
C       -0.02044388       8.47304209       7.36488527       0.49505691       0.07799390       0.71516494
C        2.49475038       8.53040505       7.36969656      -2.37730472      -1.34202329       0.04504521
C        4.93519093       8.51429119       7.34722367      -0.11364482       0.56944433      -0.09077922
C        7.40179884       8.56395988       7.51860542      -0.33353070      -0.23555136      -1.16726129
C       -6.19143798      10.63163047       7.57967442       2.61679938      -0.14471428       0.00750454
C       -3.75777890      10.62173356       7.45997477       1.71411360       1.64759016       0.19597128
C       -1.27160349      10.60431279       7.36038873       1.93837061       0.65675642       0.86492913
C        1.23590089      10.64094907       7.29245493      -0.29574088      -0.76628799       0.77793020
C        3.70824106      10.62857301       7.31191100       0.79045327       2.06050958      -0.57184934
C        6.17508514      10.66602858       7.37377305      -1.03382310       0.46801148      -0.05471025
C        1.29961303       0.74729722       7.61502509      -3.43941895      -0.64428374      -1.00923050
C        3.70653558       0.71226093       7.58075829       0.70880378      -0.54383228       0.76553697
C        6.12850388       0.67580628       7.45634692       1.88585249       1.46038634      -0.19488345
C        8.63972249       0.73593764       7.52454351      -1.00809921      -1.63089110      -0.66829090
C       11.06080107       0.73883542       7.65018209       0.97030142      -0.42774081      -0.79507560
C       13.60995504       0.71441662       7.48945699      -3.28575414      -1.72361125       0.68178020
C       -0.03358715       2.82806790       7.62578307       0.89985011      -0.29628107       0.45013537
C        2.44595534       2.80140325       7.60065136       2.08941650       2.89515241       0.38392252
C        4.90365233       2.86767352       7.52671994       1.60012400      -0.97396319      -0.95099218
C        7.43277516       2.79647127       7.55273453      -2.92989161       2.19720820      -1.36566356
C        9.82186596       2.88602517       7.71489136       1.41758313      -1.14549999      -0.80857415
C       12.33196219       2.82928366       7.60019620      -1.11217258       0.19631221       0.50093137
C       -1.22449900       4.95074076       7.61278791      -0.52515476       0.07377652      -0.03254785
C        1.23896372       4.94735467       7.69060520      -0.15095692       0.02897350       0.31115413
C        3.69698918       5.01562066       7.65378798      -0.05482003      -2.86586163      -0.80174941
C        6.15242431       4.96838973       7.49130231       0.63468864       0.95656762      -0.75024585
C        8.63488601       5.06922761       7.55945110      -2.37514139      -3.01575257      -0.00050548
C       11.08487077       4.96905857       7.56672967      -0.43783650       0.07692226      -0.44482682
C       -2.51384136       7.11395641       7.24747555       1.56285097      -1.54914288       1.75890684
C       -0.04810437       7.05319577       7.56988070       0.01601000       0.67825521      -0.64756601
C        2.42915269       7.12300129       7.66261571       0.66930957      -0.55829680      -0.50140445
C        4.87303204       7.09959430       7.49172623       1.71402104       0.44767508       0.19123171
C        7.34213743       7.18312287       7.35635384       0.28836567      -1.60963116       1.14114994
C        9.80057429       7.11243224       7.35305938       1.10328916      -1.52012566       0.34368193
C       -3.67856874       9.22039983       7.36542675      -1.98707425       0.15921479       0.05452667
C       -1.24631774       9.19024549       7.41169066       0.66666185       0.60986593      -1.31307087
C        1.22004730       9.19355237       7.26839103       0.56345212       0.58992085       0.58018074
C        3.70035675       9.22078097       7.21534216       1.11124107       0.34100670       1.29463760
C        6.18214962       9.26199603       7.39365410      -1.30582370      -0.81831349       0.17330495
C        8.66734402       9.18691283       7.53220116      -2.72463144       2.63616210       0.05591121
C       -4.98164191      11.39302211       7.58633962       1.32556797      -1.75459947      -0.66650939
C       -2.45932038      11.32548963       7.43504493      -2.31488553       0.63472438       0.74849364
C       -0.00846679      11.31645391       7.43665538       0.27854432       1.65986641      -1.36869514
C        2.48314734      11.34857238       7.40670059      -0.53764210       0.61963175      -0.29946513
C        4.97322128      11.42029230       7.30847855      -2.33662627      -1.97058011       0.74499437
C        7.38186784      11.33642335       7.51299411       0.11238652       1.58304596      -0.20781687
72
Lattice="14.76 0.0 0.0 -7.38 12.782534959858314 0.0 0.0 0.0 15.0" Properties=species:S:1:pos:R:3:REF_forces:R:3 REF_energy=-11165.760165536673 config_type=fd_force_conv_snapshot_117 snapshot_index=117 split=validation degauss_Ry=0.00285013035 kgrid=8 lattice_temperature_K=450.0 trajectory_seed=1 p4_key=seed1:snapshot117 e1_config_id=T450_seed1_snapshot117 e1_source_identity=seed1:snapshot117 diagonal_degauss_Ry=0.00285013035 pbc="T T T"
C       -0.05000027       0.02151760       7.50247161       1.92236550      -1.74276803      -0.85875411
C        2.47690648      -0.02945332       7.44238580      -0.35295461       0.12142395      -0.73745409
C        4.91298787       0.04741197       7.57132662       1.00237388      -0.98056707       0.37389856
C        7.40509323       0.04868745       7.81633378       0.81938358      -0.74978588      -1.38567497
C        9.85011311      -0.04237571       7.57232609       1.25527864       2.03071513       0.24030610
C       12.29065077       0.01289411       7.45251599       0.26827636      -0.55616021      -1.16236489
C       -1.25898836       2.14186365       7.56188847       0.52345655      -1.53381730      -0.67158449
C        1.17263177       2.09526099       7.41381350       2.54403356       0.79915568       0.53390680
C        3.64643617       2.14384771       7.50049760       1.63791921      -0.47174755      -0.08970990
C        6.13832718       2.16774596       7.73322836       0.97210042      -0.26437497      -0.53722995
C        8.62356927       2.17856273       7.64229982       0.61677268      -1.23831193       0.45313174
C       11.07954703       2.10262451       7.56446142      -0.45749233       0.49883232      -0.27731045
C       -2.42671855       4.25522119       7.63124959      -1.67633946       0.13780727      -0.96220888
C       -0.03075305       4.22006533       7.59693458       2.35550639       1.06930792      -0.16024015
C        2.45408689       4.26321430       7.49735729       0.38302238      -0.00528490       0.04178223
C        4.94166561       4.18660198       7.56112857      -0.59231481       5.69412781      -0.95773747
C        7.35672340       4.26452974       7.59579811       1.79909190       2.95393605      -1.15969608
C        9.89358218       4.26078495       7.54679026      -1.64727854       0.64584929      -0.55434553
C       -3.68608401       6.40818790       7.37650196      -2.59362448      -0.49640237       0.60475535
C       -1.25802839       6.35861390       7.50336125      -0.36389157       1.01266909       0.63148865
C        1.21065273       6.37123623       7.53837475      -0.55340322       1.26111299      -0.15569212
C        3.69496331       6.42574662       7.36804357      -0.57817065      -2.87278844       0.93558587
C        6.16566180       6.38980902       7.32974397      -0.04521722       0.86135504       0.69431612
C        8.56751032       6.36286223       7.36658473       2.23555569       0.95194709       0.32604673
C       -4.92778126       8.50434508       7.43512372      -0.35687400      -0.23186208      -0.44137897
C       -2.40965487       8.56606640       7.49445629      -2.13451827      -3.00615927      -0.14773096
C        0.00164065       8.50762743       7.66074958       0.04997787       0.06405158      -1.03383904
C        2.47080661       8.56757510       7.41202702      -0.29694467      -1.43493859       0.98815773
C        4.84311085       8.47522310       7.33070218       5.79141578      -0.09238668       0.22275729
C        7.41115624       8.56252758       7.37229891      -0.82986828      -2.13568530      -0.05872168
C       -6.11585650      10.68159966       7.48174882      -1.19788828      -0.74259219      -0.69200779
C       -3.66735288      10.61626308       7.36105532      -0.44325124      -0.20740446       0.92774684
C       -1.26142721      10.68246294       7.54723704       1.20650738       0.66896093       0.13146436
C        1.14624123      10.64656618       7.59259099       4.09383978       0.72336316       0.45231310
C        3.73813082      10.62668834       7.33894570      -1.16233917       2.49244077       1.61329550
C        6.15893093      10.62016612       7.31744533       0.25303023      -0.03027834       0.97403132
C        1.22634119       0.68699836       7.42585083      -0.68506478      -0.23489933       0.43668130
C        3.68413117       0.72073957       7.46053452      -0.26595183       0.19932169       0.42566233
C        6.18043833       0.75430516       7.77471430      -1.30272064      -0.35972381      -0.52452793
C        8.69587486       0.72324850       7.72634684      -3.75577005       0.86322783      -0.03719512
C       11.06838485       0.70636334       7.45435545       0.01171523      -0.85471645       0.83783819
C       13.50549536       0.71417645       7.41489913      -0.05024733       1.09261111       1.29889252
C       -0.02414374       2.81298220       7.54009053      -0.33838546       0.21451614      -0.04353675
C        2.45139667       2.83408485       7.44908538      -2.04697658       0.31910630       0.04893118
C        4.90828594       2.85048302       7.57347517      -0.27769405      -3.09443167       0.66612706
C        7.37853754       2.90741958       7.66089910      -0.23344820      -3.33362911       0.62242731
C        9.87739620       2.83623730       7.58675156      -0.88470169       0.84825630       0.09980663
C       12.28664495       2.81802813       7.59885615       0.39591903       1.44351502       0.23321783
C       -1.19739235       4.95880442       7.59697012      -2.07850782      -0.61897920      -0.13362023
C        1.20203754       4.97081894       7.54937332       0.77808704      -1.19087431      -0.15777626
C        3.72735990       4.94400003       7.49764157      -1.77302477       1.07945067      -0.48462646
C        6.14795872       4.99905500       7.45956133       0.09386043      -2.17650567       0.72170609
C        8.62673952       4.98352259       7.47748881      -0.59984197      -2.32330358       0.41364602
C       11.08856177       4.99156914       7.46825552       1.26262377      -0.96226981       0.66177984
C       -2.50586715       7.08914820       7.46588519       3.35290596       1.83606976      -0.00065795
C       -0.05671931       7.07538259       7.57867942       1.71689450       0.77962481       0.05065099
C        2.43281444       7.12460687       7.41665984       0.84985552      -0.16655298       0.14202183
C        4.92877386       7.08304339       7.37586432      -1.03783685       0.05898753      -0.76860841
C        7.41202246       7.11065765       7.34977045      -2.05810457       0.49088967      -0.13215367
C        9.78728494       7.08866994       7.39324786       1.76714620       0.07345513      -0.26003160
C       -3.69144028       9.17021448       7.44545746       1.55077141       2.36773430      -0.37490669
C       -1.19696620       9.27085143       7.54926681      -0.54107503      -0.56646468       0.35068459
C        1.23767690       9.22739788       7.60880551      -0.99108339       0.28926042      -0.62466777
C        3.74533952       9.23173369       7.40176576      -4.13560092       0.48692889      -0.82996521
C        6.13033156       9.15391411       7.35633336      -0.03633329       2.82466073      -0.54051556
C        8.63251573       9.27768912       7.40884881      -0.39498007      -0.86696262       0.33923546
C       -4.87741284      11.31181746       7.36443786      -0.59455629       2.42124539       0.88085994
C       -2.48736255      11.38715397       7.52543599       0.70284062      -0.08027473      -0.62480455
C       -0.01784632      11.40008739       7.58154140      -0.93862826       0.39942088       1.41063086
C        2.48225886      11.36655361       7.62337615      -0.95074098      -3.07471671      -1.84520283
C        4.95409579      11.38624677       7.31611778      -0.86267582      -1.50216137       0.33486896
C        7.37797105      11.36054156       7.49355784      -0.09620528       0.12444268      -0.69417471
72
Lattice="14.76 0.0 0.0 -7.38 12.782534959858314 0.0 0.0 0.0 15.0" Properties=species:S:1:pos:R:3:REF_forces:R:3 REF_energy=-11165.584472923776 config_type=fd_force_conv_snapshot_057 snapshot_index=57 split=validation degauss_Ry=0.00285013035 kgrid=8 lattice_temperature_K=450.0 trajectory_seed=2 p4_key=seed2:snapshot057 e1_config_id=T450_seed2_snapshot057 e1_source_identity=seed2:snapshot057 diagonal_degauss_Ry=0.00285013035 pbc="T T T"
C       -0.02079437      -0.05862384       7.69311721       0.66698170       1.38160542       0.02628053
C        2.44388747       0.05891369       7.65689346       0.57584483      -2.02001188      -0.43384923
C        4.90469385      -0.00036800       7.50133332       0.86732026       2.56423574       1.18866419
C        7.36022199      -0.05872479       7.48241955       0.68634185       0.87821582      -0.15878362
C        9.86522124      -0.00685959       7.51858639      -1.91851836      -1.11813394      -0.22129459
C       12.28001921      -0.08854482       7.64365187       0.06421639       3.29728837       0.68802052
C       -1.22316221       2.09803868       7.75501983      -1.88672538      -0.15210981      -0.22027489
C        1.19861888       2.16414170       7.58319485       0.70888477      -2.95221778       0.69969873
C        3.71162359       2.14384459       7.55058355      -1.57864886       0.97724212       0.53965321
C        6.13709166       2.13813680       7.50816003       0.50873595      -2.15931502      -0.76412672
C        8.61337873       2.08664869       7.39788981      -0.87783453      -0.63432483      -0.45437461
C       11.08804537       2.10930293       7.52062153      -1.22118761      -0.13889665      -0.14980044
C       -2.45956375       4.26142191       7.46669865      -0.96832656      -2.04250004       0.22586653
C       -0.04877667       4.24847300       7.73690650       0.84846790      -1.23536133      -1.13407195
C        2.45742737       4.25934809       7.59812355      -0.32013654       0.69370394      -0.72033569
C        4.90732740       4.28211234       7.38049178       0.96267116      -1.17681294       0.96477252
C        7.37639239       4.25213719       7.41774173      -0.50753114      -0.66237505      -1.28878089
C        9.85582702       4.29319530       7.34691876      -1.48751276      -3.12311772      -0.38439921
C       -3.60449188       6.39556147       7.43122857      -4.84013513      -0.92120467      -0.39332762
C       -1.22104374       6.41929319       7.55759116      -0.17672220      -1.77210714      -0.02849656
C        1.17589060       6.36219388       7.59242116       2.33857336       0.34498008       0.01723153
C        3.71082112       6.38145542       7.33397389      -0.55527498       2.08834820       0.58511675
C        6.16545488       6.42064857       7.21277687      -0.25539436      -0.12786456       0.86534771
C        8.60445336       6.37855307       7.31525976       2.65464319       1.35389047       0.39373951
C       -4.86694443       8.60524544       7.49184628      -1.02051198      -2.75490644      -0.60884700
C       -2.44745827       8.58547599       7.60861932      -1.24860714      -2.53391550      -0.55985154
C        0.02176661       8.48924432       7.47528712       0.83227895       2.81161701       1.58139685
C        2.46083623       8.51983893       7.43540749       1.03354593      -1.28275062      -0.26646245
C        4.89168397       8.60804109       7.25904440       1.89513931      -2.78271215      -0.04955621
C        7.38149276       8.58844204       7.37785140       0.40327830      -2.97578503      -0.53145499
C       -6.19915453      10.63613078       7.51237605       3.05895456       0.97128410       0.01043251
C       -3.69493863      10.74425163       7.63345461       0.64261870      -1.00660360      -0.64206308
C       -1.21297103      10.59801918       7.62417021       0.35385527       2.88436046      -0.60128976
C        1.26820364      10.67025916       7.47392922       0.47115825      -1.15121530      -0.00430814
C        3.70469225      10.63738128       7.41861352      -1.64950126       0.40880206      -0.03580518
C        6.09193265      10.67998334       7.49668760       2.73495417      -2.24823817       0.36972952
C        1.21441614       0.68565302       7.62610397      -1.27146785       1.93187395       0.27103567
C        3.68274608       0.76146397       7.68402327       0.49248067      -1.48594593      -1.53601919
C        6.16136525       0.66869562       7.46061958      -1.45619081       1.84503468       0.39934271
C        8.58599719       0.62151965       7.48121005       1.41661845       2.90468786      -0.23907069
C       11.05939456       0.66537684       7.60037071       1.76258738       1.45135997      -0.27695486
C       13.51241698       0.67328925       7.76915495      -0.22694253      -1.03383595      -0.77774842
C       -0.01525091       2.79730886       7.74378341      -0.56138212       2.26489069      -0.30038481
C        2.41997250       2.84893121       7.51821178       2.04264556       0.20065018       0.71481296
C        4.93427941       2.85681472       7.54496838      -0.89478375       0.30421344      -0.79529980
C        7.35381581       2.78877006       7.34387846       1.66268433       2.02721688       1.39815536
C        9.83430489       2.81455500       7.33577618       0.70055054       0.52622074       1.02078092
C       12.28761509       2.83838119       7.59744690       1.29335668      -0.88268697       0.07457665
C       -1.26224844       4.93079308       7.53337707       1.63865480       3.17293516       0.98302067
C        1.19070404       4.94067274       7.62724677       0.31763794       0.45801657       0.57387665
C        3.71981249       4.99331527       7.47039062      -1.99455642      -0.85361859      -0.44990449
C        6.12449059       4.97431408       7.35149917       1.52826269       0.91818336      -0.51505007
C        8.60683558       4.96179324       7.32579952       0.06475298       0.19112630       0.31586388
C       11.07367370       4.92432297       7.37621462       1.14676317       3.37629811       0.15001127
C       -2.44791701       7.09558823       7.50483475       1.56373029       2.70184916       0.49944784
C        0.00973946       7.13530264       7.62631992      -0.94201672      -2.66644327      -0.89335370
C        2.42830486       7.05884400       7.48311675       1.08864699       0.95169332      -0.58828306
C        4.94375263       7.18139839       7.22017522      -1.03383904      -2.00854270       0.17356489
C        7.42723298       7.09124178       7.29868887      -2.44476558       2.46622632      -0.20658557
C        9.87394212       7.15152165       7.40593533       0.72348580      -1.25325338       0.02428227
C       -3.67371249       9.32841356       7.56817068       1.09932272      -0.78197969       0.52499998
C       -1.21084234       9.19404761       7.60574425       0.44058038       1.23071843      -0.35580648
C        1.28430311       9.23309420       7.51316577      -2.38297966       0.20143385      -0.70102130
C        3.69303448       9.26032125       7.30655060      -1.80446370      -1.00508896       0.60150676
C        6.12433743       9.27455718       7.36367931       0.96934137       0.11113825      -0.12687520
C        8.64225507       9.23938259       7.42162563      -1.50422313       0.86381636       0.46384938
C       -4.92959708      11.39237463       7.55263106      -1.28637870       0.88999276       0.82798778
C       -2.43671318      11.43062560       7.60432524      -0.22355768      -4.02419040       0.17503170
C        0.03685515      11.33438055       7.52113435      -1.85327687      -1.39212741       0.22875645
C        2.50364409      11.36918520       7.43075482      -0.93942376      -0.51285435       0.53667253
C        4.89069020      11.31229448       7.57140701       0.28033303       1.54624113      -0.49799517
C        7.35864485      11.30996175       7.60277401      -1.20808321       1.68165676      -0.20162000
72
Lattice="14.76 0.0 0.0 -7.38 12.782534959858314 0.0 0.0 0.0 15.0" Properties=species:S:1:pos:R:3:REF_forces:R:3 REF_energy=-11163.940664517548 config_type=fd_force_conv_snapshot_000 split=validation degauss_Ry=0.0038001738 kgrid=8 lattice_temperature_K=600.0 e1_config_id=T600_snapshot000 e1_source_identity=T600:snapshot000 diagonal_degauss_Ry=0.0038001738 pbc="T T T"
C       -0.05773115      -0.04473408       7.46933721       1.52989534       1.84568106       0.05435004
C        2.51094656       0.02796544       7.46612883      -0.46495315       0.35996576      -0.48816687
C        5.00475517      -0.00528471       7.41191438      -4.65643906      -0.35332588       1.88000014
C        7.38317139       0.00530096       7.54981501       1.64895259       2.32719803       1.38519468
C        9.78942120       0.01237122       7.65215516       2.86608531      -0.38462341       0.01584417
C       12.24793275      -0.00601942       7.36141983      -1.61615328       0.05180284       1.03535188
C       -1.18735367       2.07086582       7.54136659      -2.40995156       1.69673294       0.02318235
C        1.22492938       2.10194845       7.31527100       2.08292060       0.86309851       1.22647817
C        3.72456185       2.16636773       7.41103688       0.39857678      -0.59004272       0.59747630
C        6.17737098       2.13071615       7.49070729       0.11481287      -1.37319894       0.98204057
C        8.64797811       2.12547038       7.56051167       0.56340172      -1.47765695       0.13575682
C       11.10079635       2.20618638       7.58200771      -0.43047595      -2.70417832      -0.16215691
C       -2.43900814       4.28360263       7.57089913      -1.19470602      -0.34750465      -0.00517974
C        0.05391224       4.27644426       7.35946167      -3.21668145      -1.00210725       1.59265237
C        2.45239632       4.30258758       7.41454960       0.65774578      -1.07468024       0.32947376
C        4.95226240       4.23308997       7.58988742      -0.65741951       3.06235382      -0.06929817
C        7.42859164       4.19263540       7.56488049      -1.85715049       1.15880596      -0.17970828
C        9.82641713       4.27469939       7.48484476       1.06755160      -2.18191605       0.62180536
C       -3.73232395       6.39752178       7.52927373       1.90593949       0.82960114      -0.77166956
C       -1.21107417       6.40248348       7.46221077      -1.16450559       0.58691523       0.31988149
C        1.20699797       6.39770657       7.32940809       0.87717144      -0.22444496       0.66866808
C        3.71199696       6.34407330       7.49525239       0.02322992       0.50769877      -0.72591755
C        6.21833036       6.35139636       7.51815989      -3.11901579       1.72822715      -0.61038812
C        8.61462298       6.34134847       7.44174156       0.96013014       1.90195145       0.89878207
C       -4.94354493       8.58869980       7.55220111       2.45642399      -3.49417162      -0.71038835
C       -2.41210756       8.51367918       7.55930614      -3.09518629       0.88673569       0.35324438
C       -0.00516430       8.50127685       7.65440860       1.22459510       1.67056399      -0.55998241
C        2.48401574       8.50613700       7.43551739      -1.49296196      -1.26053243       0.68218643
C        4.86125157       8.53692713       7.32480803       2.20408641      -1.55452908      -0.11018283
C        7.35122474       8.47817990       7.39808168       1.29959520       1.23680938      -0.16989181
C       -6.11847806      10.69445724       7.50238495      -2.88708171      -1.26217948      -0.70063538
C       -3.79481113      10.65132224       7.55568037       2.81999263       0.20275617       0.81882411
C       -1.34382795      10.75021453       7.66409100       3.09781190      -3.42904840       0.59422951
C        1.18123927      10.61799248       7.71449960       1.12266937       1.97494430       0.50523566
C        3.62523102      10.68388743       7.46557335       1.43940614      -1.65741743       0.02718736
C        6.15397306      10.63195508       7.27457573      -1.99374035       0.93854393       1.34096194
C        1.26222399       0.67577053       7.44145841      -2.08343894       1.31449449      -0.29318007
C        3.75575765       0.70980409       7.39347338      -0.31792796       1.87441494      -0.02636306
C        6.17897729       0.68255306       7.57122926      -0.21440532       2.20452993      -1.64227569
C        8.61949583       0.72752711       7.65021422      -0.83210334      -0.65132548      -0.63511647
C       11.05357375       0.77881053       7.51372133      -0.80111255      -2.16313697       0.31805395
C       13.44139843       0.65102258       7.45036832       4.14624400       1.68972128      -0.05953646
C        0.01409455       2.81959801       7.45305831       0.63352059       0.32109042      -0.85245645
C        2.50727578       2.89699268       7.39090377      -2.16205890      -2.63685115      -0.58602666
C        4.97024538       2.87809724       7.57435190      -0.37934262      -2.90422454      -1.14998117
C        7.43231390       2.75573169       7.52899875      -1.71787975       3.48212137       0.05439580
C        9.85075676       2.81988208       7.54375199       0.32524738       2.82487876       0.06081147
C       12.34235064       2.85082304       7.63182802       0.75861222       0.57065763      -0.81750025
C       -1.23829177       4.99876458       7.55239000       2.23371452      -0.89786136      -1.51981790
C        1.23691856       5.00583187       7.34845107      -0.41920911      -1.17431563      -0.31096464
C        3.67857285       4.93869989       7.57070188       1.98474817       0.55404136      -0.56239616
C        6.17225232       4.98472615       7.53343102       1.11915493      -3.80201649       0.70969364
C        8.62530460       4.93565539       7.57339783      -0.88258978       0.55627899      -1.08697243
C       11.02708322       4.98086935       7.47756526       2.08186337      -0.10304313       0.68399700
C       -2.45573631       7.12028506       7.49138541      -0.10385868      -1.53693245       0.49256886
C        0.01464271       7.12108793       7.45188252      -1.14620833      -0.34803327       0.08610316
C        2.44912682       7.00063810       7.37149641       1.66733957       4.20026494       0.47712656
C        4.95665120       7.07678406       7.40933249      -1.21822236       0.58221268       0.65765348
C        7.39755585       7.05237714       7.47174592       0.89472307       1.47230520      -0.36972335
C        9.83974481       7.13004849       7.46797474      -1.40042101      -0.58518591       0.47000280
C       -3.68697284       9.25201356       7.62482141      -0.59706723      -0.42859647      -0.75435447
C       -1.23984664       9.22263135       7.62939563       1.20467882       2.74512339       0.47844553
C        1.28113618       9.22357156       7.70693819      -2.64513422      -1.49652165      -1.23276966
C        3.65305352       9.25287942       7.35580353       0.34936227      -0.34839271       0.38180651
C        6.11776345       9.22149342       7.31994870       0.61909619      -0.69473496      -0.11036666
C        8.63507204       9.23017903       7.40687391      -3.18933931       2.02149129       0.92880279
C       -4.93802155      11.42106060       7.47964301      -0.48803549      -1.66442034       0.48270688
C       -2.59246694      11.37424584       7.68483165       3.44201653       0.86574391      -2.02177643
C       -0.01412685      11.45486795       7.67337046      -1.88619265      -5.51066058      -0.05371780
C        2.43100954      11.32350293       7.73510143      -1.27948866       2.48280197      -1.42350129
C        4.86169173      11.36347017       7.35076034       1.26920348      -0.53863146      -0.37251068
C        7.35051407      11.36535302       7.49602958       0.92993870      -1.73611633      -1.22610253
72
Lattice="14.76 0.0 0.0 -7.38 12.782534959858314 0.0 0.0 0.0 15.0" Properties=species:S:1:pos:R:3:REF_forces:R:3 REF_energy=-11164.270934389746 config_type=fd_force_conv_snapshot_013 split=train degauss_Ry=0.0038001738 kgrid=8 lattice_temperature_K=600.0 e1_config_id=T600_snapshot013 e1_source_identity=T600:snapshot013 diagonal_degauss_Ry=0.0038001738 pbc="T T T"
C       -0.02242882      -0.05196471       7.61384152       1.81207083       5.48102167      -0.38107168
C        2.47669190       0.04696170       7.75680597      -0.34396475      -0.62083785      -1.08032021
C        4.99092139       0.04371976       7.55514833      -2.07177719      -1.83389358      -0.13919695
C        7.40333082      -0.01984764       7.56764054      -0.04499148       1.31300273      -0.39423856
C        9.82070022      -0.10133075       7.44467410       0.72385656       3.51426659       0.33549939
C       12.30883745      -0.03448981       7.41112799      -1.38443929      -0.62921065       0.22563847
C       -1.23870601       2.10284128       7.63874477      -1.04200692       0.18938360      -1.11065717
C        1.20580256       2.17164413       7.61585807       1.99151455      -0.88810480       1.12071996
C        3.66074561       2.13754598       7.82908116       1.48531190      -1.48629663      -1.79123461
C        6.17474900       2.21231185       7.66983562      -2.24105039      -2.33492985      -0.63351005
C        8.60732349       2.16971011       7.48882928      -0.87130161      -2.09844853      -0.01198545
C       11.08101590       2.10311857       7.46389954      -1.45424423       1.51111395       0.31953490
C       -2.46555133       4.27862989       7.59338304      -2.66352738      -1.02723336      -0.79494653
C       -0.06006473       4.22953649       7.65919544       1.36198174       1.72044288      -0.69554023
C        2.40240624       4.25905217       7.65577013       1.04351281       0.19965979       0.45707864
C        4.82349404       4.27521149       7.80566674       1.86778432       0.89803003      -1.23691916
C        7.36640238       4.31793774       7.48357070      -2.69019975       0.12476869       0.99161047
C        9.78498199       4.29942467       7.46971480      -0.02074469      -1.86237523      -0.20127418
C       -3.78619286       6.37358107       7.36091199       3.61639646       0.07693255      -0.27758787
C       -1.32171573       6.37508154       7.27174567       3.07393638      -0.00235205      -0.02011657
C        1.16112129       6.39577721       7.40733770       1.58085306      -1.11803598       0.58899165
C        3.66309086       6.42117251       7.59918263       0.07488929      -1.40400333       0.76152862
C        6.08452856       6.40995311       7.53003149       1.96911407      -0.39849554       0.71947257
C        8.59520666       6.44415528       7.32121843      -0.22407704      -1.18480342       1.34837083
C       -4.90881068       8.56947747       7.32190363       1.05217280      -1.83450370       0.68929399
C       -2.43178831       8.49861947       7.13091828      -0.89922533      -0.64452543      -0.09998326
C        0.02158402       8.52182045       7.15031621      -0.85322778      -1.75072379      -0.67590163
C        2.46270586       8.50377013       7.44588936       0.49745935      -1.17278814      -0.64022089
C        4.88686716       8.57678535       7.55517096       3.14986594      -2.43217077       0.09232369
C        7.34529275       8.48891076       7.53672992       3.20097973      -1.59411301       0.22432309
C       -6.04009167      10.65233953       7.67869710      -1.10456469      -0.06592617      -0.48805272
C       -3.64431291      10.69376596       7.30858503      -0.01409247      -0.99847223       1.44235545
C       -1.18405327      10.69443701       7.37681542       0.53074126      -3.07431639      -1.04794154
C        1.29410048      10.57117392       7.34537509      -0.02930055       2.09254064       0.08512717
C        3.76021489      10.59410918       7.51313027       1.47931454       2.48810538      -1.24594476
C        6.30773101      10.58516566       7.53701123      -2.37267879       3.14035800      -0.23858809
C        1.25107587       0.78717973       7.69599319      -1.86462186      -3.13715878      -0.06033222
C        3.70021272       0.67625584       7.63798197       1.49887652       3.15355316       1.34253648
C        6.19469802       0.73764892       7.55797656      -0.31863502       1.02448254       0.91065183
C        8.59212042       0.69442830       7.51589318       1.75037875       0.23682251      -0.21689621
C       11.02390719       0.70951278       7.45796755       1.52606851      -2.96925186      -0.47246720
C       13.48006984       0.69042094       7.46257626       2.47714811      -0.43528725       1.20296235
C       -0.02380992       2.80862320       7.67230887      -0.80121385       1.72741623      -0.13362820
C        2.47763933       2.84621485       7.71411645      -2.67626179       0.35675959       0.05021724
C        4.87311395       2.86645297       7.73652119       1.32713275      -0.22158436       0.96094544
C        7.35362785       2.89774435       7.52531176       1.93310602       0.42495527       0.26421145
C        9.82295868       2.83244219       7.46504590       0.57211313       1.43367026       0.08131628
C       12.29530504       2.84704803       7.54766444       0.38755344      -0.62423402       0.63369337
C       -1.28218117       4.97951191       7.52376422       1.37732351      -0.43320260       0.21455290
C        1.22213196       4.98003782       7.60562028      -3.75891477      -0.78107312      -0.56498475
C        3.59289672       4.97705897       7.68490034       2.44365332       1.22630179       0.27450229
C        6.09109011       5.02572317       7.67212319      -0.36269138      -2.37761196      -0.82818447
C        8.54899952       5.03304772       7.41947645       2.26556020      -0.63058799      -0.46092706
C       11.00727310       4.96321962       7.48295824       0.97826567       0.35921165      -0.01155608
C       -2.50800868       7.05539539       7.20418074      -1.17087087       1.22356100       0.24869921
C       -0.03288082       7.09192498       7.16520866      -1.07683328      -0.16637969       1.04026397
C        2.42210460       7.06278200       7.55034642       0.01780000       2.41773634      -1.10555765
C        4.92461627       7.14772375       7.61179253      -2.92523251       0.31179665      -0.45119030
C        7.35320897       7.05108375       7.46594441      -0.47404560       2.89783741      -0.47932588
C        9.84625560       7.13000136       7.36177171      -2.43474959       0.84777550      -0.81811320
C       -3.63162256       9.22833178       7.21621703      -2.00951150       1.99093553       0.26471590
C       -1.21623344       9.18978563       7.11992988       1.02438355       3.06650460       1.10023958
C        1.27005310       9.17104982       7.19911365      -0.69120458       1.27781539       1.23540453
C        3.69999924       9.24264265       7.47467460      -1.23746244      -2.12526307       0.66834541
C        6.19833750       9.20701739       7.56309931      -2.25801633       0.44974893       0.08066425
C        8.62291450       9.18555051       7.58447555       0.18701099       2.47739391      -0.84506762
C       -4.85009081      11.42216904       7.64469406      -0.17991886      -2.54649770      -0.87684439
C       -2.40963539      11.35249399       7.41781132       0.48315374       2.46793508      -0.10221292
C        0.08101365      11.37028929       7.47903349      -0.96411483      -2.28259016      -0.76116635
C        2.55739877      11.27648600       7.41022452      -2.76043328       0.77893396       0.34216189
C        5.04239455      11.29265063       7.44466192      -1.26230058       0.76717965       0.57337272
C        7.50291526      11.40106487       7.59485975      -1.20883783      -4.48067074       0.50235988
72
Lattice="14.76 0.0 0.0 -7.38 12.782534959858314 0.0 0.0 0.0 15.0" Properties=species:S:1:pos:R:3:REF_forces:R:3 REF_energy=-11163.772488233104 config_type=fd_force_conv_snapshot_029 split=validation degauss_Ry=0.0038001738 kgrid=8 lattice_temperature_K=600.0 e1_config_id=T600_snapshot029 e1_source_identity=T600:snapshot029 diagonal_degauss_Ry=0.0038001738 pbc="T T T"
C        0.02746141      -0.01689830       7.18270624      -0.77209637       0.73656012       0.84752970
C        2.36925217      -0.03887855       7.31038791       3.81009592       1.31831592      -0.25838970
C        4.93639355       0.02356546       7.41925497      -0.85359082      -1.60401099       0.21118861
C        7.45696161      -0.03441810       7.48114564      -1.49734286       1.41458214      -0.57539540
C        9.83976532      -0.01969182       7.63927964       2.87831065       0.25052444      -2.15089466
C       12.42875186      -0.05004098       7.29388646      -5.47537373       0.32546052       1.37124619
C       -1.18824722       2.16773155       7.36251917      -0.78902014      -0.85039443      -0.80126733
C        1.21964696       2.11050933       7.17190369      -0.16840546       2.59415953       0.60455891
C        3.56233371       2.06579796       7.20541426       4.84102550       0.75194534       1.75007202
C        6.17529827       2.14410082       7.33400110      -2.46544933      -0.23245395       0.89513317
C        8.58830401       2.10175119       7.53106672       3.36948880       2.73476211      -0.27675663
C       11.13158843       2.10186973       7.32938718      -2.20089182      -0.95579963       1.36462200
C       -2.50803965       4.27787447       7.48797004       0.64038569       0.62802691       0.14869487
C       -0.01840482       4.30731217       7.41094058       2.26267774      -1.83103734      -0.28829703
C        2.43035861       4.28166921       7.30636050       0.94896821      -1.44249043       0.28894160
C        4.88707225       4.27435826       7.37765516      -1.73129885      -1.09886969      -0.32759942
C        7.36561763       4.26692293       7.47645818       1.51038684       0.52971436       0.36140686
C        9.89242174       4.27677973       7.52086054      -1.53662752       0.67246252       0.84819871
C       -3.65506604       6.49442881       7.59950373      -0.36292767      -1.66286200       0.89876819
C       -1.20685991       6.35888519       7.71928348      -0.81475328       0.14398461       0.40898847
C        1.19171671       6.37839879       7.53821798       1.41215321       2.68283533       0.37789380
C        3.62459471       6.40515394       7.47185471      -0.23780930      -0.37377001       0.02435863
C        6.18744330       6.41119073       7.59337412      -4.20556835      -2.13577786      -1.11957144
C        8.63103020       6.38511560       7.68724525       0.20068951      -0.12865517       0.22641777
C       -4.97593199       8.56178321       7.82637102       0.71485410      -1.48710370      -1.83344801
C       -2.49657130       8.53025986       7.91043758      -0.25790222       0.26144005      -1.24337855
C       -0.03843657       8.49964836       7.69882737      -0.18018085       1.21791871       0.73517044
C        2.45037914       8.55295134       7.57060413      -0.22197465      -2.96380626       0.60361326
C        4.91865719       8.55919462       7.62825123      -1.57247615      -3.10104866       0.38919123
C        7.35411677       8.51584433       7.64551289      -0.06290924       0.01965865       0.47186916
C       -6.11277639      10.70013155       7.44178861      -2.49543045      -4.12329357       0.15470739
C       -3.65479227      10.63507399       7.48248855      -0.65376031       1.97747452       0.66081388
C       -1.19634616      10.66021900       7.54552881       0.33820111      -0.40774302       0.39097120
C        1.29805443      10.59365488       7.54341867      -2.39624526       1.69214352      -0.27404849
C        3.72572623      10.64867749       7.59087115      -3.38942488      -0.72355702      -0.26111224
C        6.17206543      10.63801142       7.51904704      -0.56360664       0.21110942       0.27401995
C        1.21700465       0.74291473       7.19303226      -0.44429871      -3.04297670      -0.11981341
C        3.63749377       0.65549905       7.36978708      -0.15859670       0.44759821      -1.04634257
C        6.16505710       0.70092187       7.41416244       1.54533739       0.70485739      -0.24233316
C        8.68761810       0.72371278       7.52931449      -3.31114327      -1.15196066       0.48718471
C       11.10507765       0.64003382       7.42206576       1.67763813       1.37464982      -0.21062837
C       13.57916871       0.71904629       7.26352915       0.42751249      -0.00246415      -0.30837606
C        0.02516120       2.86937119       7.28068371      -0.70416859       0.48790385       0.30203572
C        2.43224062       2.81502384       7.25433655      -1.94867560       1.65868653      -0.81474274
C        4.82580030       2.82316448       7.35346984       2.31826576      -0.15957269      -1.03968007
C        7.40339737       2.86738263       7.45907946      -1.36458909      -1.26713400      -0.36336013
C        9.88759704       2.83589207       7.48680111      -0.49676156      -0.47862988      -0.40952480
C       12.31585110       2.84687385       7.39462551       0.18811733       0.48213326      -0.20042598
C       -1.25115033       4.92152830       7.57099563      -0.00690007       2.13455941      -0.21098730
C        1.27893945       5.03020080       7.39006565      -4.47995597      -2.76857623       0.16963162
C        3.61382407       4.99951178       7.41862872       2.50742311      -1.03670068      -0.55441315
C        6.12106091       4.94630032       7.34775039       1.42159636       1.95396975       2.02383974
C        8.65302254       4.97524615       7.68648756      -1.91406649      -0.89285800      -1.77046009
C       11.04179949       5.11685457       7.53618006       2.06372629      -5.05016032      -0.59586370
C       -2.39607619       7.09348778       7.79100718      -1.60864077       1.73305928       0.02514899
C       -0.00890635       7.09824074       7.76508588      -0.28572027      -0.73751143      -1.11980516
C        2.39812043       7.10430493       7.49856135       0.98193104       1.37130301       0.29689557
C        4.83845322       7.07391509       7.56079145       4.28175837       2.38516124       0.36235611
C        7.38377872       7.09450337       7.69805150       0.53644576       0.57998945      -0.30293457
C        9.85605893       7.08935538       7.69184898      -1.00418162       3.49632080       0.85474936
C       -3.74637288       9.28429547       7.74838311       1.12364304      -2.36732807       0.57327399
C       -1.32303332       9.24900125       7.75442792       3.95142226      -0.38977281      -0.32695793
C        1.22975830       9.20030583       7.65506911      -1.07597813       0.44225288      -0.75785965
C        3.67939962       9.21722764       7.65086440       0.63550317       1.70383098      -0.65545236
C        6.13074531       9.24814158       7.68615694       1.25757155      -0.84912122      -0.97319289
C        8.56831752       9.21504258       7.59909756       0.91612725       2.18810264       0.64734798
C       -4.92453281      11.34960654       7.34728269       1.52034986       0.08775869       0.55544776
C       -2.39333015      11.35630239       7.52712052      -2.08041944       1.19608568      -0.83083425
C        0.07674789      11.35033260       7.43444770      -0.87884883      -1.15633154       1.23090407
C        2.45213112      11.36198159       7.50080844       2.21127445      -1.35266663       1.45759052
C        4.90244793      11.30227110       7.48610337       4.59455544       2.45366211      -0.64717135
C        7.40379430      11.35438990       7.38006707      -0.41942457       0.78147498      -0.38346384
72
Lattice="14.76 0.0 0.0 -7.38 12.782534959858314 0.0 0.0 0.0 15.0" Properties=species:S:1:pos:R:3:REF_forces:R:3 REF_energy=-11163.61249345939 config_type=fd_force_conv_snapshot_042 split=train degauss_Ry=0.0038001738 kgrid=8 lattice_temperature_K=600.0 e1_config_id=T600_snapshot042 e1_source_identity=T600:snapshot042 diagonal_degauss_Ry=0.0038001738 pbc="T T T"
C        0.02366186      -0.01566453       7.58603495      -0.80640517       1.94313435       0.29536139
C        2.48941286       0.00295421       7.70135185      -0.09763584       0.02865880      -0.66481811
C        4.93677082      -0.01327572       7.53279935      -1.68669844       0.91961212       0.95983086
C        7.37516812       0.05854309       7.42926872      -0.88084066      -2.34095009      -0.42522755
C        9.79388125       0.04357420       7.67826544       3.47653437      -1.09882933      -0.90949380
C       12.30528897       0.03620434       7.69365700      -0.65489160      -0.71324150      -0.81954479
C       -1.26762107       2.13652368       7.79853266       2.35407994      -0.25794927       0.09232574
C        1.22632552       2.10852384       7.86971682       1.16373374       1.84682006      -0.71151680
C        3.75672797       2.10340598       7.85289588      -2.35840017       1.03752651      -0.19143843
C        6.18506840       2.14942000       7.65587155      -2.59459559      -0.57537561      -0.20883580
C        8.58755877       2.10922745       7.77828907       1.25296850       1.52871289       0.21045071
C       11.11035398       2.13347442       7.84733971      -1.84871753      -1.36654390      -0.39582082
C       -2.53733866       4.28395241       7.58100118       2.01047155      -1.98300985       0.02666260
C       -0.02495681       4.21735432       7.54534293      -0.37915518      -2.13830602       1.30211874
C        2.48664188       4.27273813       7.59008793      -2.85419370      -2.15530436       0.05073224
C        4.96594150       4.35070031       7.60022581      -4.69424096      -3.56159674      -1.06115881
C        7.34710499       4.25433666       7.66208644       1.41081187       1.20892499      -0.59252075
C        9.87133044       4.17605383       7.70124123      -3.44710578       3.78991379      -0.44038703
C       -3.66849362       6.42836002       7.45746989      -1.62775975      -2.73243089      -1.12061223
C       -1.14386214       6.30332614       7.31133937      -2.48524426       1.57739416      -0.12072229
C        1.19316788       6.34143211       7.30135044       3.39759790      -2.22413947       0.37080810
C        3.66416341       6.37811548       7.31031459       0.60790340       1.04368971      -0.27337717
C        6.18010548       6.42371304       7.43765622      -1.70348389      -0.41149118      -0.98485978
C        8.54439493       6.33973750       7.44940287       2.94000839       0.66977135       0.52402733
C       -4.91710084       8.50107169       7.29162606      -1.90122280      -0.54067934       0.26527280
C       -2.46206279       8.46516569       7.29993640       1.45165899       1.90879393      -0.22198622
C        0.03452252       8.52412479       7.09932004      -2.68688276      -1.50451007       0.72995573
C        2.46637352       8.45740130       7.26705236      -0.04221520       3.03609025      -1.22654245
C        4.96900027       8.50765931       7.31602838      -1.91766115       2.51753474       0.40322354
C        7.33956947       8.52298118       7.32194400       1.99271602       4.20239947       1.57822334
C       -6.11227497      10.68155671       7.39766516      -1.61335309       0.08840661       0.03020378
C       -3.61725342      10.64152927       7.39988569      -2.71065621       0.27368673      -0.38890892
C       -1.20045278      10.64729833       7.21794342      -2.24753908       1.15884530       0.93268361
C        1.18908548      10.69059810       7.23221356       1.60680064      -0.17005996      -0.23054902
C        3.67759199      10.70930896       7.41557895      -1.03871102      -1.51741161      -0.37079241
C        6.07578522      10.72184714       7.51603864       2.39706416      -1.10602559       0.13107612
C        1.27236731       0.72068352       7.65107735      -1.54131592      -0.87414988       1.26416283
C        3.70700345       0.67185158       7.85815079       1.56150397       0.78630711      -1.52345601
C        6.11569096       0.70053050       7.44478476       2.57891494       2.89097513       1.30313561
C        8.61118927       0.70524377       7.61791702      -2.46605637       2.14312659       0.43309513
C       11.08753349       0.70232766       7.71925839      -1.47802771       1.84076203       1.17096445
C       13.51484889       0.75325423       7.65962994       1.50772858      -2.17048338       0.66835775
C       -0.02987174       2.82060168       7.88175933       1.22551452       0.03778879      -1.63830719
C        2.52600754       2.86423912       7.79266733      -1.66397709      -1.63801717       0.48453596
C        4.91242694       2.86080762       7.73448482       3.14970396       1.09814696      -0.31472077
C        7.38560197       2.87876604       7.73944017      -0.19814207      -2.68990484      -0.31231987
C        9.84501349       2.82270323       7.87213330       0.29698710      -2.06661158      -0.65883002
C       12.30939694       2.82532554       7.78189233      -2.13447251       2.83833385      -0.35827371
C       -1.25022755       4.89088848       7.43090666      -0.38654659       2.05968760       0.20064606
C        1.17609830       4.87667189       7.46518261       2.26361002       2.94601808      -0.25331177
C        3.62870087       4.98610714       7.40652068       4.68269054       0.44748919       1.14098076
C        6.15119333       4.98025746       7.40470618       1.55970240       1.75595444       1.98564086
C        8.59501282       4.92628855       7.62239951      -0.27981701      -0.08433578       0.01209627
C       10.99087688       4.96749609       7.47914596       3.24598997       0.39021864       1.34618745
C       -2.40229498       7.06964077       7.33606270      -0.12779128      -1.00637966       0.14319708
C        0.07185274       7.04917309       7.23211976      -3.97152032       1.92737349      -0.47380186
C        2.43300188       7.06273599       7.31885064       0.41856300      -0.01732101      -0.54067651
C        4.91890732       7.11336655       7.26763800       0.78379591      -1.60471316       0.97448024
C        7.39129515       7.15579645       7.49869801      -1.41494929      -2.45112752      -1.29706112
C        9.80392265       7.02984069       7.36544571       0.85192603       2.78416765       0.20488735
C       -3.69348240       9.17744100       7.30113894       1.15145287       1.42386279       0.34735809
C       -1.22920918       9.25367610       7.23220113       0.49893414      -2.37856533      -0.84328610
C        1.20030848       9.21498172       7.05866846       3.23190830       1.87327465       1.72497137
C        3.73698729       9.23068496       7.27578999      -2.22655863       0.06832090       0.60671761
C        6.13288946       9.32332712       7.47258141       0.35531052      -3.35294041      -1.47627293
C        8.60753460       9.27582082       7.32667029       0.29136101      -2.05124461      -0.35038891
C       -4.88732218      11.41138993       7.40724124       0.92978367      -2.15821973       1.02873231
C       -2.42996530      11.39513488       7.42193399       0.32099709      -2.95703192      -0.88215655
C       -0.04170676      11.39765516       7.27646424       2.63986783       0.27086289      -0.19005852
C        2.44988067      11.46142258       7.41459369      -1.42918240      -3.61414392      -0.05325706
C        4.86347449      11.41073981       7.54973721       1.27261276       0.33945324       0.09382058
C        7.36148863      11.36097680       7.53532542       0.71475768       0.81100461      -0.51163153
72
Lattice="14.76 0.0 0.0 -7.38 12.782534959858314 0.0 0.0 0.0 15.0" Properties=species:S:1:pos:R:3:REF_forces:R:3 REF_energy=-11164.218384309452 config_type=fd_force_conv_snapshot_059 split=validation degauss_Ry=0.0038001738 kgrid=8 lattice_temperature_K=600.0 e1_config_id=T600_snapshot059 e1_source_identity=T600:snapshot059 diagonal_degauss_Ry=0.0038001738 pbc="T T T"
C        0.10645655       0.01407736       7.32774638      -2.32772948       0.19995984      -0.14538483
C        2.44212409       0.05398301       7.42310903       0.66268950      -2.45758253      -0.53242687
C        4.98069554       0.01967110       7.44478172      -3.53553167      -1.08693103      -0.17975713
C        7.43723206      -0.02613937       7.41469314      -1.26665963       1.05367716       0.23544466
C        9.88740544      -0.13186951       7.39023216      -0.81036621       4.53958551       1.22981186
C       12.34605688      -0.07331923       7.31417037       1.34171579       4.65885307       0.85945011
C       -1.21495210       2.17350103       7.39451407       1.87566475      -0.74261944      -0.14643358
C        1.23238267       2.21844149       7.46862958      -0.58957298      -2.12330184       0.29708634
C        3.61402641       2.13363923       7.57909585       2.78040381      -1.14081724      -1.21348202
C        6.14857312       2.15918049       7.41487723      -1.21248134      -0.60956125      -0.80841603
C        8.63213317       2.16249658       7.41193977      -0.16506842      -2.17826200       0.30634411
C       11.10197765       2.04394262       7.53223418      -1.02568581       2.13871817      -0.98511021
C       -2.56381765       4.32811638       7.41314675       3.83031868      -2.10221031      -0.23743315
C        0.00314353       4.32544665       7.53081013      -0.57088415       0.47916004       0.56797237
C        2.42317652       4.26892290       7.51298815       2.02742823       0.95361959       1.06991779
C        4.86034325       4.22311903       7.50414470       0.76944402       1.12514097       0.02390740
C        7.33026194       4.22134231       7.59400520       2.08462010       1.86089093      -1.71043872
C        9.79604308       4.27242329       7.41738362       1.21328147       0.32045176       0.22405236
C       -3.69732671       6.44098740       7.55293406       0.38202788      -1.49598198      -1.30309962
C       -1.20246645       6.39264691       7.55521028      -2.84595640       1.92174612       1.10283922
C        1.21407387       6.39905902       7.93907604       1.32692834      -0.91401715      -1.10875096
C        3.64967358       6.41943837       7.81812761       3.06482233      -2.73276256      -1.59505609
C        6.11969597       6.30946881       7.44127434      -0.21205996       1.70749918       1.11245283
C        8.59892824       6.39623060       7.40757667       0.01502064       0.80884154       0.66750003
C       -4.96770069       8.50474951       7.54231241       1.26420628       0.04030898      -1.23031580
C       -2.47919391       8.58131909       7.66310328      -1.46351434      -1.93590467      -1.57719875
C       -0.02527568       8.51069483       7.69231407       0.90514170      -0.92980141       0.43919121
C        2.52640524       8.46343630       7.74011348      -3.01877567       2.51361921      -0.21861987
C        4.94039415       8.54695731       7.64681249      -0.84854015      -2.26620247      -0.01506229
C        7.31073902       8.55083313       7.39128484       2.15415199      -1.96447605       0.54456968
C       -6.11612031      10.61801232       7.32656602      -0.58091813       1.65614216      -0.37981082
C       -3.70214957      10.69059305       7.44969361       1.44252926      -1.91794191      -0.60637565
C       -1.24567246      10.64770226       7.41518704       1.93008266       0.11005710       0.38064360
C        1.26414739      10.57131183       7.48141196      -1.64799922       0.36877744      -0.20189485
C        3.72643547      10.61278016       7.49605084      -0.72454484       0.53660620      -0.02856007
C        6.15690176      10.70619947       7.49923844       1.70264185      -1.93995030      -0.25171460
C        1.25310997       0.78987861       7.41214943       0.34713595      -0.52235663      -0.12962011
C        3.64963240       0.68854618       7.49386670       2.82940441       1.97805353       0.28558708
C        6.14848918       0.74552935       7.40825341       2.50453833      -1.03874856       0.11609174
C        8.66321669       0.69340273       7.48965890       0.00615856      -0.59795812      -1.36360307
C       11.11817938       0.63551160       7.48312081      -0.37668872      -0.92988162      -1.19079743
C       13.64821315       0.70841139       7.30730003      -3.39877752       0.66163920       0.38133934
C        0.05849577       2.94801265       7.49074362      -3.64702422      -2.35073237      -0.88767877
C        2.43588042       2.85693817       7.53931783       0.57176475       1.36919857      -0.35690949
C        4.86278526       2.83598458       7.42491481       0.32171031      -1.17647793       1.10822645
C        7.37337065       2.85532698       7.32922409       0.51678145      -0.88420443       1.89597415
C        9.85921099       2.83576147       7.48593105       0.15289451      -0.17755061      -0.22598686
C       12.28773684       2.81746274       7.39587228      -0.18825720       1.70043121       0.73416437
C       -1.23902152       5.04081539       7.52185222      -1.71943347      -3.42428492      -0.67870850
C        1.23330236       4.98955924       7.66353306      -0.42746955       1.24858375       0.32787762
C        3.68313491       4.98061654       7.58441896      -2.02991577       0.17584983       0.61887379
C        6.11141892       4.89359227       7.54882529      -0.24142350       1.16492570      -0.27051759
C        8.59817006       5.01000816       7.51355812      -1.79288706      -2.61789827      -0.31224608
C       11.01112989       5.03384056       7.34573795       0.13908383      -1.14405015       1.33187669
C       -2.49735789       7.13215162       7.54236105       2.74944182       1.01089426       1.02364899
C       -0.01613095       7.04051632       7.86713428       0.22073126       3.60079552      -1.27808767
C        2.47827501       7.10905601       7.89385175      -1.96063020      -1.11757678       0.43003269
C        4.90538409       7.06933914       7.61912677       0.41238772       1.41178478       0.27609303
C        7.33340392       7.08095304       7.39162264       0.28630159       0.66475204      -0.04204654
C        9.86794657       7.08643585       7.50671130      -3.46408483       1.75943983       0.11372581
C       -3.76029476       9.24029203       7.50624897       2.03668446       0.82448054       1.08118565
C       -1.24259353       9.25238085       7.55147704       0.46612403      -0.89206764       0.54177437
C        1.25390891       9.16285679       7.62789673      -0.36137061       0.15737800       0.24772013
C        3.68844868       9.21689716       7.61880485       2.07517387      -0.18804843       0.37483856
C        6.13898220       9.26051150       7.60365607       0.13477286       0.93679738      -1.20499635
C        8.60155471       9.21600011       7.35313476      -1.52710338      -0.14769136       0.66536293
C       -4.86914942      11.36661584       7.29968858      -3.68505803       1.59113516       1.02886575
C       -2.43826281      11.34943161       7.41106063      -0.58500799       1.86602697       0.27556698
C        0.02512918      11.32946613       7.42681038       0.15033137      -0.04874760      -0.09200178
C        2.46860733      11.27650842       7.41344594       1.36978066      -0.41405842       0.26243790
C        4.95651584      11.36887750       7.45781591      -1.56782271      -2.27163006      -0.23069326
C        7.39443688      11.37423922       7.32407412       1.75492292      -0.63353422       0.55678884
