72
Lattice="14.76 0.0 0.0 -7.38 12.782534959858314 0.0 0.0 0.0 15.0" Properties=species:S:1:pos:R:3:REF_forces:R:3 REF_energy=-11164.162015927774 config_type=fd_force_conv_snapshot_002 split=validation degauss_Ry=0.0038001738 kgrid=8 lattice_temperature_K=600.0 pbc="T T T"
C       -0.05073869      -0.03215129       7.33303750       0.86594317       3.73007471       1.52339431
C        2.42465288      -0.04911212       7.35095928       1.26148683       0.87548711       0.48279584
C        4.90077553      -0.05239928       7.43536730       1.56994593      -0.10589294       2.03494408
C        7.40633262       0.02275920       7.60729798      -2.79169867      -2.26125541       0.83146828
C        9.87415567      -0.03252203       7.46369478      -2.81466813       3.33613388       0.54010110
C       12.22837522       0.01245084       7.65301456       1.75108606       0.05826763      -1.07457560
C       -1.16825983       2.14059494       7.39290131      -4.78752830      -0.03143251       1.21865585
C        1.22481215       2.13417545       7.47078143      -0.04181282      -0.80267167      -0.47421530
C        3.70744238       2.08827370       7.27985458      -1.41383832      -0.28592853       1.13305714
C        6.18954445       2.12970062       7.41559613      -3.51912392      -1.45530995       0.48538725
C        8.59292617       2.11254814       7.47484502       0.95925879      -1.26841389       0.44525953
C       11.06937150       2.16075269       7.49082951      -0.30416279      -1.42678099      -0.78484801
C       -2.40297680       4.31753272       7.32144334      -4.14186516      -2.07219885       1.02924396
C       -0.01445636       4.29911483       7.35409437       2.85482131      -0.93094709       0.77944946
C        2.45272958       4.24015952       7.38677011       1.32004627       1.66986363       0.01274136
C        4.90566707       4.27270954       7.42954708      -0.11134651      -0.71614993      -0.45053955
C        7.37410195       4.27099704       7.54587979       0.56220539      -0.64190650      -0.06945655
C        9.82136188       4.20896200       7.54868874       0.96711737       0.91390710      -0.28963811
C       -3.66273918       6.39590376       7.63508057      -0.93365883      -1.61885988      -0.39228709
C       -1.21922132       6.38095913       7.46454750       1.15542959       1.13335513       1.07223178
C        1.24277880       6.36899344       7.47949605       1.34467898       3.75575797       0.42899859
C        3.68203933       6.43843911       7.41815130       1.89192724      -0.40976931      -0.23492941
C        6.16616993       6.34534598       7.51200080      -0.56576739       3.61486974      -0.52734997
C        8.67534376       6.38398244       7.57438912      -0.47416516      -0.28847752      -0.27120253
C       -4.92726041       8.58194352       7.72178440       1.22550372      -1.73771324      -1.91650904
C       -2.45275430       8.53131417       7.84597464       0.72632919      -2.27709212      -0.95889652
C       -0.01737222       8.51770360       7.66844641      -0.19256534      -1.03363361       0.04327115
C        2.39807932       8.52695538       7.54384763       2.55870324       1.22285523      -0.80546723
C        4.85132147       8.55517589       7.47067311       3.20106663       0.19034134      -0.58725693
C        7.37983723       8.51522725       7.43578602      -0.44215158      -1.63457601      -0.08315565
C       -6.17342636      10.61021130       7.41088489       1.17374433       2.38952954      -0.61860922
C       -3.71512028      10.68071375       7.54783788       1.06305783      -2.83073239       1.17513736
C       -1.25391509      10.65705933       7.84238134       0.10189256      -0.96746087      -0.42219982
C        1.19402793      10.70400393       7.52271330       1.03376936      -2.18442544       0.92194694
C        3.76680279      10.67824229       7.42760985      -3.28513168       0.17380452       1.32972108
C        6.21308983      10.68485844       7.32616963      -1.52347812      -1.50156333       1.71313426
C        1.21662918       0.69009953       7.35868529      -1.23129616       0.56196113       0.18700302
C        3.71606238       0.64479917       7.41296208      -2.65199855       1.30409489      -1.49051607
C        6.12121670       0.68154209       7.57355461       1.79114282       1.59592513      -1.38319925
C        8.62393821       0.63155113       7.55139906       0.05529414       4.20049865      -0.92867912
C       11.01744149       0.70334538       7.47282657       2.94753940       1.84246795       1.12014506
C       13.45089097       0.72818753       7.59017965       2.86675329      -0.53374765      -1.82319651
C       -0.00013732       2.86887420       7.47790060       1.22867441       0.10436802      -1.13946741
C        2.44734949       2.81986607       7.39290441       1.13532922       0.08028835      -0.31204425
C        4.88923296       2.81282326       7.33932775       2.22105132       1.33037954       0.26400781
C        7.37637345       2.83942868       7.47306442       0.96051272       0.17201683       0.15534271
C        9.83462327       2.82011889       7.48853027      -0.87621113      -0.46743607       0.08879408
C       12.26955358       2.88614767       7.36857237       3.23873561      -0.69082868       0.16283439
C       -1.18885875       4.99471259       7.32998341      -1.26802000       0.37298068      -0.07075290
C        1.25834493       5.02022704       7.44339712      -1.30925664      -3.96917856      -0.73571423
C        3.70730536       5.02225727       7.34997105      -1.30760573      -2.14692513       0.65514742
C        6.14309844       4.97123789       7.55675180      -0.16885849      -1.21863631      -0.58897957
C        8.62807359       4.93378974       7.56792539      -0.83137186       1.57286259       0.12937971
C       11.03354586       4.93294830       7.52414356       2.68091549       1.86232664      -0.55777486
C       -2.43756225       7.04064988       7.68495124       0.26679489       2.79484750      -0.01283700
C        0.02839541       7.08865712       7.57731733      -1.25844444      -0.03196987      -0.47245666
C        2.51318945       7.14660273       7.50282132      -3.82279049      -1.48127141      -0.08015980
C        4.90117274       7.16332491       7.39601029       1.33669262      -2.55338518       1.09951401
C        7.42781508       7.05073521       7.49742528      -0.97896630       1.19769750       0.28014869
C        9.90556146       7.14486963       7.59716764      -1.91728448      -0.14227791       1.22040883
C       -3.63272361       9.23797096       7.69551866      -3.49920121       1.11472389       0.53914851
C       -1.22948110       9.22310268       7.83117836      -0.13298234       0.65452985      -0.08980812
C        1.17568729       9.19027481       7.52617283       0.89973004       3.79150530       0.62622766
C        3.66392038       9.27075574       7.47975684      -1.04253245      -0.11509723      -0.19396531
C        6.16516136       9.23249235       7.40201401      -1.18161859       0.96287299      -0.24297156
C        8.57513067       9.24132533       7.46320112       1.46999712      -1.39093750       1.02157873
C       -4.94455056      11.32359503       7.42946666      -0.39550123       0.55041637      -0.25272710
C       -2.50045596      11.31861113       7.70379837       1.13302449       2.00946033      -1.18864053
C       -0.02980493      11.36849189       7.74106908       0.77831355       0.57274948      -1.01708753
C        2.46856102      11.43677896       7.49340456       0.71807723      -6.46808129      -0.52175885
C        4.97329668      11.36421751       7.58930462      -0.34959547       0.52706689      -1.69815785
C        7.42850141      11.39513047       7.31496404      -1.75009336      -2.54732329       0.01141133
72
Lattice="14.76 0.0 0.0 -7.38 12.782534959858314 0.0 0.0 0.0 15.0" Properties=species:S:1:pos:R:3:REF_forces:R:3 REF_energy=-11162.789285830988 config_type=fd_force_conv_snapshot_006 split=train degauss_Ry=0.0038001738 kgrid=8 lattice_temperature_K=600.0 pbc="T T T"
C        0.00727361      -0.03231235       7.26568209       0.36599114      -0.38134062       1.52455285
C        2.49528987      -0.06820650       7.51850433      -1.89184882       3.31102526       0.79413252
C        4.85699873       0.03814034       7.47238000       1.02933138      -2.74592404       1.25695731
C        7.39847683       0.01539637       7.55608838      -3.05002743       0.79241554       0.69152288
C        9.80892317       0.06389364       7.33320351       0.22250790      -1.35673411       0.83004440
C       12.24610434       0.10402228       7.22380067       1.91672938      -4.64448729       1.00714533
C       -1.19554778       2.06514431       7.32645029      -1.16639432       4.01642284       0.21415978
C        1.21963320       2.09436348       7.24833635       2.12551247       0.32991959       1.79319970
C        3.73287451       2.22840863       7.39575720       0.18098715      -2.84402165       0.28989959
C        6.12778596       2.04330692       7.33824335       2.79038998       1.12612184       2.03378631
C        8.60769515       2.12038758       7.41811804      -0.94322102       1.70163063      -0.27126038
C       11.04574534       2.16687296       7.33916067       0.97103779       1.66369555       0.45324589
C       -2.40053849       4.23357295       7.68537512       1.08510992      -0.90386720       0.00990440
C        0.09389282       4.29343336       7.49681813      -3.25861795      -1.19424734       0.92275324
C        2.44767688       4.25126295       7.37034950       1.46808396      -0.57474157      -0.71699068
C        4.97262215       4.23847460       7.41942749       0.53025275       2.09524879      -0.50153764
C        7.41266990       4.20462471       7.32964583       0.50256068       0.50590594       0.52447034
C        9.91773798       4.20562692       7.53814463      -1.86247499       2.89547097      -1.18382846
C       -3.66868033       6.37960807       7.76886913      -0.42893457      -0.73817195      -0.83566689
C       -1.19646842       6.43363376       7.69705753       0.89309042      -1.37745283       1.46669197
C        1.35622690       6.43010861       7.62032329      -3.03338211      -1.00107547      -0.94033959
C        3.75870300       6.37942116       7.43715510      -1.96058186      -1.89299064      -0.44092568
C        6.19015004       6.38777504       7.48881882       0.87055008      -0.09967344      -0.53239319
C        8.61788545       6.38172302       7.38842620       0.47208694      -0.76818058      -0.04976422
C       -4.93151964       8.52558831       7.80906689      -0.19244476      -1.17480131      -1.96865230
C       -2.44344399       8.50669959       7.62249632      -0.86845643       3.05052340      -0.27621361
C       -0.00284517       8.51471986       7.56500340       1.59431202       2.63961252       0.27120845
C        2.49054791       8.52755654       7.58076241      -3.32209694       0.77266021      -0.32441717
C        4.92364100       8.52784689       7.47179770      -0.05848411      -1.55350604       1.16892197
C        7.37166963       8.54213973       7.68801009      -0.44037984      -1.29354154      -1.39711483
C       -6.22610101      10.68642510       7.78316286      -1.29442600      -2.45775711      -0.95402403
C       -3.79564880      10.59850680       7.64842943       0.70205077       2.74265179      -0.20810946
C       -1.32227643      10.66928209       7.51462653       0.53171725       1.22984349       0.59815018
C        1.16960208      10.71130929       7.50367277      -1.52854525      -0.70663994       1.12932621
C        3.58781254      10.64121908       7.50561651       1.01993297      -0.46987399      -0.62136621
C        6.07786811      10.63379790       7.45568806      -0.85627325       1.44760256       0.36226509
C        1.25522105       0.66244470       7.46950288      -0.73520052       0.44701097      -2.25869587
C        3.68004708       0.76190921       7.47874763      -0.32766730       0.06956428      -0.48524327
C        6.13065291       0.64924839       7.59719522      -0.49069710       1.89545787      -2.13104137
C        8.56574604       0.75069913       7.45893599       2.83465898      -1.65797305      -0.49631161
C       11.06682527       0.80542667       7.28323652      -1.91908940      -2.68886354      -0.38107400
C       13.57085380       0.70700459       7.24048607      -2.08938179      -1.55096965      -0.50104630
C        0.00865049       2.82872393       7.33030420       1.18649726       0.55256864       0.02112444
C        2.50228570       2.86056816       7.34972515      -2.58350436      -1.29420309      -0.38970211
C        5.03813598       2.87315614       7.42245249      -4.23837769      -2.14234188      -0.71113834
C        7.36716313       2.77441910       7.38431012       0.15765670       0.71823098      -0.51327087
C        9.81632372       2.86280298       7.40737785       1.23865646      -2.58296726       0.30921809
C       12.30803946       2.82131343       7.44066267       1.01104492      -0.14468446       0.07098739
C       -1.17609072       4.96813618       7.81027143       1.05224068       0.98263552      -2.28268426
C        1.29235667       4.99136946       7.48489506      -0.61145178       1.28897706       0.27701940
C        3.67817173       4.86209225       7.26689872       3.00495419       4.58803820       2.10604356
C        6.23661929       4.98340428       7.48466528      -1.94389694      -0.98793019      -1.19144766
C        8.66776608       4.89892249       7.30641230      -0.26788838       2.09632145       1.42948425
C       11.15337050       4.89497138       7.68301004      -1.78534755       3.14132165       0.21787168
C       -2.46029095       7.14728112       7.80962661       1.10706766      -2.58465005      -1.00962053
C        0.09639781       7.13676741       7.62369391      -1.98445532      -2.01467607       0.29775174
C        2.52582937       7.14578748       7.50836416       1.14083987      -1.89626006       0.43392225
C        4.95632685       7.05318241       7.52622252       0.05660284       2.17151311      -0.65223128
C        7.39510368       7.13472115       7.38860472       0.20268058      -0.80456220       1.66096452
C        9.84076512       7.09352198       7.57432252       0.61328395      -0.37717981       1.49627740
C       -3.71538184       9.24170721       7.60426668       0.40768440      -2.78814258       1.62646855
C       -1.20716035       9.25746971       7.52596808      -2.24875059      -1.10549183       0.32153419
C        1.19434889       9.29297505       7.59300901       1.48637711      -1.57304899      -0.49400019
C        3.66393998       9.18256330       7.51469417       1.93832639       3.00297239      -0.01541016
C        6.13672772       9.25297867       7.59738465      -0.71633248      -1.16883841      -0.45698968
C        8.57855606       9.20264413       7.78141339       0.76358293       2.50492991       0.62236123
C       -5.01967041      11.34430122       7.76271112       2.46744682      -0.12059065      -1.03036445
C       -2.60884855      11.35630454       7.51562289       2.23249685       0.31249034       0.23524488
C       -0.09226191      11.44473361       7.63898567       1.61067735      -3.84271319      -1.74102302
C        2.38589489      11.38674374       7.44720367       0.81619258       1.67523852      -0.20623744
C        4.79010171      11.32885080       7.41155646       2.50915680       2.98524566      -0.88566611
C        7.30504433      11.33820221       7.45279026       0.98826958       0.75184816       0.58719034
72
Lattice="14.76 0.0 0.0 -7.38 12.782534959858314 0.0 0.0 0.0 15.0" Properties=species:S:1:pos:R:3:REF_forces:R:3 REF_energy=-11164.009661838534 config_type=fd_force_conv_snapshot_010 split=train degauss_Ry=0.0038001738 kgrid=8 lattice_temperature_K=600.0 pbc="T T T"
C       -0.05275571       0.04877228       7.55567042       0.60453037      -2.71261231       0.82855034
C        2.38312699      -0.08889409       7.59962282       0.92940906       3.14754166       0.81152475
C        4.83141088       0.01486208       7.45828648       2.01114672       1.81165328       0.97875084
C        7.33129570      -0.00185310       7.28052834       1.38642264      -0.46852519       1.20788987
C        9.86346294       0.01514076       7.31151128      -2.56843256       0.29005335       0.35574606
C       12.26474962      -0.05435069       7.65462727       0.27557778       2.44415571      -1.19743319
C       -1.22586730       2.11325629       7.49054913       1.61892107       2.16578109       0.91921129
C        1.30412161       2.13900367       7.73886911      -2.90391704      -0.13385472      -0.10338817
C        3.72430514       2.11652651       7.63358064      -0.26445082       2.81113158       0.98713495
C        6.22272487       2.07083080       7.46759876      -0.60500680       4.68602012       1.46445794
C        8.61510676       2.15383846       7.31360032       0.24993077       1.12498799       1.42947474
C       11.14532008       2.15380674       7.44242006      -3.15747152      -1.31069080      -1.06844429
C       -2.42627157       4.24628653       7.23048428       2.14811093       2.90481667       1.30908489
C        0.05395446       4.30790710       7.45004187      -1.46624331      -1.07151701      -0.02816412
C        2.46514401       4.29749798       7.69669133       0.54662862      -0.73596954      -1.84949169
C        4.91570055       4.28858624       7.60695085       1.20672516      -2.81673942       0.15029204
C        7.39804417       4.31015824       7.69204847       0.92297744      -1.52494057      -0.98002713
C        9.92442678       4.24326112       7.46654242      -1.83990919       1.49889118      -0.66519761
C       -3.64777726       6.37018875       7.49161585      -2.29534772       1.74143157       0.00085695
C       -1.16119338       6.44081689       7.40101748      -3.97065951      -0.88004053       0.92436532
C        1.30025810       6.37219336       7.51660822      -2.57945770       0.21976427      -0.78784566
C        3.64148081       6.37817800       7.47331571       3.01361624       1.10230752      -0.26836841
C        6.13339362       6.39196617       7.60034871      -0.69243793      -1.65450797      -0.50139597
C        8.60744253       6.39354463       7.59183709       0.24736738      -0.76947281      -1.17399630
C       -4.92015084       8.52355364       7.69657419      -2.37751529       0.82034157      -2.38341597
C       -2.55568364       8.56391695       7.54360884       1.48526459      -1.36284974       0.12085779
C       -0.01919032       8.47441425       7.49713244      -1.44138974       0.59944807       0.44526647
C        2.40281480       8.51266714       7.43275071       0.81427351       0.25722267       0.05605648
C        4.95136323       8.52435165       7.41863003      -1.49237318      -1.54693044      -0.11170826
C        7.35435742       8.44466313       7.48426359       0.47496786       2.69744640      -0.48021214
C       -6.21474443      10.60964503       7.48586027       1.76929513       0.42002827      -0.07448923
C       -3.72703984      10.70698333       7.52461700       2.76871481      -1.70773083      -0.36405792
C       -1.22569361      10.62467441       7.53404007      -0.71300779       1.48483264      -0.65322295
C        1.26000883      10.67870867       7.36755779      -1.75019852      -1.21677534       0.39601879
C        3.71129096      10.57316642       7.42768913      -1.56563136       2.43764517       0.21584180
C        6.12741154      10.66003727       7.40230603       2.05608060      -0.52996710       0.72108285
C        1.17658986       0.64766230       7.69904134       1.95130121       2.94987165      -0.63725537
C        3.60097001       0.75087099       7.67832899       0.98900054      -3.94189812      -1.74483391
C        6.13147095       0.71903216       7.42479161      -0.88018554      -2.46023154      -0.78812899
C        8.56805321       0.74717352       7.30220935       1.16418780      -1.77570437      -0.80139820
C       11.05607515       0.69994940       7.43404458       2.21471895       0.95424463       0.99620323
C       13.49981093       0.73805022       7.66843994      -1.11945163      -1.92467872      -0.85903668
C        0.02896308       2.87374464       7.61861968       0.44448229      -1.28098222      -0.84710701
C        2.49551356       2.90536825       7.74825759       0.55410641      -2.50187929      -0.20583249
C        5.01591404       2.80006747       7.61032297      -2.89746923       1.12130694      -0.46682595
C        7.42708956       2.90468898       7.57580617      -0.52923639      -2.70303752      -1.42916749
C        9.86299215       2.85441225       7.37661607       1.86281695      -1.18445786       0.17202069
C       12.34396753       2.84801794       7.34748725       0.08503795       0.03013230       0.28287688
C       -1.15040762       5.07139083       7.33968013      -2.10613124      -4.48941866      -0.56425687
C        1.26001853       4.97721094       7.44456364       1.21057333       0.12222793       1.77686831
C        3.68578775       4.97529784       7.49835841      -0.17271900       0.08575992       1.45553364
C        6.14306955       4.95506901       7.69526474       0.10701188       2.03941574      -0.44224826
C        8.66690632       4.95800052       7.50538241      -0.58905439       1.06318638       1.45890693
C       11.14559582       4.99148826       7.38437390      -0.90027794      -2.36913272      -0.23408814
C       -2.49289017       7.10902115       7.54981553       2.29088326       1.54330596      -1.09191357
C        0.04287912       7.02434018       7.52591935       1.69608245       4.27584174      -0.41261449
C        2.46153475       7.11944217       7.47658947      -0.26919116      -0.60775119       0.08730104
C        4.91074165       7.07859574       7.45752184      -0.28523921       0.89191620       0.37535818
C        7.34557353       7.06294331       7.51834181       1.12588633      -0.30705400       0.89015911
C        9.81109568       7.12214516       7.52468213       2.11293618      -1.05967863       1.28369602
C       -3.75825651       9.29854180       7.51475129       1.18273985      -1.39985974       1.28460824
C       -1.29947486       9.21687486       7.55308475       1.51426021      -0.54432671      -0.33454294
C        1.15194903       9.22006095       7.42532554       2.65357335       0.91200397       0.09783716
C        3.66815277       9.16638205       7.42742350       0.61139316       1.32145344      -0.31653931
C        6.18324740       9.23392126       7.38569056      -1.85119530      -0.48017640       0.30069591
C        8.54692083       9.20157656       7.52477691       1.47668790      -0.83004929       0.77013101
C       -4.93026137      11.30628805       7.51180295      -3.13007899       1.55147538       0.25679587
C       -2.45130053      11.41823725       7.48941926      -1.43609661      -2.34227447       0.21577109
C        0.00357018      11.33963339       7.41947012       0.02638183       1.02877345      -0.57899212
C        2.48612941      11.38506581       7.36731912       0.35754763      -1.81966175      -0.12251358
C        4.90531402      11.33238016       7.54294816      -0.03969141      -0.77026368      -0.55229250
C        7.38034496      11.36987053       7.45413023      -2.27210109       0.67922503       0.09321997
72
Lattice="14.76 0.0 0.0 -7.38 12.782534959858314 0.0 0.0 0.0 15.0" Properties=species:S:1:pos:R:3:REF_forces:R:3 REF_energy=-11164.283771224027 config_type=fd_force_conv_snapshot_015 split=train degauss_Ry=0.0038001738 kgrid=8 lattice_temperature_K=600.0 pbc="T T T"
C       -0.01508977       0.00559769       7.58937952      -0.27459125      -0.44820422      -0.15130865
C        2.44656762       0.03639688       7.53730268       1.91225335      -1.89128292       0.97527137
C        4.90443617      -0.05644594       7.75451308      -1.06243176       0.85109325      -0.75810648
C        7.34913849      -0.01127961       7.62873087       1.41917361      -1.57557844      -0.63876384
C        9.81599155      -0.00550587       7.50006196       1.33911177       1.30113375       0.10179306
C       12.20522055      -0.04218435       7.59184235       1.64795474       4.19937919      -0.46659480
C       -1.15916508       2.08881748       7.60009749      -2.11462179       1.08621087       0.97615043
C        1.28601773       2.09560527       7.82114462       0.42883944       1.78711030      -0.71167210
C        3.78357544       2.13100540       7.72046040      -3.70113925      -1.27635732      -0.26632309
C        6.18010587       2.06671688       7.80191181      -0.61595584      -0.49352351      -1.53645088
C        8.61937983       2.08250649       7.64102930       1.62184108       0.19484128       0.98815079
C       11.12399651       2.25464616       7.63933757      -0.96025484      -4.12253792      -1.02300801
C       -2.39767601       4.33550180       7.44160085      -2.00416334      -2.08393748      -0.47807452
C        0.02435539       4.27848082       7.68726892      -0.86542972      -0.43113569       0.10353935
C        2.42261834       4.28104837       7.86966781       3.15236222      -1.09473536      -1.22391658
C        4.94899211       4.26201212       7.52699128      -2.21761350      -2.37989485       0.85720734
C        7.38545563       4.21408502       7.53234986      -1.34552873       0.67811612       0.02629262
C        9.78568205       4.22703885       7.44102598       1.30258925       1.08576298      -0.44475714
C       -3.69461073       6.32435231       7.08159505      -0.33160186       0.69179824       0.98446537
C       -1.20098029       6.46966889       7.31709602       0.81768614      -1.10681569      -0.27502242
C        1.25846357       6.40626857       7.53489259       0.13867862      -0.01152934       0.76493970
C        3.77640683       6.39345392       7.61761020      -0.92908355      -0.69734257       0.60042715
C        6.23353139       6.37736323       7.48625840      -1.97989213       1.21570165       1.33014454
C        8.62601826       6.37009339       7.33745817       0.78276902      -0.70826899       0.19823128
C       -4.93150718       8.51170346       7.22139148       0.43392431      -1.15859411       0.08434941
C       -2.46052221       8.54583421       7.07244318       0.69643163      -1.37173316       0.56978809
C        0.02559670       8.60653362       7.29789522      -1.97307665      -1.40790832      -1.67842051
C        2.41465808       8.52994032       7.40531568       1.27959048      -0.89739805      -0.25373651
C        4.85116979       8.56682490       7.63079885       2.53282226      -2.38559498      -0.58895720
C        7.34727936       8.52970237       7.41972314       0.99491794      -0.72879822       0.91493143
C       -6.19011863      10.62064034       7.34057374       0.35875322       3.37288548       1.15006653
C       -3.75756152      10.62450331       7.51973565      -0.03437334      -0.57989895      -1.11932308
C       -1.27441481      10.69475005       7.24025689      -1.41560749       0.83239002       1.03503100
C        1.21849736      10.67264500       7.27640666      -0.88275793       1.64742689      -0.81977902
C        3.63090063      10.65532131       7.40179407       1.49927479       0.03851950      -0.00332572
C        6.09746288      10.69716719       7.53593643       0.79418394      -1.79410679      -0.47268652
C        1.24314623       0.71628088       7.62207123      -1.25183413      -0.37930071       0.19362926
C        3.73859504       0.71017523       7.67892471      -2.32382063      -0.34742031       0.32135010
C        6.12458349       0.63117323       7.74047375       1.11805552       1.65655020       0.75712946
C        8.62395971       0.65790802       7.69592312      -2.17095158       1.34054208      -0.95309123
C       11.03531673       0.76781303       7.51212256       0.44655408      -0.43114366       1.10438497
C       13.47278080       0.66703296       7.66136832       1.49160622       0.70127739      -0.53495015
C        0.06535030       2.81136362       7.76505493      -1.07082436       1.04060310      -0.59263825
C        2.52671771       2.84188727       7.78997902      -1.19634561       0.02296946       0.65407502
C        4.96187246       2.74787754       7.59467160       2.60993685       4.57428383       1.11100864
C        7.40842561       2.77017867       7.68379853      -0.66525495       1.52507092      -0.23825359
C        9.86112826       2.85697093       7.60707206      -1.50840143      -0.90956657      -0.11269994
C       12.36429501       2.87874945       7.55400959       1.36601734       1.03696576       0.22197208
C       -1.18510035       5.05864498       7.45212177       0.15954004      -1.53456138       0.40746303
C        1.22149167       4.99390547       7.78383744      -0.08206396       0.33319132      -0.69521678
C        3.70611394       4.94585845       7.67368000      -0.08516265       0.89495473      -0.00642030
C        6.10915833       4.98901714       7.50635323       3.76195690      -1.94236868      -0.23397836
C        8.58086079       4.95818229       7.41524297      -0.07724982      -1.09615847       0.06640825
C       11.01704086       4.90763175       7.25225228       2.66959210       1.37128399       0.64646764
C       -2.46316187       7.05903596       7.11625753       0.26844400       2.35749154      -0.29507085
C        0.06143714       7.16451320       7.35558518      -1.21088495       0.34633017       0.31099652
C        2.51491717       7.07255351       7.58090494      -1.04715530       2.09472197      -0.82841869
C        5.00567644       7.11679490       7.64412870      -1.69564588       0.19050717      -0.90982548
C        7.45778319       7.06308652       7.49968530      -2.33991316       2.67868146      -1.04550645
C        9.84019984       7.05092144       7.21137559       0.61424503       1.66420566      -0.70869733
C       -3.68055414       9.19733637       7.20433272      -1.72275507       1.46363981       0.61621964
C       -1.22723388       9.32106409       7.12584656      -0.57351567      -3.08094598       0.52006449
C        1.20556177       9.29306568       7.19947380       2.03920157      -1.52875069       1.52872060
C        3.64727077       9.22599397       7.42372388      -1.13259203       0.99943254       0.63348022
C        6.09248702       9.22773884       7.57265031       1.12541119       1.81220401      -0.55137359
C        8.60757982       9.25466123       7.33635345      -1.24467001      -2.66411719      -0.28754961
C       -4.96075406      11.36446020       7.51798622      -0.71738638      -0.01383022      -0.80727034
C       -2.59319850      11.35232733       7.58157180       4.54020386      -1.15414121      -1.19805257
C       -0.03825075      11.37693490       7.27455164       0.53859160       0.74991392       1.43482212
C        2.44005866      11.38665401       7.35352106      -0.18024256      -0.91039986       0.23180938
C        4.87355075      11.38866535       7.50675240      -1.33490005      -2.71056134       0.12629850
C        7.34102237      11.37385451       7.44444136       0.43717855      -0.48874717       0.36216148
72
Lattice="14.76 0.0 0.0 -7.38 12.782534959858314 0.0 0.0 0.0 15.0" Properties=species:S:1:pos:R:3:REF_forces:R:3 REF_energy=-11164.019229633215 config_type=fd_force_conv_snapshot_019 split=train degauss_Ry=0.0038001738 kgrid=8 lattice_temperature_K=600.0 pbc="T T T"
C        0.04964003       0.02762201       7.65781577      -1.11286138      -2.52230645       0.69924776
C        2.50955725       0.03455606       7.60925457      -1.48638893      -2.30222439       0.12434215
C        4.89980727       0.01059606       7.51715236       2.59433899      -0.04070082      -0.09769086
C        7.48667487       0.02537014       7.53398265      -4.02962674      -1.42864658       0.52898776
C        9.86546186      -0.09218141       7.55092364       0.84996557       1.57662231       0.33305813
C       12.32400068       0.00501846       7.60765554       1.01884179      -2.06307272      -0.38374949
C       -1.22926481       2.11856216       7.59943688       1.28731896      -0.44375209      -0.48355663
C        1.26462793       2.08967704       7.70716845      -1.78116488       0.79230858      -0.27957173
C        3.71281385       2.18143289       7.75854255      -0.22317947      -1.33961031      -0.91334377
C        6.20928866       2.06829681       7.70838004      -1.54628664       2.90220751      -0.12763265
C        8.57413050       2.14697301       7.49291460       2.54359467       0.54226237       0.09428570
C       11.00101680       2.11398780       7.51422493       3.35317206       1.11231219      -0.09772275
C       -2.45152135       4.26437236       7.52283884       0.18270053      -1.85836585       0.06867674
C        0.00103980       4.32773146       7.41266521      -1.35618441      -3.35637643       0.86533871
C        2.39377078       4.22308920       7.68327044       0.48486352       0.29328008      -0.72650582
C        4.91840737       4.25167220       7.75292743       0.26318095       0.82415503      -0.22747501
C        7.40557341       4.34917603       7.49768318      -0.87806207      -2.47241522       1.10282559
C        9.83198700       4.34930238       7.50979575       2.13381842      -3.15898204      -0.69955423
C       -3.78837787       6.42291392       7.40088569       1.62238769      -1.14166905      -0.01408656
C       -1.31152196       6.43046355       7.31583425       0.10980539      -1.04410854       1.64971723
C        1.18658064       6.38308044       7.41948169       2.28120305      -0.59062379      -0.43827153
C        3.66027582       6.33473990       7.48209180      -1.67054111       0.95250373       0.08816364
C        6.08268597       6.40667179       7.39960933       0.68572144      -0.02365312       0.40067069
C        8.51035230       6.44028554       7.26953267       1.86234746      -0.15231344       0.66075911
C       -4.89904695       8.51583110       7.25616485      -0.88501382       2.25915739       0.31473877
C       -2.44578544       8.52925158       7.32902105      -0.92421903       1.94758699      -0.00344528
C        0.04356771       8.42764878       7.49496198      -2.08841351       4.36349811      -0.42957529
C        2.44109889       8.54394450       7.49787207       0.17998313      -0.47742840      -0.40796208
C        4.91820868       8.49070772       7.22815655      -1.11223300       1.75642418       1.07430100
C        7.37074728       8.51307738       7.21659394      -0.55946022       1.27026894      -0.04353418
C       -6.12771620      10.63622890       7.45853461      -1.74122305       0.22006895      -0.04943254
C       -3.65322066      10.69025346       7.39863595      -1.88366731      -1.63862344      -0.02777768
C       -1.19031093      10.66273753       7.50965575       0.49231278       0.80393228      -1.17866414
C        1.24094989      10.62333523       7.71487616       0.20686736       0.85883793      -1.05725999
C        3.72662120      10.58663486       7.57670804       0.64606423       0.45188526      -0.75817179
C        6.18578792      10.63307069       7.42802979      -1.90968996       0.49597891      -0.13692770
C        1.26751171       0.69481780       7.78555342       0.77403858      -0.10457525      -1.24748228
C        3.71039399       0.75424953       7.50521321       0.01603623       0.32070964       1.76151343
C        6.19474449       0.67490618       7.65677087      -0.31957424       0.13607975      -1.01491392
C        8.63300148       0.73110562       7.49905498       2.76909713      -0.92642298       0.30054962
C       11.11134137       0.70542188       7.57209175      -2.61402721      -1.68962692      -0.25439883
C       13.58216907       0.70665240       7.65798498      -1.61328753      -0.33117711      -0.23257196
C        0.03048898       2.77151162       7.50324833      -0.58561143       3.77485535       0.87308056
C        2.43821860       2.82889905       7.76148711       1.21232528      -0.00612771      -0.07227114
C        4.95760575       2.85571045       7.74419373       0.29550383      -1.42009947       0.46978400
C        7.39638094       2.86285254       7.61471211      -0.89532857       0.83931374      -0.47647967
C        9.81417111       2.86463859       7.45586864      -0.62564659       1.11106186       0.67398487
C       12.31979616       2.80203211       7.51068702      -2.43588190       1.55973994       0.46576948
C       -1.29396730       5.02556699       7.53738378       3.00995190      -0.54911462      -2.10387355
C        1.23067631       4.97802853       7.40003592      -0.92663484      -0.45073084       1.09566121
C        3.61203719       4.87722374       7.70348530       2.87584702       3.26788035      -0.69999415
C        6.15596778       5.03031334       7.62013519      -0.93311582      -1.60076986      -0.64706028
C        8.63813323       5.04822072       7.42441578      -2.11212319      -0.33920050      -0.23053205
C       11.13375575       4.96920335       7.49262646      -4.65269528       1.96315373      -0.15739882
C       -2.58156564       7.13855297       7.34677593       2.94891392      -0.49146328      -0.23160780
C       -0.00393771       7.04286815       7.40543586      -2.67888843       1.37809741      -0.45557531
C        2.40325405       7.11644988       7.38359817       1.65966535      -0.88156263       1.11576210
C        4.87017029       7.09706089       7.39677392      -0.49258608      -1.15325392      -0.57041415
C        7.29103941       7.10843364       7.25676148       0.78965803       0.42502778      -0.19390334
C        9.74510574       7.13761259       7.31075547       1.20958808      -1.19236940      -0.29078945
C       -3.66604800       9.26716628       7.35656020      -0.04587337      -0.93716762      -0.57700286
C       -1.19180019       9.25035562       7.36480943       0.27913696      -2.04680638       1.22884024
C        1.19372851       9.25675199       7.62094807       1.29466743      -3.89635180      -0.27860268
C        3.69418780       9.23172183       7.39968553       0.18291085      -3.07625268       0.18188601
C        6.13788810       9.24735186       7.26139413       1.03460291      -2.02305298      -0.13013819
C        8.61661165       9.22805537       7.23462408       0.00830209      -0.17557498       0.66234883
C       -4.92262295      11.33655241       7.52073870       1.82542128       2.52429649      -0.35853854
C       -2.45188096      11.37412171       7.40152443       1.37644111       0.68013649       0.83875324
C        0.08861505      11.40226348       7.54609884      -2.01022909      -1.47373242       0.74533735
C        2.51563008      11.21851480       7.66166748      -1.93362924       5.11216170      -0.03664439
C        4.92540330      11.28607672       7.47277712       1.08669141       3.63435202       1.14856115
C        7.36588804      11.35372702       7.58084028       2.61606019       0.67014853      -0.72483975
72
Lattice="14.76 0.0 0.0 -7.38 12.782534959858314 0.0 0.0 0.0 15.0" Properties=species:S:1:pos:R:3:REF_forces:R:3 REF_energy=-11163.637146020774 config_type=fd_force_conv_snapshot_023 split=train degauss_Ry=0.0038001738 kgrid=8 lattice_temperature_K=600.0 pbc="T T T"
C        0.06144573       0.04325945       7.43936352      -2.40445248      -0.56234423       0.32323626
C        2.44354591      -0.11171565       7.51379369      -0.47806912       5.93534434       0.04818864
C        4.91157048       0.03311873       7.55796773       1.46557200      -0.49995075      -0.47350027
C        7.46557520       0.00906562       7.53888732      -1.41087049      -0.84382963       0.18579588
C        9.92263949      -0.02344647       7.66920426      -1.33360550       0.47913176      -1.05974496
C       12.37487809       0.00849443       7.61950103      -1.06020493      -0.75451053      -0.34917201
C       -1.25138358       2.15921269       7.48892492       2.61061330      -0.20687302       0.75922542
C        1.29076689       2.12698870       7.52866242      -4.74786363       0.54106372      -0.17987026
C        3.64432204       2.13403031       7.31147874       0.64584877      -1.47003852       0.90893639
C        6.13232756       2.13355808       7.44864469      -0.86125194      -0.24079718      -0.25486446
C        8.53135938       2.16017818       7.56345824       2.42376738      -1.85722068      -0.00345582
C       11.09783402       2.17503275       7.65764398      -3.01845686      -3.31390875      -0.25994804
C       -2.53284996       4.22843999       7.59036580       3.06518846       2.84567384       0.17511372
C       -0.06883828       4.27610997       7.53034085       1.78747411      -1.66886321      -0.05030363
C        2.41098913       4.22899602       7.45368242      -0.13415451       1.44439408      -1.36891292
C        4.85097962       4.23915119       7.20338921       2.12484141       0.44256579       0.49837210
C        7.39332191       4.28947086       7.29784752      -1.76308103      -0.64493603       0.41562423
C        9.87984003       4.27254671       7.47420418      -3.69369180      -0.35189043       0.08079949
C       -3.74573835       6.39955126       7.38946235       2.13937252       0.84611097       1.57817552
C       -1.27624925       6.39945614       7.50422022       1.33059139      -1.87379299      -0.01953370
C        1.25868389       6.33355144       7.45885816      -1.51551953       3.07831702       0.05003958
C        3.64941012       6.38994165       7.36028261       1.43071324       1.72451062       0.59989313
C        6.12634417       6.41321185       7.40798624      -0.23327619      -0.53479100       0.62898619
C        8.64281607       6.38953990       7.42586521      -2.81115755       1.23497335      -0.17381043
C       -4.95089501       8.54174293       7.63104528       0.41122815       1.37172236      -0.77289315
C       -2.53833769       8.52021880       7.51203402       3.17671031      -1.04916873      -0.08274607
C       -0.01528120       8.45129945       7.41283192       0.14765923       0.29576685       0.29371768
C        2.35867368       8.54005545       7.46805814       4.76133956       0.22151751      -0.40204083
C        4.87590889       8.55468984       7.66792661       2.75281871       0.30159811      -1.18749176
C        7.37777172       8.47083049       7.64661448      -1.33562433       2.47726998      -0.52253121
C       -6.16811036      10.65361058       7.53513672       2.32657865      -1.89230853       1.04056839
C       -3.56202854      10.67591657       7.65847980      -2.40279823       0.63913922      -0.15065713
C       -1.13061887      10.60586712       7.61512594       0.58789174      -0.31726385      -0.79652262
C        1.31302383      10.65145130       7.47069167      -0.70283702      -0.36801125      -0.26874533
C        3.71547932      10.60260144       7.40703510       0.85595058       2.55743852       1.37269115
C        6.16706377      10.64546027       7.52598711       1.55386651       3.27176940       0.08954895
C        1.21608061       0.75134337       7.47511022       3.22643211      -2.83015800       0.03003383
C        3.61930681       0.70196372       7.47346614       2.29490060      -0.94510384      -0.12737168
C        6.16531173       0.71421587       7.49397556       0.54448457       0.21969588       0.41241703
C        8.68816567       0.70759166       7.56834640      -1.68811949       0.75606142       0.56088050
C       11.12111773       0.66387236       7.68022289       1.22918426       3.50975996       0.01741640
C       13.58169532       0.77367746       7.49195827      -0.97000035      -2.67079589       0.22161212
C        0.00140506       2.83479820       7.55726781       0.13299365       0.78815393      -0.55262777
C        2.43118504       2.83567418       7.42206606       2.04650941       0.98465409      -0.07111517
C        4.88557364       2.81874698       7.31146273      -0.21191958       0.21055741      -0.30133406
C        7.32558225       2.85010385       7.49396695       0.83318629       1.36038791      -0.99843289
C        9.75303212       2.84146078       7.56580383       4.15755480       1.31761452       0.27208365
C       12.30819560       2.85252920       7.59252261      -2.00673805      -0.15236872      -0.01542945
C       -1.27095440       4.94362764       7.52239682      -2.18059733       1.47783462       0.25453536
C        1.16349488       4.96681104       7.46869566       2.15039869      -1.67901984       0.43619459
C        3.63827263       4.94641994       7.22708412      -0.70793012       1.01679082       1.28599381
C        6.12245269       4.97243846       7.26481076      -0.40975774       0.54399041      -0.06121848
C        8.61076718       5.00229389       7.29106845       1.61867862      -1.47926235       1.06648768
C       11.05825092       5.00782612       7.62546614      -0.75667386      -1.21660925      -1.82897429
C       -2.48393678       7.10176439       7.47560101      -2.07599020      -0.07637436      -0.43196719
C        0.00712105       7.03017978       7.49046686      -0.24410259       0.91591308      -0.50036444
C        2.45740312       7.17356977       7.44597466      -1.25276127      -4.69737308      -0.24016752
C        4.89523004       7.16291366       7.54610423      -0.18766251      -3.12772900      -1.03093626
C        7.37547462       7.08398103       7.55374031       0.13373156      -1.03426893      -0.61601498
C        9.80834026       7.15100124       7.43875138       1.26882193      -0.94653903       0.44380660
C       -3.67494282       9.28779452       7.60795205      -1.74199773      -1.27657406       0.19295486
C       -1.24659691       9.11433926       7.49097665       0.14002408       3.83750259       0.47022494
C        1.19364249       9.22767683       7.37972603      -0.72396583       0.49531403       0.63977583
C        3.69491420       9.21977047       7.48558286      -2.88829682       0.01440872       0.19225964
C        6.18735892       9.31007749       7.58175176      -1.94840923      -5.44091709       0.90785858
C        8.54744002       9.21028133       7.62967538       2.45177569       0.67104893       0.01473808
C       -4.91366778      11.33766123       7.64830110       2.05688767      -2.22073302      -0.74374070
C       -2.29540392      11.38490068       7.60550937      -3.86037024      -0.51038532       0.45641606
C        0.12530471      11.34295448       7.57383376      -2.50218217       0.64025328      -0.18906144
C        2.53168963      11.36655326       7.47302312      -0.56297749      -1.20614512       0.25737051
C        4.92864018      11.34469146       7.58485547       1.18439281       0.44067166      -1.06121640
C        7.46681662      11.38412975       7.47747656      -4.24061403       1.05193575      -0.03525497
72
Lattice="14.76 0.0 0.0 -7.38 12.782534959858314 0.0 0.0 0.0 15.0" Properties=species:S:1:pos:R:3:REF_forces:R:3 REF_energy=-11164.042880271445 config_type=fd_force_conv_snapshot_027 split=train degauss_Ry=0.0038001738 kgrid=8 lattice_temperature_K=600.0 pbc="T T T"
C        0.03439879       0.02109693       7.36636486      -0.60712179       1.17100096       1.10860878
C        2.50654487       0.03307983       7.29258383       0.52878182      -0.06390863       0.92726861
C        4.92651774      -0.04797279       7.30920567       1.80124186       1.55960624       1.41678017
C        7.38008453      -0.00920858       7.40956608       3.08400019       0.46673698      -0.71615945
C        9.86474966       0.04286927       7.44226939       0.45856216      -1.50276429      -0.10468452
C       12.27371639      -0.02545279       7.69666637       2.51637929       2.11843011      -1.60561150
C       -1.24782804       2.14404686       7.21564858      -1.78477240      -0.81471060       1.14962327
C        1.21126804       2.16336861       7.30119297       2.06527949      -2.07234951      -0.74407391
C        3.70339203       2.12882360       7.25123310       0.74937964       0.10755259       0.83103711
C        6.14087382       2.07284950       7.41937584      -0.05353577       1.74554122      -0.17555107
C        8.58702801       2.14401295       7.45924749       0.58636527      -0.92623066      -0.20669870
C       10.97469876       2.12227145       7.42202415       2.22373787      -0.98252008       0.60674872
C       -2.57446033       4.26446181       7.38842551       1.93817135       0.48245002       1.23871739
C       -0.01466313       4.24224989       7.26363804      -0.30604587       1.30681100       0.39191711
C        2.42807416       4.20932873       7.21594914       1.10180846       2.60657641       0.45460343
C        4.93119650       4.29727121       7.23205626      -0.24639781      -0.58723945       0.87922832
C        7.38099948       4.23195160       7.54793042      -2.65456400       0.63431712      -0.14680279
C        9.78068736       4.27920681       7.57244212       1.01254696      -0.07610954       1.50176207
C       -3.65632505       6.37185461       7.95053055      -2.51317415      -0.09949141      -1.39275835
C       -1.19356154       6.34323001       7.59509017      -0.53862760       0.93634229       1.05650846
C        1.23954372       6.40423075       7.60125774      -1.16744796      -2.33980929      -0.99422579
C        3.64589693       6.41888361       7.32534156      -0.20451300      -1.49213741       0.14320993
C        6.11772634       6.41579884       7.49692665       2.07269199       1.22843889      -0.79486426
C        8.55322035       6.34730807       7.69123145       1.89934667       0.18939954       0.74071322
C       -4.94961281       8.43214055       7.75158119       0.31088288       1.47435231      -0.34243366
C       -2.45005126       8.46384900       7.76915987       0.31500925       1.15367944       0.43765009
C        0.00877312       8.51808163       7.73522587       2.71560533       1.19983923       0.26653444
C        2.53260317       8.53336140       7.60955006      -2.88230280      -0.38551198       0.52581656
C        4.99808556       8.51183884       7.45343944      -2.15651560      -0.26679412       0.70120822
C        7.45102209       8.60375678       7.60059311      -2.50870043      -3.40680348      -0.24602346
C       -6.13754819      10.69007242       7.56492155       0.39433498       0.91989237      -1.32900117
C       -3.65676656      10.64876257       7.60417696      -1.50345412      -1.00948735      -0.63797991
C       -1.19601561      10.61537656       7.63658546      -0.17206131       2.11021055      -0.60912082
C        1.23514642      10.69437817       7.57347654      -0.05011929      -0.54569865       0.07134708
C        3.65255414      10.70444933       7.60378233       0.46118803      -2.58482257      -0.18704801
C        6.15966132      10.71858698       7.47148510      -1.97297509      -2.25685342       1.69882530
C        1.30048595       0.71421035       7.34664738      -3.15844777       1.65355383      -0.65437789
C        3.74777729       0.71139638       7.36793211      -0.93796492       0.01459435      -1.52907824
C        6.19129141       0.67552941       7.39449892      -2.52668530       0.11011701      -0.50898612
C        8.68755858       0.72711325       7.29705755      -4.20086966       0.59616940       1.48615291
C       11.11106010       0.65488847       7.53557582      -2.93931033       3.97696026      -0.16212168
C       13.51770138       0.70265255       7.47129401       0.89346580       1.65812294      -0.79118681
C        0.01596987       2.85896095       7.16004595      -2.26150403      -1.65332038       0.63725049
C        2.47336043       2.82919382       7.24619251      -1.02994562      -0.63729651      -0.14742500
C        4.92441291       2.84145647       7.32982661       0.36181361       0.32713123      -0.70704051
C        7.35470088       2.79756198       7.50665873      -0.28324069       1.04240467      -0.29356342
C        9.79642043       2.86887841       7.53878044      -0.63222501      -0.53930329      -0.93859072
C       12.15406082       2.85005157       7.31474521       3.76600973      -0.27571919      -0.46626853
C       -1.24406286       4.93745560       7.45617789      -1.19313353       0.05328251      -0.81205208
C        1.20142986       4.93820805       7.34531875       0.82756097       1.43956837       0.28697239
C        3.66835957       4.96377607       7.22972521      -0.10589166       0.61688350      -0.04978453
C        6.15394705       5.05327071       7.40330497       0.05908601      -4.17365068       0.26747623
C        8.55167196       4.94051831       7.68164892       0.59033171      -0.01476250      -0.69886312
C       11.01012881       4.99228121       7.71520645       0.92106891      -1.34610286      -0.99141044
C       -2.44239628       7.05407600       7.79221960       1.10048666       0.11537851       0.08645129
C        0.04679185       7.11549240       7.68928701      -2.15473589      -1.43009000      -0.36122328
C        2.40248504       7.11168509       7.54087121       3.71977101       0.49377779      -0.50664976
C        4.88724124       7.08680537       7.34231656       1.01661265       1.28636096       0.86513610
C        7.42914440       7.11504781       7.60223988      -3.34428273       1.61472863      -0.06997360
C        9.80093728       7.01869948       7.85752378       1.08517934       1.35801195      -0.08846189
C       -3.71742416       9.12057540       7.76198600       1.47707794       3.12590454      -0.40788263
C       -1.18292388       9.23554340       7.74782461      -2.26283715      -1.59429762      -0.19060796
C        1.28674001       9.28391985       7.71843689      -0.86036465      -1.42017891      -0.70588840
C        3.75400297       9.17314127       7.58767028      -0.17287249       3.91977841      -0.61302453
C        6.18460927       9.23903711       7.58308345       0.92658136       2.26107183      -1.21842830
C        8.63336647       9.26733129       7.55447763       1.63196171       0.10203500       1.35732007
C       -4.89904554      11.43249848       7.40295537       0.62732989      -3.53274485       1.43939765
C       -2.42080008      11.35542738       7.51498694      -1.08400178      -2.14691408       0.09713422
C        0.00569994      11.37599509       7.49736111      -0.19358967      -1.11613311       0.57157937
C        2.42697735      11.43238638       7.51223514       1.41219358      -2.02479516       0.54324479
C        4.86277153      11.39518166       7.60704488       2.24293038      -2.20161455      -0.18856213
C        7.36392157      11.42066069       7.50666213       1.76945762      -1.65684639      -0.45173511
72
Lattice="14.76 0.0 0.0 -7.38 12.782534959858314 0.0 0.0 0.0 15.0" Properties=species:S:1:pos:R:3:REF_forces:R:3 REF_energy=-11162.828007358117 config_type=fd_force_conv_snapshot_031 split=validation degauss_Ry=0.0038001738 kgrid=8 lattice_temperature_K=600.0 pbc="T T T"
C        0.00827811      -0.03470250       7.25933063      -2.53887901       0.18394700      -1.10044218
C        2.35700105       0.01472374       7.23222759       1.56095427      -0.94100884       0.83356733
C        4.87422890       0.07652656       7.34833252      -1.37075640      -1.62820301       0.94974005
C        7.29394188      -0.04186352       7.69895883      -1.12558397       0.68700031      -1.12011446
C        9.77667833      -0.01405423       7.45747118      -2.26943588       1.31845039      -0.54701917
C       12.24564788       0.00794617       7.18968424      -1.44912568       0.43506459       1.70216080
C       -1.15665900       2.13101901       7.16679873      -3.35621702       0.66823511       1.24212719
C        1.20603908       2.15222710       7.21272627       3.56313940       0.13788132       0.98040817
C        3.71046362       2.11386382       7.16206083      -1.80553483       1.23737296       2.08385032
C        6.15676881       2.18954915       7.37814074       0.35780629      -0.74670724       0.92017931
C        8.57187234       2.10875927       7.35866199       0.95125006       0.22291490       0.86925630
C       11.07364743       2.11390399       7.42619848      -0.49435603       3.28820466      -0.43811598
C       -2.44478835       4.30457923       7.62499589      -2.23179185      -3.47026139      -0.76298360
C        0.05944331       4.22561184       7.56608416      -0.12696467       1.39170343      -0.80295989
C        2.56117152       4.23552836       7.44032484       0.25270910       1.42799198       0.12225955
C        5.02287482       4.26237688       7.47733201      -2.48377153       1.05987660      -0.19503617
C        7.43025914       4.25320814       7.44570324       1.12424700       1.64505145       0.38527647
C        9.82131692       4.23171091       7.40203904       1.37505477       1.18004713       1.44652912
C       -3.64659971       6.40892199       7.71272867      -3.61722847      -2.41286333      -0.02234237
C       -1.21571602       6.33379526       7.57731715      -0.12682866       3.40772419       0.88024596
C        1.21273464       6.36442455       7.52820566       3.28042630       0.07257479       0.99268313
C        3.72431267       6.40278036       7.67502613       0.59680729      -1.41740855      -0.57277596
C        6.22225783       6.40224972       7.69440844      -2.13238297      -1.05486938       0.15442277
C        8.65162210       6.41679153       7.52217532      -1.35317751      -1.15300453       0.55675542
C       -4.90913711       8.49899841       7.66747428       0.97023149       0.13623299      -1.02576140
C       -2.51681266       8.47674984       7.60236876       1.88213905       2.35309701      -0.55955432
C        0.05651509       8.59119632       7.52013261      -3.12536281      -3.96522574       1.13264396
C        2.52972401       8.47428359       7.63082148      -1.67344672       1.98452809       0.88391467
C        4.95669670       8.52507040       7.67596673      -2.26546970       0.08950781       0.80143137
C        7.43087506       8.57466240       7.64897911      -2.34886703      -1.85561657      -0.11211552
C       -6.13212671      10.59570204       7.46893061       0.56739053       1.16801694       0.20967501
C       -3.74407303      10.70967466       7.53820787       3.88111416      -2.52156237      -0.24735555
C       -1.23489556      10.66484907       7.69141138      -3.13212121      -1.42903379      -0.40683877
C        1.21964837      10.60551346       7.78039575       0.76206084       0.84376767      -1.53119863
C        3.61028634      10.63819629       7.57996230       1.29074958       2.00947473      -0.50776459
C        6.12002949      10.68620938       7.41472361      -1.18954068      -1.35947003       0.60373822
C        1.14803089       0.75053101       7.15504608       1.69275287      -1.56467388       0.58254024
C        3.57730989       0.68641462       7.19226200       2.89180046       1.71148284      -0.18684618
C        6.08475275       0.78462418       7.48764301       1.06374020      -1.86814145       0.03591085
C        8.42450678       0.68616900       7.45218829       5.55880191      -0.15838304       0.70625144
C       10.96403670       0.75782745       7.33863558       2.55700709      -3.44620435      -0.48435933
C       13.50169068       0.70865607       7.16183814       1.01231942      -1.06808125       0.02123243
C        0.05688510       2.84698686       7.32800045      -2.31342386       0.42360519      -0.20167013
C        2.50550663       2.85880783       7.41777653      -0.60673021      -2.69773539      -2.62991586
C        4.91058909       2.86221472       7.39064964       1.44248323      -0.89445928      -1.31835629
C        7.43048661       2.87431294       7.45031956      -2.44121849      -1.34100642      -0.95027587
C        9.82972404       2.84881355       7.44142749      -0.15459529      -2.56796899      -0.79193217
C       12.32464950       2.85777318       7.37063969       0.63844862      -0.50826390       0.35265380
C       -1.23035123       4.95800323       7.59436706       2.73240595      -0.49258917       0.30367737
C        1.34724091       4.91327016       7.53529157      -3.89712159       1.88546477       0.06849136
C        3.78181965       4.99160424       7.39653356       0.00613105      -0.29974615       1.89519794
C        6.24742660       4.95413819       7.60676512      -1.23788693       1.34078710      -0.51676397
C        8.65278063       4.97694390       7.40044730      -1.41447621       0.98052310       0.33766298
C       11.01910863       4.93383546       7.70003760       2.81837849       1.95372601      -1.25397303
C       -2.46577326       7.09826485       7.71091944       1.71539246      -1.68042700      -0.85587345
C        0.01324529       7.08582065       7.55023651      -0.25804337       0.60727940      -0.60101799
C        2.51140616       7.10258373       7.69045626      -1.94440576      -1.83107334      -1.29495256
C        4.94373670       7.09210047       7.78306406       1.35905402       0.77746277      -0.89646320
C        7.39405004       7.12598111       7.66305811       1.99256356       0.84527459      -0.48406853
C        9.84553749       7.11353775       7.64344645       1.74667636      -1.16708132       0.18100386
C       -3.72574687       9.20342087       7.47028633       1.14052439       1.96295319       2.14154150
C       -1.26950190       9.21440881       7.59649883       1.39400354       1.18261284       0.05078931
C        1.28755577       9.19737299       7.64830877      -0.35048044       0.82933092       0.06918864
C        3.67846397       9.26992321       7.68780793       1.81610437      -2.93743780      -0.38315942
C        6.11859530       9.25520665       7.58598520       3.17552118       0.78905845       0.02251772
C        8.67882725       9.19392040       7.60612467      -2.86163962       1.95520286      -0.04768445
C       -4.90866028      11.37059340       7.53177479      -4.50632675       1.57116489      -1.90771741
C       -2.50496381      11.45102569       7.55631987       1.26382293      -1.82031301      -0.20104587
C       -0.01147114      11.27642987       7.79972610      -0.39646282       2.78879564      -0.37825530
C        2.39876017      11.36579725       7.50059849       0.00507947      -0.51009530       1.72849841
C        4.81772920      11.38256795       7.46836228       2.71414186       0.21564511      -1.52949502
C        7.39849372      11.29025672       7.31084450      -0.55357908       2.03988034       0.61818267
72
Lattice="14.76 0.0 0.0 -7.38 12.782534959858314 0.0 0.0 0.0 15.0" Properties=species:S:1:pos:R:3:REF_forces:R:3 REF_energy=-11164.129755607688 config_type=fd_force_conv_snapshot_036 split=train degauss_Ry=0.0038001738 kgrid=8 lattice_temperature_K=600.0 pbc="T T T"
C       -0.05154795       0.04622778       7.49129446       1.47442688       0.34643558      -0.85191164
C        2.42130735       0.04323188       7.49962969       0.59676976      -0.56009708      -1.57158861
C        4.90843199      -0.00896095       7.45046523      -0.60012582      -0.05087210      -1.44584855
C        7.34461982       0.01576201       7.41329809      -0.11023168       0.06849136       0.77002174
C        9.81910708       0.01231970       7.55365881       0.61356446      -0.45567507      -0.15269190
C       12.23847053       0.02067154       7.53566043       1.73695348      -0.92292370      -0.26532345
C       -1.29278128       2.17862841       7.26352976       2.12149281      -4.10935536       1.06491982
C        1.21594007       2.14389999       7.53210037       0.26323366       1.12135425       0.11034635
C        3.75554503       2.17946132       7.58018635      -0.52172388      -1.14274583      -0.72211978
C        6.13782743       2.12275194       7.66779828       2.28628304      -0.93983591      -1.19327880
C        8.59134114       2.09475319       7.53870175      -0.13966901       0.39302654       0.16689879
C       11.03644088       2.14749678       7.37077750       1.43071632      -0.29122088      -0.24217735
C       -2.40154856       4.24923239       7.39283809      -0.86795275       1.56445560      -0.82735426
C       -0.01858253       4.19841427       7.45408843       0.29063724       0.80211605       0.23198395
C        2.47731674       4.25006639       7.68246926       0.15203164      -0.17528162      -0.62387741
C        5.01068460       4.29758978       7.67524060      -2.70831651      -1.12262669      -0.49554645
C        7.38415496       4.21491458       7.61377524       2.25901957       1.13254035      -1.21085203
C        9.88926338       4.20176359       7.44239411      -1.48077056       2.90745102      -1.11436162
C       -3.66265884       6.36013494       7.26718034       2.37254406       0.87540021       1.42805857
C       -1.16361314       6.36114275       7.65659918      -0.32635295       1.30034185      -0.87044903
C        1.31794124       6.32268005       7.64226271      -2.45599847       1.59928890      -0.26790072
C        3.70454819       6.38564855       7.57133382       3.44621412       0.02156461      -0.01713049
C        6.16972572       6.42248453       7.49937489       2.13230018      -2.96568908       0.53571428
C        8.67766180       6.37861063       7.36201132      -1.54573976       0.06078422      -0.98344207
C       -4.89757794       8.55125572       7.30073691      -1.04940450      -0.90795371       0.42712477
C       -2.50825226       8.51355131       7.57139143       1.64408883      -0.74024323      -0.39435555
C        0.03534556       8.54931412       7.75992326      -4.37627726      -3.38845840      -0.27386620
C        2.43737748       8.51005496       7.66076547       0.62082345      -0.17159568      -0.27729168
C        4.96821849       8.55140804       7.54233803       0.45721130      -2.47721239       0.23916247
C        7.35537208       8.50133554       7.43225532       3.75223453       1.98285044      -0.32981674
C       -6.19791636      10.69377709       7.32735520       0.14312303      -1.47276440       1.17307122
C       -3.70953210      10.64835191       7.34978524      -0.89299812       1.56721979       0.29966130
C       -1.25625307      10.57511443       7.38984961      -0.65760488       2.52880620       0.74965835
C        1.13366817      10.71406292       7.61264467       2.08860583      -1.09949216      -0.59911049
C        3.62964561      10.60692288       7.68314658       0.32990827       0.40552390      -1.00904949
C        6.03340608      10.70756420       7.46277964       6.48443479      -1.36612481      -0.11245105
C        1.19974176       0.78452914       7.43949931       0.09975417      -2.88423036       0.94086615
C        3.68257636       0.76061262       7.38861039       0.29212103      -1.22094464       1.90173394
C        6.12096097       0.70591133       7.47435076       0.13771523       0.46496421       0.52798709
C        8.59874065       0.67566244       7.54866558      -0.87418536       1.27918861      -0.72446617
C       11.05327472       0.73810784       7.52571268      -1.00849516       0.21753024      -0.47211419
C       13.48959527       0.72518650       7.45266292      -1.69739834       0.68556820      -0.50320834
C       -0.06691238       2.79591774       7.43530531       2.48460045       1.56709920      -0.33832787
C        2.50505740       2.82153297       7.67866878      -1.17502783       1.46995367      -0.77043980
C        5.02947409       2.88108584       7.56259864      -4.40697701       0.24499296       1.41319631
C        7.37299740       2.81316343       7.63882922       0.73443253      -0.57401704       0.07509292
C        9.80327460       2.81593228       7.42187155       1.06415672      -0.51376452       0.50596739
C       12.31405668       2.87242141       7.20558641      -3.39949486      -0.41228385       1.32764620
C       -1.18275619       4.96093368       7.42613030      -0.85519211      -0.14807292       0.77934199
C        1.18179045       4.90326927       7.57352424       3.82286376       0.82017805       0.52298347
C        3.73459790       4.99726961       7.62806239      -0.79771689      -1.90574152       0.46302097
C        6.20652420       4.93501466       7.63491714       0.09251652       3.61125657      -0.42513216
C        8.62909999       4.94574147       7.34099092       0.82556786      -0.58362293       2.01648870
C       11.13136761       4.95917507       7.41853077      -1.46649219      -1.04598853      -0.71434528
C       -2.38653319       7.09453971       7.50834441      -2.50290156      -0.96238243      -0.22847800
C        0.06683219       7.08194765       7.75361885       0.76330936       0.06492087      -0.36236177
C        2.54953565       7.08922688       7.54125796      -4.56946250       0.30281476       1.21691058
C        4.97146415       7.07261352       7.56165997      -1.30353928       2.62023977      -0.42421788
C        7.40936819       7.11068171       7.40467601       0.03001532      -1.05780609       0.37475577
C        9.90133207       7.08904591       7.21686245      -1.15681182       0.88691720       0.93068638
C       -3.69707730       9.26807066       7.41098496      -0.10531367      -1.74266698      -0.42222553
C       -1.28267306       9.18418198       7.63990483       2.17123466       1.11355995      -0.43710142
C        1.15500465       9.26362642       7.69291086       4.37968397       1.33301697      -0.07438459
C        3.71157482       9.14778550       7.66719885      -1.74759322       3.47612093      -0.24013872
C        6.21864397       9.27631258       7.46583337      -4.63084707      -0.08954252       0.27571328
C        8.62168642       9.25174291       7.41413680      -1.07692918      -0.70606941      -1.27807327
C       -4.98486067      11.35595657       7.39888475       2.31220336       2.30306643      -0.23577607
C       -2.47508593      11.33723916       7.31599453      -0.07877886       0.31415255       0.78039152
C       -0.07098345      11.40747700       7.43995377       0.13116406      -2.50660961       0.15224402
C        2.41556000      11.38317472       7.55032080      -0.16696153      -1.61993717       1.30659735
C        4.85244423      11.34130008       7.56303885      -2.12948225       1.95072991       0.50225420
C        7.36721355      11.43309234       7.41025411      -3.15518941      -1.07007308       0.29208555
72
Lattice="14.76 0.0 0.0 -7.38 12.782534959858314 0.0 0.0 0.0 15.0" Properties=species:S:1:pos:R:3:REF_forces:R:3 REF_energy=-11163.923943530335 config_type=fd_force_conv_snapshot_040 split=train degauss_Ry=0.0038001738 kgrid=8 lattice_temperature_K=600.0 pbc="T T T"
C       -0.05262777      -0.04236872       7.55464902       0.74806864       1.38689007      -0.07887090
C        2.37804621       0.00953439       7.61304344       0.93031666      -0.56982177      -0.75072176
C        4.85767331       0.02756312       7.68782749      -0.47793877      -2.03828445      -0.30814826
C        7.34550304      -0.02682726       7.63453873      -0.63133155       0.00250708      -0.52236949
C        9.81811392       0.01831130       7.56404700       0.40433091      -1.06690137      -0.40517012
C       12.26320195      -0.00025884       7.72772983       2.29682687       0.95539725      -1.31097208
C       -1.20682046       2.16186255       7.77238847       0.82070281       0.02641963      -0.23911285
C        1.23809091       2.15339417       7.73999211      -0.53000438      -1.17441410      -0.26904203
C        3.70170133       2.14984058       7.64615491      -0.05454570      -2.47517864      -0.21268371
C        6.16212682       2.04366685       7.62934969      -1.01163833       3.24913135      -0.24737458
C        8.62293604       2.12399653       7.59928705      -0.74335760       0.18808957       0.32273438
C       11.06552478       2.09143390       7.73700043       3.84551724       0.63825039       0.54935964
C       -2.45109281       4.24832821       7.60629348       1.18185359       3.16379206      -0.53365432
C        0.01300182       4.33049094       7.62690087       4.49710754      -1.28441104       0.22861221
C        2.52759562       4.32547944       7.63208490      -1.86167872      -3.33142259       0.00423306
C        4.98880001       4.23122640       7.59720276       0.93598080       0.45248150      -1.77772089
C        7.40381966       4.24708623       7.53988349       0.05513294      -0.97338340      -0.59124343
C        9.86892750       4.21264719       7.55862229       0.45306592       0.47151229      -0.24133917
C       -3.70655479       6.38744035       7.36826502      -0.66536550       0.17232408      -1.41861440
C       -1.20825195       6.42919835       7.31512013       0.07055441      -2.17098552      -0.31796756
C        1.28405635       6.45982393       7.41281194      -1.71995874      -2.45990963      -0.22998698
C        3.76328081       6.37003845       7.49799565      -2.49752050      -1.41116025      -0.42192934
C        6.16709037       6.37769286       7.53901301       0.22645762       2.51428230      -0.34205751
C        8.53540320       6.33773885       7.44605406       2.56948080       1.89215221      -0.13996417
C       -4.98665081       8.53699091       7.28863449       1.45863876      -1.74008251       0.33994432
C       -2.50497131       8.55251950       7.07246094      -0.79536074      -1.32904822       1.88871053
C       -0.04181190       8.54066187       7.27036594       0.95913384       0.08198374      -0.49415729
C        2.52264976       8.49706939       7.38186184      -1.10813055      -0.23605992      -0.90431355
C        4.97648390       8.46105468       7.53899005      -0.35585353       2.96413639      -0.46171896
C        7.38717887       8.55861789       7.41126773      -0.87683411      -0.20667401       1.25010790
C       -6.12325430      10.65102044       7.35804715      -3.19929360       0.18257429      -0.24282630
C       -3.64800563      10.64243187       7.45952499      -2.95758008       2.92722152      -0.76814792
C       -1.24760428      10.68467804       7.34500764      -0.55305072      -0.71567556       0.58830800
C        1.23193032      10.63626915       7.27823876      -1.32784520      -0.36778217       0.46779371
C        3.65183393      10.62131314       7.47981858       1.28483476       2.12017229      -1.06119018
C        6.07737122      10.65512593       7.27912042       1.28158823       1.92842559       1.84134669
C        1.16007499       0.71292170       7.66482463       0.60740127      -0.02840118      -0.21194940
C        3.62536954       0.67762223       7.65860920       0.18346364       2.42644904       0.22238345
C        6.05340738       0.69680715       7.79130548       4.16159580      -1.90116958      -1.28884799
C        8.58239278       0.72319914       7.56275668      -0.20136366      -1.07637254       0.59881455
C       11.08359501       0.70253608       7.70991288      -2.54078317      -0.36957165       0.04551778
C       13.53144752       0.69911741       7.68668064      -1.46320067       1.39941700       0.52542216
C        0.06311420       2.91676286       7.70277665      -2.64360878      -1.52679716       0.53503860
C        2.47329152       2.78670145       7.69677167       0.78387356       4.36345157      -0.15116904
C        4.96971662       2.80112122       7.50314878      -1.04900752       1.02818647       1.71445581
C        7.33755197       2.81121959       7.56508987       2.92239247       0.06749197       0.38782237
C        9.91912955       2.75881027       7.67384047      -4.84916175       3.41256635      -0.78201902
C       12.31564938       2.89671599       7.78613167      -0.19227275      -3.36223957      -0.47495063
C       -1.13684492       4.99125114       7.53241923      -5.46227550       1.43094541      -0.34002942
C        1.30183860       5.04331338       7.58424176      -1.02274036      -0.44714286      -0.29525006
C        3.76417857       4.93803474       7.54540776       0.53673218       1.10130401       0.45078843
C        6.24881086       5.02373781       7.45910123      -3.01716976      -3.79580779       1.46590727
C        8.63777869       4.92046089       7.49821700      -0.59699807      -0.24015852       0.27834171
C       11.06157337       4.98323132       7.43699495       0.78322076      -1.72944303       1.34587840
C       -2.45921761       7.04976019       7.13746256      -0.82847217       3.16718438       0.93761987
C        0.00916591       7.12301089       7.25025925       0.46412346       1.02138590       0.83233140
C        2.51777086       7.04773217       7.37667952       1.12958718       3.15015673       0.63717310
C        4.92454921       7.06865102       7.51118469       2.44977717       0.57745229       0.48747370
C        7.35869301       7.14828647       7.51423794       0.11297504      -1.83786773      -0.53735568
C        9.77012199       7.06915958       7.32849554       1.24509990       0.86671013       0.24351535
C       -3.77796118       9.28826668       7.29308438       2.92414442      -3.25613580      -1.12135168
C       -1.30011172       9.26498426       7.26694913       1.16325449      -0.80068498      -1.17013553
C        1.24132733       9.20650032       7.28167291       0.33785144       0.23020578       0.18818573
C        3.76004612       9.20519331       7.40051348      -1.48996302      -0.10532678       0.85454419
C        6.17780402       9.29139802       7.54006030      -1.68901140      -3.15752783      -1.78445255
C        8.59827107       9.22749539       7.38085634      -0.16841446       1.43216874      -0.69441768
C       -4.95322105      11.37529917       7.38651276       1.99458213       0.07494689       1.66548452
C       -2.44294146      11.40473280       7.50129675      -1.18770902      -1.07714696       0.11261123
C       -0.02245807      11.32984456       7.38758202       1.20874399       1.83587616       0.52927573
C        2.41100514      11.36058410       7.38659991       1.87728275       0.14618033       0.95834399
C        4.87962500      11.44023011       7.44777884      -0.85656276      -4.28955292       0.43283879
C        7.32076580      11.35133598       7.34094165       1.72030944      -0.49727938       0.21230859
72
Lattice="14.76 0.0 0.0 -7.38 12.782534959858314 0.0 0.0 0.0 15.0" Properties=species:S:1:pos:R:3:REF_forces:R:3 REF_energy=-11163.450118233815 config_type=fd_force_conv_snapshot_044 split=train degauss_Ry=0.0038001738 kgrid=8 lattice_temperature_K=600.0 pbc="T T T"
C        0.03308420      -0.05699647       7.89621438       1.48572585       0.65219168      -1.33850139
C        2.44369411      -0.03550644       7.71269409       0.55035774       3.26091677      -1.00506377
C        5.02604855      -0.03929795       7.34387560      -4.27062626       1.14701874       1.37561990
C        7.40874862      -0.05315958       7.48373716       1.21432431       1.47761890      -0.14046682
C        9.90328901       0.01544798       7.58824958       0.09186089      -1.79272251      -0.85703739
C       12.42013785       0.00552673       7.73294495      -2.60115216      -2.74160098      -0.42696228
C       -1.22921000       2.12191191       7.74617201      -0.64098065       0.27687593       0.58229316
C        1.17725750       2.18197819       7.76447273      -0.26658432      -0.28589973      -0.55123063
C        3.70006143       2.04155384       7.62894440      -3.34436861       3.33255593       0.66051357
C        6.18233179       2.16151531       7.78638703      -2.01141977      -1.62637624      -1.04761424
C        8.61135916       2.15179623       7.66252340       1.01925240      -0.68373732       0.33798617
C       11.09288095       2.06795713       7.73358373      -0.54901486       2.34338750       0.03779753
C       -2.46056614       4.33283913       7.80509755      -3.43120685      -3.73148341      -0.73997994
C       -0.04630382       4.31685939       7.56008283      -0.29097534      -2.25092574       0.35299884
C        2.39556708       4.31305773       7.62266728       0.73704400      -1.41179789      -1.08462732
C        4.88599084       4.25005587       7.75317293      -2.69311229       0.65304812      -1.62887433
C        7.37038425       4.30922624       7.76558972       0.59318667      -0.40940164      -0.57073477
C        9.83082900       4.29790696       7.75468048       1.36693831      -0.90092740       0.08888612
C       -3.63476549       6.49857302       7.57716388      -1.65111797      -2.05151741      -0.24090002
C       -1.19689788       6.37986500       7.38252286      -2.25233599       0.87029117       0.93236917
C        1.19379563       6.37894540       7.13562149       0.09281940       1.33939305       1.25998813
C        3.64599522       6.43266522       7.31322305      -1.02647180      -1.94333053      -1.66693668
C        6.09571738       6.33041276       7.35701831       1.19735631       0.40749851      -0.26449684
C        8.62377145       6.43066707       7.48310794      -1.15327912      -0.33850527       0.72353080
C       -4.95534727       8.50229970       7.42775799       1.08163610       4.74846064      -0.87581364
C       -2.49641619       8.56767031       7.21437540      -0.35146826      -0.01672991      -0.11738629
C       -0.05996083       8.50845303       7.21049218       1.37425824       2.80616447       0.09238642
C        2.45418095       8.55405251       7.16498492       0.65891769      -1.54838132      -0.56223316
C        4.95222227       8.43418086       7.07274376      -1.73208664       2.53888492       1.12099352
C        7.36564193       8.49469592       7.17713634      -0.42966399      -0.48554898       1.52662207
C       -6.14294817      10.56922962       7.53380759       1.85262998       2.86483756       0.90739938
C       -3.73720504      10.70468567       7.31275763       3.04789033      -1.12199137       0.18973250
C       -1.21847483      10.67286356       7.13274610      -1.18769385      -1.34801859       1.16195531
C        1.25392842      10.61743375       7.42445836       0.59569169       2.25667704      -1.61499783
C        3.71994993      10.59833485       7.38739131       2.08955996       1.85237158       0.28182350
C        6.21962785      10.61187905       7.43691451      -2.06964163      -0.13183049       0.18221280
C        1.20058014       0.77188554       7.79257754       1.45446894      -3.43834140       0.69376822
C        3.69206769       0.67355420       7.48073583       1.18003916      -1.46166572       0.83258388
C        6.20335942       0.66856301       7.55133596       0.18465714       2.34536802      -0.03228663
C        8.64388697       0.72288046       7.56919297       0.07354949      -1.13301112       0.30773945
C       11.16806061       0.68881183       7.66886840      -1.33680575      -1.03854750       0.18742159
C       13.61687866       0.66983680       7.86916581      -1.27871605       1.55914910      -0.52685041
C       -0.06310418       2.89038851       7.65841493       1.14687862      -0.04365142       0.78092528
C        2.38059344       2.86555157       7.71044225       2.86383097      -0.46248438      -0.18051792
C        4.83297090       2.83034844       7.78262362       4.12785085      -0.58232915      -0.23260950
C        7.39689650       2.88500222       7.75594274      -0.60705931      -0.25200179       0.33522969
C        9.86913195       2.81054809       7.71796527      -0.96259840       1.61820142       0.21078906
C       12.26649572       2.81395060       7.76186900       2.07251638       1.84731268       0.37264464
C       -1.28979089       4.95863418       7.63347979       3.11002567       3.16432505      -1.14568768
C        1.17998369       4.99058061       7.42492348      -0.12939385       0.69607887      -0.16617940
C        3.61734954       5.02306962       7.47414660       1.60319801      -1.40678629       1.78060901
C        6.09787457       4.92778984       7.60125898       1.27553096       0.98993668       0.80070246
C        8.63337596       5.03336396       7.72322599      -1.68949426      -0.83947058      -0.65945017
C       11.04991518       5.05063205       7.73453182       1.14211102       0.14569696       0.02267944
C       -2.38594233       7.14946471       7.36120779      -2.49972317      -0.41652025       0.59003501
C       -0.03277428       7.13977464       7.30373063       1.57719258      -2.39078475      -1.47467679
C        2.40946078       7.10019484       7.03509232       0.75720017       0.77922629       1.68900652
C        4.89694618       7.03194369       7.17293914       0.51874757       1.19385344       0.41052470
C        7.33421900       7.07813959       7.30516032       1.11951102      -0.69685946      -0.04785054
C        9.83400513       7.17381620       7.50723633       1.40996418      -3.41399640      -0.11271691
C       -3.72767791       9.31106437       7.22803104      -0.91694126      -3.16848433       1.08733393
C       -1.30365432       9.24996367       7.17584183       3.26439419       0.24724525      -0.35779497
C        1.26688045       9.26470570       7.24450460      -3.00963257      -2.53146292       0.02232515
C        3.71428291       9.22211676       7.23213787       0.35072650      -2.35062541      -0.86162398
C        6.13798720       9.18203852       7.19949021       1.12370089       0.69486763      -0.37808432
C        8.56960849       9.20020044       7.44796454       0.70720841      -1.20900238      -1.36277209
C       -4.87300106      11.37197339       7.62499721      -4.27898209      -1.46141787      -0.64297942
C       -2.45860519      11.34144497       7.29995230       1.15217303       1.20469193      -1.31529487
C        0.01016911      11.33291156       7.28893590       0.95922948       0.43463111       0.71685750
C        2.53150494      11.31623980       7.40518541      -2.36060206       2.11731117       1.36666860
C        4.98598403      11.33051495       7.54692594       0.17541866       0.36430912      -0.19526140
C        7.44568808      11.29964304       7.62464432      -1.37642414       0.88777184       0.40354158
72
Lattice="14.76 0.0 0.0 -7.38 12.782534959858314 0.0 0.0 0.0 15.0" Properties=species:S:1:pos:R:3:REF_forces:R:3 REF_energy=-11163.47645205055 config_type=fd_force_conv_snapshot_048 split=train degauss_Ry=0.0038001738 kgrid=8 lattice_temperature_K=600.0 pbc="T T T"
C        0.02704872      -0.02304783       7.38239668       0.05937963       1.99314411       0.46384629
C        2.54626588       0.04340200       7.34312362      -1.91978642      -4.44464418       1.73388949
C        5.00079730      -0.01670451       7.45932802      -0.36211623       0.19172536       1.09331200
C        7.43326096       0.02854512       7.45393045       1.91782030      -0.61288697      -0.05803057
C        9.86032052       0.08530821       7.58284010       2.15692827      -1.78138960      -0.55384750
C       12.38820741      -0.03037192       7.54650829      -3.01546589       1.83356654       1.17075054
C       -1.27633918       2.11964830       7.78254574       5.06786365      -0.48033606      -2.14810038
C        1.20132053       2.10404254       7.61025884       0.67788163      -0.59041605      -1.81021783
C        3.63462139       2.10538828       7.34641636       5.10789804       0.53461822       0.02764553
C        6.14921766       2.17862044       7.49754444       1.23018879      -1.96465809      -0.18606611
C        8.63839578       2.14917791       7.70945297      -0.09034034      -0.35722007      -0.61946437
C       11.18311309       2.17589036       7.83698930      -3.59968301      -2.91912229       0.00444878
C       -2.52352549       4.27977093       7.65746319       3.12300974      -1.10389723       0.88988529
C       -0.03748217       4.23018009       7.61062562      -0.22372300       0.45493228       0.19483408
C        2.42334499       4.23031538       7.47698941       0.93060950       1.53088676      -1.48899012
C        4.87684293       4.33203533       7.29059665      -0.48065205      -1.93373723      -0.36491641
C        7.33782459       4.21602207       7.41354845      -0.13856781       2.08767817       0.94725945
C        9.81574319       4.20110032       7.69551194      -0.37475526       2.20429056      -0.49310133
C       -3.81653976       6.37937045       7.51011470       4.63707505       0.14475619       0.41893324
C       -1.26601510       6.33521012       7.47595466      -0.64837231       3.34178696       0.90560424
C        1.13011382       6.38874286       7.30689664       3.52563164      -1.14329810       0.90403150
C        3.61694267       6.39347834       7.34654160       2.26893401       2.47963488      -0.10588883
C        6.10500768       6.42538468       7.61322436      -1.79036969      -1.89986654      -0.92223799
C        8.47050858       6.37727329       7.61217342       2.90470200      -1.11607577       0.29032306
C       -4.95581679       8.49642936       7.52276450       0.82059971      -0.71342071       0.16819668
C       -2.40284179       8.52056351       7.44867281      -0.53104182       0.03818680       0.22338053
C        0.00489902       8.54593814       7.32420008       0.19953509      -1.48012084       0.36559621
C        2.45360464       8.48109470       7.27229027      -0.11200368       1.58136060       0.37821596
C        4.91816187       8.55285321       7.64875473      -2.09919517      -0.82983640      -1.03365058
C        7.33618911       8.55275388       7.62664569       0.88732704      -0.18186081       0.38628460
C       -6.07208685      10.63062318       7.42589959      -1.55300802       2.60069502      -0.05948299
C       -3.64404978      10.57018066       7.47788014      -0.36092709       1.89235481       0.84782590
C       -1.18851889      10.67496724       7.53196217       1.57045629       0.56549203      -1.10840437
C        1.27661495      10.66075835       7.30241378      -0.80009902       0.31536560      -0.37809769
C        3.68222979      10.65676846       7.39863661       0.47205763       0.28855542       0.24187113
C        6.18848683      10.65741818       7.39669187       0.19824440      -0.24652354       1.25806083
C        1.27034378       0.64165985       7.47591965      -0.18737763       3.24983994      -0.33402358
C        3.75309238       0.68933560       7.43416642       0.42581196       1.43813730      -0.84312412
C        6.25217029       0.69025714       7.55813644      -4.00633460       2.41862235      -0.97004303
C        8.66120145       0.76184224       7.51508488      -1.09762837      -0.14542751       1.01957019
C       11.14146946       0.74771617       7.81726778      -0.04973645      -1.39164558      -1.95110220
C       13.53058536       0.76984875       7.49488595       1.59486275      -4.16415354       0.80384820
C       -0.05694500       2.81881601       7.56520737       1.96382531      -0.16943724       1.96785371
C        2.47028271       2.80487429       7.42863677      -3.21248490       0.71424886       1.03158829
C        4.93993417       2.87793686       7.29256524      -2.41236994      -0.55582699       0.80905186
C        7.40682370       2.85608199       7.56874367      -1.33389758      -1.34576810      -0.42825863
C        9.87692149       2.80499365       7.78445002       0.58420555       1.26946804       0.00412765
C       12.37832973       2.82464860       7.76647885      -4.79702004       4.51526261       0.42068493
C       -1.27696651       4.97149860       7.69607128       0.35483923      -1.19221539      -1.55551613
C        1.20021726       4.93638004       7.51554612      -1.09808191       0.79567955      -0.63191159
C        3.62157183       5.04334468       7.26774862       0.36585307      -4.19993275       1.20491690
C        6.09643730       4.96537993       7.36198047       1.40070718       1.92533126       0.91043509
C        8.54104221       4.91749099       7.56398959       0.89334162       1.40758128       0.17802755
C       11.04149661       4.97075219       7.61983097      -2.15254711      -0.63728469       0.09972898
C       -2.48846713       7.13172423       7.47902026      -0.29525752      -2.93614273      -0.25965699
C       -0.04062398       7.10268475       7.42349344      -0.99100472      -0.08007032      -1.04331253
C        2.43410471       7.09138010       7.23143902      -2.58459040      -0.40600110       0.68523396
C        4.88916598       7.14292240       7.53890987      -0.87088149      -1.38227854       0.17469463
C        7.28297969       7.12542796       7.73344631       2.03864081       0.47931096      -1.02381482
C        9.76564326       7.04436526       7.58064647      -2.84282840       2.13525695      -0.28122598
C       -3.66916623       9.14526020       7.50888345      -0.54237884       1.86320210      -0.38468383
C       -1.15567224       9.28056236       7.41047681      -2.69817891      -1.04649915       0.47364400
C        1.22372724       9.20769120       7.29914247       1.82265632       1.40761445      -0.48488306
C        3.67396954       9.21701238       7.42910264      -0.03455357       1.03219945      -0.01046619
C        6.11806613       9.24529695       7.64076062       1.88472429       1.24430080      -0.99339841
C        8.60768616       9.26894429       7.49551489      -0.29177264      -3.25835287       0.58890038
C       -4.86460397      11.33167205       7.47688366       1.42165473       0.88901008      -1.23586116
C       -2.41601051      11.34999560       7.57329954      -0.54475454      -0.48314268      -1.00641668
C        0.06632365      11.40281218       7.35646770      -1.20736073      -1.22917706       1.05636524
C        2.47130805      11.43023249       7.29444118       1.15473642      -0.71939235       1.52559517
C        4.96033584      11.33720970       7.50403905      -0.32224073       0.53830313      -1.14457414
C        7.45736573      11.38393883       7.35952622      -1.98861331      -2.26034138       0.04430833
72
Lattice="14.76 0.0 0.0 -7.38 12.782534959858314 0.0 0.0 0.0 15.0" Properties=species:S:1:pos:R:3:REF_forces:R:3 REF_energy=-11163.443079329094 config_type=fd_force_conv_snapshot_052 split=train degauss_Ry=0.0038001738 kgrid=8 lattice_temperature_K=600.0 pbc="T T T"
C        0.00071951       0.04249804       7.44176185      -1.54705797      -2.77071898       1.18334972
C        2.49062320      -0.02032386       7.28536005       0.64594339      -1.07053768       2.01544277
C        4.92150171       0.00603377       7.19713071       2.09894578      -1.32135291       1.30657215
C        7.35641981      -0.02440256       7.36258851      -0.47103124       1.84716202      -0.59255572
C        9.83465628       0.05293447       7.38506042      -2.18684948      -0.19703598       0.86963913
C       12.25346042       0.06325785       7.63129802       0.27345148      -2.18730277      -1.54422153
C       -1.22384675       2.11151420       7.18641168       0.16717416       0.05013960       0.11790925
C        1.25348583       2.08730704       7.30900914       0.38933290       1.33538419      -2.09488729
C        3.72448238       2.07745412       7.17740090       0.55483455       1.86912129       1.18420152
C        6.16956272       2.12725657       7.42429122      -0.71003713       1.73462020       0.02087684
C        8.59534674       2.14889796       7.45802865      -1.19931652      -0.90292001      -0.17454808
C       11.06181316       2.19033388       7.46213048      -1.78488141      -0.50106584      -1.18609103
C       -2.39392194       4.16282380       7.38578195      -2.16590065       4.68128132       1.13284245
C        0.03349307       4.20319179       7.25026596       0.16875358       4.06003517       0.77547865
C        2.46912806       4.23504299       7.42186911      -0.19777440       0.13071308      -1.45016492
C        4.88519074       4.30131245       7.41308344       2.32059081      -1.50813841      -0.20109266
C        7.33328788       4.29886701       7.44806702       2.11677869      -1.59997359       0.79229829
C        9.76389014       4.35166041       7.47835627       1.56129545      -3.54625703       1.08976747
C       -3.69836932       6.32356924       7.69997080      -0.77330838       1.25169041       1.18682405
C       -1.22882041       6.33587148       7.57560885      -0.18146126       0.88844753       1.94748929
C        1.22305044       6.34283113       7.61455466      -1.62359405       2.23589044       1.17512604
C        3.67181966       6.37625350       7.57908448      -0.07352224       1.16228518       0.72648294
C        6.14895828       6.34290188       7.50420716       0.06053997       4.44593667       0.35008552
C        8.58479041       6.40959039       7.73606760      -1.39537574       2.12146967      -0.93943867
C       -4.91611983       8.57707157       7.62671554       1.81486459      -3.17077621       0.61084783
C       -2.38860169       8.52576115       7.60539231      -2.39231508      -1.17675047       1.16356636
C       -0.03864330       8.53268748       7.71644072       3.42472767      -0.85957327       0.58007018
C        2.46868181       8.46344297       7.80969676      -1.52040540       3.15920779      -0.56249258
C        4.87380260       8.50218970       7.66154990       1.59840778      -0.64823399      -0.34999990
C        7.36031843       8.52026272       7.51968489       0.02576811       0.00103358       0.70877961
C       -6.12914980      10.69253635       7.59227512      -0.60661862      -1.88837937       1.12181113
C       -3.68442901      10.65327489       7.48166780       3.17690366      -0.75349238       0.02456406
C       -1.24000311      10.69746770       7.46322343       0.97939002      -2.46202822      -0.03847527
C        1.22850316      10.68792789       7.58054283       1.29118024      -1.10878361      -0.02169728
C        3.76172772      10.68505351       7.57424577      -2.23959746      -0.30863034       1.07192710
C        6.20156264      10.65584204       7.63115617      -2.41139086      -2.09246454      -0.05637092
C        1.26250765       0.66687440       7.35018465      -0.76775017       1.43140769      -0.41071933
C        3.74345369       0.66679579       7.28116501      -3.12234819       1.42412761      -1.48972828
C        6.12342289       0.73729682       7.30268965       1.40666519      -1.46790810       0.03524854
C        8.55307503       0.72255458       7.34256668       1.56188578      -0.21278758       0.66379713
C       10.99928616       0.77085372       7.47887216       2.89431474       0.57744483       0.43594391
C       13.46454136       0.68855312       7.37506010       3.01168123       2.33123132       0.34537526
C        0.02340901       2.86376672       7.14183232       0.19599725      -4.98111848       0.95828306
C        2.50366173       2.79902634       7.16353469      -1.33895596       0.48090582       1.85318534
C        4.92707290       2.86082671       7.38632438      -0.17843816      -0.59209832      -0.97668496
C        7.39364574       2.85942699       7.53917344      -1.70145528       0.49444499      -1.20170354
C        9.75767872       2.87541518       7.44428355       3.51911492       1.46145875      -0.01036463
C       12.32704116       2.82915196       7.26186903      -0.68978713      -2.35744552       0.57247437
C       -1.18630904       4.90843867       7.42281069      -0.76830785       0.52004315      -0.60601801
C        1.24088967       4.98490997       7.42194620       0.27142493      -3.63961224      -0.30093117
C        3.67959096       4.98199936       7.45242097      -0.75016717      -0.39438229       0.20385506
C        6.16766477       5.00507793       7.40651564      -3.17607191      -2.99857272       0.40609880
C        8.54095053       5.03560091       7.57026211       1.04112426      -0.94140274      -0.11051038
C       11.08008093       4.88937559       7.65465637      -0.07388091       1.42837816      -1.71775994
C       -2.49934153       7.05394582       7.78530820       2.89334183       0.71010784      -2.25546194
C        0.00225462       7.08604571       7.78599642      -1.65451954      -0.70174533      -2.13652348
C        2.38213328       7.07706250       7.75286866       4.48582374      -1.01813500      -0.82785742
C        4.95566301       7.06821936       7.61700334      -3.61649802       0.09746641      -0.40876195
C        7.31805997       7.13996944       7.58820238       2.68578645      -2.24561641       0.18967259
C        9.81062277       7.10716621       7.77950239       1.23565238      -0.03028888      -1.01306530
C       -3.62659792       9.23817095       7.56679637      -1.32996019       0.04022080       0.15241525
C       -1.19272465       9.27137225       7.62812388      -1.86534974      -0.41176371      -0.43393202
C        1.24045162       9.21306170       7.71380658      -0.36475289       1.31800070       0.17064797
C        3.67753906       9.24698013       7.71088150      -0.00787812      -0.59844920      -0.09699358
C        6.10620701       9.15543416       7.54722876       1.41304950       4.06991027       0.57342311
C        8.63007709       9.22036210       7.58798522      -1.70799874       2.72919464      -0.16871862
C       -4.86137511      11.33999043       7.58524693      -2.60197748       1.98775174      -1.92338314
C       -2.41707374      11.37198286       7.35197127      -2.90927702       0.47530184      -0.16689031
C       -0.02878745      11.35454472       7.40586254       2.20059383       0.75491651       0.60951394
C        2.50080065      11.45347594       7.58209441      -0.78293177      -3.06008096      -0.98978987
C        4.99957009      11.37483588       7.60795752      -2.37789633       1.17258065       0.27757450
C        7.35249500      11.38236227       7.71700655       3.78130239       1.24650989      -2.14562750
72
Lattice="14.76 0.0 0.0 -7.38 12.782534959858314 0.0 0.0 0.0 15.0" Properties=species:S:1:pos:R:3:REF_forces:R:3 REF_energy=-11163.138397409602 config_type=fd_force_conv_snapshot_054 split=train degauss_Ry=0.0038001738 kgrid=8 lattice_temperature_K=600.0 pbc="T T T"
C       -0.04533191       0.05635596       7.30495238       1.98649549      -2.25132529       0.61120341
C        2.47493415      -0.03266578       7.26963874       0.98464561       0.56706143       0.71228299
C        4.98068546      -0.04508524       7.38887824      -1.60660806       2.46580055      -0.09817809
C        7.41513535       0.00276275       7.38432963      -0.42667123      -0.93800502       0.22814890
C        9.87952608       0.01255410       7.43416559       0.45210252      -2.19713955      -0.28920231
C       12.36421125      -0.01983154       7.34419241      -4.15334668      -0.53786655       0.08931112
C       -1.24896963       2.11709958       7.38751730       1.19390744       3.16566048      -1.36695682
C        1.14016020       2.17689977       7.28871355       3.10176240      -0.62002873      -0.17212482
C        3.67080576       2.11893716       7.30113098       1.97618666       1.29754372       0.14086226
C        6.19335131       2.11214338       7.26304312      -1.22277424       1.18444089       0.93870205
C        8.68588485       2.04504002       7.37166070      -1.69555666       2.60380811       0.16617143
C       11.17234812       2.19762701       7.26579475      -5.58512049      -3.56375158      -0.34920903
C       -2.44301463       4.26219395       7.25146694      -1.83271781       1.64299431       1.53027149
C       -0.03966717       4.32544295       7.40674556      -2.68974363       0.14146132      -0.35509969
C        2.44306774       4.24854240       7.40936893      -2.12736084       1.59595752      -0.98130960
C        4.89981151       4.33192079       7.30379184       0.18128283      -0.83932634       1.75494066
C        7.36699576       4.16849727       7.51678554      -1.36104740       2.34793732       0.38832348
C        9.78031176       4.19183181       7.45401222       0.55181865       2.76269148       0.31775364
C       -3.74153162       6.37715374       7.44108967      -0.47502442      -0.66721490       1.93957209
C       -1.28732362       6.43500850       7.62241639      -1.47582273       2.45707011       1.94783459
C        1.18591985       6.38044193       7.69886080       0.34084883      -0.30579133      -0.37247083
C        3.73947337       6.39091239       7.53676771      -2.59126395       1.73865863       0.95276033
C        6.15385531       6.42422588       7.69076330       0.86973607      -1.28955993      -0.16612566
C        8.50666991       6.31393910       7.63111250       4.59958271      -0.14781761       0.00336403
C       -4.88518900       8.50753470       7.65304127      -2.88764016      -0.62819198      -0.32046435
C       -2.46988132       8.53458821       7.79197060      -0.11285189       1.87769104      -0.28114036
C       -0.00027380       8.54024700       7.83999421      -1.61394547      -0.75516565       0.31954621
C        2.43389339       8.48761348       7.71430777      -0.39196853       1.47454412       1.21197381
C        4.88493975       8.53247580       7.78015251       1.96413487       0.60108792       0.22537416
C        7.39552656       8.51860296       7.81275204       0.36453898      -0.15657581      -0.76650550
C       -6.13664840      10.67816551       7.28723952       0.68602380      -2.26573658       2.83764120
C       -3.65029950      10.63372937       7.37290225       1.10815472      -1.15204859       1.88049662
C       -1.24202239      10.67410942       7.56690191       3.16725122      -0.95630074      -0.05020567
C        1.27349160      10.69201007       7.59778471      -0.90902381      -2.63990357       0.02537576
C        3.75169623      10.65069332       7.60585601      -1.01755393      -1.64456783       0.67635337
C        6.22949296      10.69047201       7.68422894      -1.51636003      -4.02029774      -0.14696760
C        1.21525647       0.71607130       7.29234282      -0.49837904       0.45557943      -0.43398396
C        3.74282853       0.68838336       7.36012648      -1.78274045       0.06035947      -0.79444902
C        6.16919655       0.69824635       7.34256089       1.03667111      -0.01299847      -0.19317341
C        8.64488850       0.66751137       7.47529279       0.28103263       0.29296178      -1.15129063
C       11.08039229       0.72882271       7.25636299       2.33911535      -0.26770326       1.11440019
C       13.48865060       0.75715095       7.34836307       2.63361619      -2.00433252       0.05106751
C       -0.04684471       2.92389094       7.31944267      -0.52383476      -2.64159947       0.53990930
C        2.43464267       2.85619318       7.27020021      -0.37943698      -1.15824109       0.61847115
C        4.95249198       2.91845591       7.32997773      -1.29324329      -3.00909007      -1.03988936
C        7.43769118       2.79102981       7.34786825      -0.63261453      -1.52687507       0.06319052
C        9.84979602       2.83576378       7.34164540       1.75518851      -2.30497624      -0.02268304
C       12.33876817       2.83618902       7.22157883       1.35414476       2.43708569       0.76419999
C       -1.29134656       5.09956780       7.46909234       0.69325452      -5.09697779      -1.37954983
C        1.13599107       4.97852265       7.40432405       4.29272309       0.84570859       1.49871686
C        3.62005874       5.00845853       7.42484467       2.81890454      -1.08543902      -0.47066794
C        6.13922663       4.98972976       7.57436714      -0.18374672      -0.63936522      -1.25703573
C        8.53263825       4.89751627       7.63079414       1.71401332       0.10675220      -1.01804887
C       11.02158819       4.90133891       7.43459418       1.38637045       1.42330229      -1.28428274
C       -2.58843789       7.17968187       7.74936719       3.19453911      -4.20393339      -1.82349912
C       -0.04796508       7.06184095       7.88357791       0.94008762       2.45706857      -1.50021298
C        2.45508118       7.07729283       7.69897645       0.08198888       0.03697786      -0.46330019
C        4.95859456       7.15344627       7.66531209      -1.78886611      -2.35136769      -0.08158007
C        7.41178460       7.07092903       7.72637791      -3.30564445       2.11513601       0.74112126
C        9.77608887       7.02306674       7.55277638       0.25776363       2.03319496       0.60514872
C       -3.67547573       9.22581373       7.64058329      -0.19958188       0.60380249      -0.71059866
C       -1.22504206       9.27172385       7.76306154      -0.39610647      -1.04620013       0.02656412
C        1.17981836       9.25358031       7.77974228       2.92204820      -0.39625482      -0.69048775
C        3.66660582       9.21565057       7.79424884       0.11119018       0.75239940      -1.25238512
C        6.16521327       9.20630276       7.80619968      -0.02413777       1.90024604      -0.10246129
C        8.60446557       9.27320054       7.67276021       1.21552219      -0.86855747      -1.38806532
C       -4.83344026      11.29052211       7.32813224      -3.87656614       3.60707827      -1.39983737
C       -2.43250206      11.36977420       7.49509020      -0.65769256      -1.15381623      -0.80366026
C        0.06383335      11.36114325       7.42170340      -2.42644647       0.72888769       1.20821820
C        2.51245093      11.31495288       7.52187736       0.93775074       3.29563772      -0.03898281
C        4.99678120      11.30879624       7.54942324      -1.01612465       3.19501297      -0.29214700
C        7.39420516      11.35837260       7.43267111       1.18316742       3.07274236      -0.82103860
72
Lattice="14.76 0.0 0.0 -7.38 12.782534959858314 0.0 0.0 0.0 15.0" Properties=species:S:1:pos:R:3:REF_forces:R:3 REF_energy=-11163.841454260999 config_type=fd_force_conv_snapshot_057 split=validation degauss_Ry=0.0038001738 kgrid=8 lattice_temperature_K=600.0 pbc="T T T"
C       -0.05688655      -0.05809609       7.27232230       2.04133430       1.27459791      -0.34712412
C        2.45272972      -0.00078924       7.24450816       0.19487291      -0.82866038      -0.63062450
C        4.90047686      -0.01268728       7.41060236       2.33301927      -1.06992190       0.59631724
C        7.40287783       0.05942944       7.53922833      -0.32080477      -2.27156502      -0.32509465
C        9.82964340       0.01559546       7.33750745      -0.20252580       0.11131514       1.76479415
C       12.24922808       0.03483274       7.35004893       1.53375251      -3.09596019       0.07316408
C       -1.19137007       2.12611015       7.35907399      -2.62892084       0.67465361       0.51801275
C        1.22104499       2.10712778       7.24139811       1.09232649      -0.04973336       0.97376701
C        3.72489182       2.06360812       7.25363842      -2.25425249       2.15217918       0.24961838
C        6.12364209       2.15019185       7.41281809       1.26092170      -0.15580191      -1.79739523
C        8.62227481       2.14240709       7.23887190      -0.76854953       1.21393196      -0.23232000
C       11.08035114       2.09572622       7.22077715       0.55604940       3.36074036       0.53443979
C       -2.49578651       4.29744964       7.58043669      -0.43410866       0.28488749      -0.99311688
C        0.00902910       4.25140101       7.55244562      -0.46919753      -0.34886605       0.77607103
C        2.43902791       4.20516369       7.70916652       3.14675979      -0.89681929      -1.17284239
C        4.88647740       4.26784119       7.56206260       0.85731532       0.36754305      -0.88640658
C        7.38742721       4.30513905       7.32184447      -1.81809261      -0.99767673      -0.33009648
C        9.78489423       4.21387721       7.31774741       1.86241328       2.51173228       0.56499529
C       -3.67080477       6.34680829       7.61331524      -1.58472592       1.34274731      -1.47283639
C       -1.20101795       6.43997098       7.64639676      -1.43876362      -3.05400416      -0.99561059
C        1.19702814       6.33186209       7.52230899       1.14286590       2.29219529       1.91736933
C        3.65666992       6.40673303       7.83156529       0.12724801      -0.07057113      -0.40132041
C        6.17217519       6.42022355       7.76689212      -0.23609618      -0.29782939      -0.53770226
C        8.63481214       6.32739678       7.51291681      -1.31821950       3.04757769       0.86006229
C       -4.92367875       8.47072395       7.55451902       2.57640709      -1.19341173      -1.15031670
C       -2.45874060       8.48289565       7.47217373      -0.30047428      -0.14382828       0.65671014
C        0.02619857       8.51657003       7.65150143      -0.61127823       1.86150131       0.22942468
C        2.46057772       8.58545608       7.87799258      -0.68117547      -2.52300322      -1.92460441
C        4.91907250       8.59950356       7.68772702       0.73425821      -2.83587099       0.39015076
C        7.37622806       8.57652214       7.58752813       1.92934321      -2.14561618       1.08162350
C       -6.08318780      10.65129763       7.48948402      -0.03800502      -1.21710444      -1.28361168
C       -3.63560757      10.64652407       7.59767228      -1.90988459      -1.35977290      -1.78901497
C       -1.16913183      10.65648255       7.69983126      -2.29393593      -0.56049818      -0.02753677
C        1.26294286      10.68514834       7.76042743      -0.47140328       0.93542055      -0.20119294
C        3.65071151      10.65502705       7.60944276      -0.46371851       0.90345943       0.20397127
C        6.08657883      10.69412414       7.36790132       2.31379230      -0.90981365       0.46233500
C        1.17686063       0.66388421       7.14666875       1.11360906       1.04911345       0.88503002
C        3.72125524       0.66834004       7.22369975      -1.89301635       0.42840929       0.26069366
C        6.16494809       0.69750649       7.40984730      -1.38743823       1.58848667       0.60830167
C        8.60584417       0.76649485       7.38719208       0.73864297      -1.71910745      -0.30694652
C       11.07527430       0.69507230       7.27313223      -1.94649684       1.59295036      -0.26840800
C       13.49241235       0.69203789       7.34179657       0.44951522       0.42443385      -0.53361678
C        0.01378491       2.81430217       7.49222994       0.43342063       0.77147904      -1.36889852
C        2.49713854       2.81466381       7.35570254      -1.84636112      -1.31111143       0.35532131
C        4.85554324       2.83604212       7.35156593       3.50153912       0.61165439       0.87851458
C        7.39930087       2.87460466       7.22575373      -1.81026874      -0.51695551       1.38474885
C        9.85149796       2.83825469       7.22010344       0.09569852      -1.51983050      -0.14475337
C       12.30276719       2.92715501       7.36154938       0.22270227      -4.51931519       0.02808879
C       -1.25198715       4.98138654       7.59495267       1.86591333       0.49733645       0.48407522
C        1.28934701       4.91784564       7.68091687      -4.71390296       1.19823357      -1.26648634
C        3.66264728       4.94899737       7.73932901       0.40872981       1.14171584       0.08735554
C        6.15257826       5.02723890       7.46306594      -0.93865371      -1.61959882       1.37421402
C        8.59729193       4.96866512       7.35847146       0.09884169      -1.48147067      -0.03104144
C       10.97835739       4.98881172       7.53357682       2.43822855      -3.12635449      -0.08446562
C       -2.43824473       7.03872117       7.52603018      -0.78032801       2.32307707       0.84026968
C       -0.01198614       7.13158013       7.55244842       1.96650440      -1.65362300       0.26090089
C        2.37222776       7.11703784       7.72920532       2.75714896       0.03490350       0.54414159
C        4.93450295       7.12198092       7.84795998      -1.43170491       1.11803650      -0.56736456
C        7.41822917       7.11088481       7.76811217      -0.49680218       0.65218731      -1.95248880
C        9.84010573       7.02056088       7.48529565       1.11261147       2.27641669       1.03353179
C       -3.67890338       9.19684653       7.41560211      -0.04591065       0.38467997       1.98009345
C       -1.25763670       9.19686048       7.68447664       2.38384715       1.29517933      -0.85266265
C        1.25907616       9.29233358       7.74374616      -1.07652192      -1.58966346       0.70340832
C        3.68982802       9.25943075       7.69475267      -0.51616104      -0.23437122       0.98144561
C        6.15304469       9.29273154       7.52611042      -0.82063648      -0.46125154       0.23788309
C        8.69175619       9.18493749       7.56896401      -4.05983900       2.89444355      -0.19333847
C       -4.86003009      11.36538981       7.35326784      -0.83073680      -0.14723011       1.47793206
C       -2.46018501      11.35549277       7.64932178       2.61012839       0.44437584      -0.82290471
C        0.05062949      11.37292241       7.66044304      -1.07864797       1.36541004       0.20978402
C        2.46315252      11.42877046       7.71547241      -0.23378784      -0.84866125      -1.67129162
C        4.81634795      11.34753590       7.42134317       3.63325904       2.33174117      -0.39363795
C        7.44243377      11.32820437       7.32378891      -3.38167351       0.01612802       0.48851243
