72
Lattice="14.76 0.0 0.0 -7.38 12.782534959858314 0.0 0.0 0.0 15.0" Properties=species:S:1:pos:R:3:REF_forces:R:3 REF_energy=-11165.395098835243 config_type=fd_force_conv_snapshot_003 snapshot_index=3 split=validation degauss_Ry=0.0019000869 kgrid=8 lattice_temperature_K=450.0 trajectory_seed=2 pbc="T T T"
C        0.03160171      -0.08775355       7.41743302      -0.83941247       3.59910888      -0.46095560
C        2.42433333       0.01319132       7.47112835       0.40906071      -1.84112815       0.25350563
C        4.85456670       0.02566661       7.41125377       3.11816064      -3.79547277      -0.12011525
C        7.38391907       0.02291454       7.45783341      -0.45693028      -1.42317888       0.36886666
C        9.83356927       0.05474719       7.58409444      -1.15067639      -0.35999609      -0.25553346
C       12.30535169      -0.02185163       7.38554248      -0.59532917       1.95848435       1.25241366
C       -1.18189017       2.11809701       7.58338366      -1.17332344       0.07830346      -0.64660519
C        1.26061417       2.19541174       7.64035598      -0.98600701      -2.56694492      -1.39635918
C        3.70899154       2.09154918       7.35971459      -1.74130327       0.97003557       1.59683324
C        6.12015641       2.10087196       7.47171678       0.20399595       0.71892904      -0.68683241
C        8.53792005       2.20180571       7.43834508       2.01299406      -1.52182979      -0.22559913
C       11.04291970       2.18071855       7.50731414       1.49443212      -2.57158293       0.37281664
C       -2.50769883       4.24238058       7.59841773       2.43752021       0.98058815      -0.07534155
C       -0.00678442       4.28104732       7.56350225      -1.89835525      -0.78518277       0.57052573
C        2.41018346       4.26003631       7.52263084       0.12276889      -1.08013741      -0.78171332
C        4.94399279       4.26900555       7.38550043      -2.31812718      -1.07008851       0.91900714
C        7.35106941       4.28490869       7.53733128       0.69476375       1.49522196      -0.40447952
C        9.81462562       4.24052661       7.48506905       0.54769897       1.88465564      -0.61129186
C       -3.67699094       6.36624263       7.54944932      -0.08997216       0.29817058      -1.40433937
C       -1.22190403       6.41476889       7.50177394       2.02330701      -1.85522628       0.51873086
C        1.26105362       6.41926639       7.51382658       0.48429325      -2.35579821       0.24611936
C        3.77578149       6.30723067       7.50246319      -4.06464413       1.92303990      -0.05260194
C        6.11236783       6.43980521       7.54042607       2.38378364       0.47678280       0.63732479
C        8.60913776       6.39719045       7.45451960       0.34934350       1.18416321       0.89201467
C       -4.86549329       8.50203392       7.32316346      -1.54287298      -0.87443836       1.72801889
C       -2.44332362       8.48239648       7.54986877       1.13723724       1.51706399      -1.51486493
C        0.01979800       8.54730008       7.54501618      -0.72240080      -0.56685831       0.43880786
C        2.46182367       8.50225779       7.58632866      -0.14109700      -0.50339140       0.57067332
C        4.86331627       8.54265011       7.65455005       2.03335565      -0.03891827      -1.32781872
C        7.36242692       8.53447660       7.61722102       2.53754307      -0.86229812      -0.65691763
C       -6.10268254      10.59170029       7.42575290      -0.02520324       0.66265170      -0.02110901
C       -3.68169647      10.63846069       7.41278794       1.43806119      -1.03009268       0.06919533
C       -1.26220548      10.70216969       7.46586237       2.30507626      -2.39515743       0.55914732
C        1.23171953      10.66923227       7.66219998       0.03796028      -0.82819372      -0.16205920
C        3.71258562      10.70279346       7.54009215      -1.86604188      -1.86571535      -0.13620779
C        6.15027019      10.61628537       7.35480008       1.45359451      -0.20410702       0.19952352
C        1.21982854       0.75966826       7.50346245      -0.13384237      -2.23698522       0.29192665
C        3.65847894       0.65049013       7.47942721      -0.43858212       3.51786125      -0.93037373
C        6.12762308       0.66807011       7.39514753      -0.39005409       2.08500526       0.51350355
C        8.57587419       0.79130497       7.48820030       0.44151961      -1.53374017       0.22079528
C       11.05512006       0.72958567       7.60862482       1.12083206       0.22375591      -1.75877546
C       13.53030091       0.70362834       7.41432568       1.35661044      -1.58270991       0.43503400
C        0.02923049       2.86240822       7.57432912      -0.64866105      -0.06164220       0.75260406
C        2.48634527       2.83574219       7.50572772       0.00835429       0.29652378       0.01612853
C        4.89692287       2.83600921       7.43617396       1.63032597      -0.46158141      -0.69261765
C        7.32678437       2.87941307       7.44137634      -0.53511882      -0.29728869       0.62741396
C        9.81634411       2.84265793       7.40744388      -0.83520409       0.96297686       0.89590218
C       12.31985706       2.82740834       7.57225758      -0.88028350       0.48806968      -0.07924834
C       -1.23600401       4.98241829       7.65079285      -1.15721702       0.05323289      -1.35449725
C        1.16641262       4.96451712       7.52043407       3.16061726       1.74509308       0.17570970
C        3.63161005       4.89302000       7.40694834       3.83693258       2.27175810       0.40403215
C        6.13756566       5.03131165       7.54586961      -0.33457765      -1.26644674      -0.93275278
C        8.62664492       5.01365534       7.49670349      -2.04547300      -2.63624463       0.04153489
C       11.04313740       4.97108121       7.49922457       0.31112996      -1.59877494       0.84150330
C       -2.43813168       7.06543929       7.45686720      -0.72184107       1.31012824       1.22901868
C        0.06996365       7.10601335       7.50313630      -2.98655435       1.40882338       0.02262519
C        2.53258571       7.04577863       7.56266701      -0.70783447       1.31023031      -0.31355194
C        4.89574597       7.14369124       7.54706576       0.90020132      -1.72640758       0.42296704
C        7.39117132       7.13638826       7.61245851      -1.17553279      -1.61372307      -0.84054247
C        9.86839815       7.06442858       7.41781408      -0.26924798       1.53461177       0.11539908
C       -3.64331600       9.20092683       7.41565225      -0.97487310       0.42160718      -0.02614323
C       -1.21095644       9.27374499       7.52162800      -1.05009201      -1.74505425       0.14258361
C        1.22035473       9.22390274       7.68765358       1.59555386       0.76490988      -1.10808350
C        3.65731256       9.23711701       7.57086914       0.62988248       1.68190359       0.44226702
C        6.17208140       9.20347447       7.52940781      -3.26153898       1.61807030       0.47905745
C        8.63161447       9.19643500       7.50415091       0.69868134      -0.19083525      -0.98708224
C       -4.87299508      11.32527471       7.46437557      -2.66919255       1.57876198      -0.53751894
C       -2.46350266      11.34256499       7.38107845      -1.63668817       2.64135058       0.49637203
C       -0.00501097      11.34654886       7.58532336       0.34633685       2.33577112      -0.78853574
C        2.45749036      11.39792008       7.57672296       0.33325019       0.35921654       0.47912405
C        4.94091506      11.35112380       7.39661622      -0.06545180       0.29579051      -0.00300588
C        7.43077691      11.28842117       7.29937383      -1.06562070       0.69452027       1.05444643
72
Lattice="14.76 0.0 0.0 -7.38 12.782534959858314 0.0 0.0 0.0 15.0" Properties=species:S:1:pos:R:3:REF_forces:R:3 REF_energy=-11165.111557575934 config_type=fd_force_conv_snapshot_009 snapshot_index=9 split=validation degauss_Ry=0.0019000869 kgrid=8 lattice_temperature_K=450.0 trajectory_seed=2 pbc="T T T"
C        0.01415498       0.00425536       7.36968992      -0.65782729       0.05631539       0.47184191
C        2.52048665       0.00919065       7.48339514      -2.13163864       1.37561732      -0.89904484
C        4.96933029      -0.01618811       7.46657393       0.02591543      -0.06310593       0.28946045
C        7.37134951      -0.03896072       7.43201297       2.14223801       0.40302505       1.75744671
C        9.78055802       0.02755252       7.59674252       2.06313854      -1.48527822       0.38806174
C       12.26663814      -0.03026829       7.45327153      -0.75288971       0.90076054      -0.64473549
C       -1.25692547       2.13924849       7.38001159      -0.43658771      -0.35363930      -0.20352518
C        1.13075146       2.17723420       7.39591296       3.04715217      -1.54893102       0.32038337
C        3.60139230       2.08234821       7.50871152       2.74812696       1.47856558       0.45662021
C        6.22962201       2.12698726       7.66343007      -3.43027662      -0.91953602       0.14831769
C        8.63871973       2.20263086       7.63360035      -0.99342053      -3.05340175       0.30082087
C       11.03805492       2.18714308       7.46259095       1.95413765      -3.70562660       0.14621118
C       -2.49265807       4.26693149       7.43426876       2.80124595      -1.26878696       0.14024905
C       -0.00143984       4.32265098       7.48141668      -1.77259051      -2.78719770      -0.33481985
C        2.41718299       4.24727902       7.46939259       1.65070402      -0.97328236       0.38838802
C        4.92338102       4.21464690       7.50251299      -2.60236726      -1.68101244       0.59194071
C        7.35794313       4.33031688       7.55599125      -0.23726371      -2.85708054       0.08311194
C        9.83437164       4.31022742       7.50429641      -0.43020058      -1.83104660      -0.66348500
C       -3.64479656       6.35796275       7.51617618      -2.77457024       1.45872978      -0.29295381
C       -1.26503516       6.42181868       7.53869964       1.47967013      -0.06059165       0.34453837
C        1.19787180       6.39056281       7.53091675       3.46723211      -1.29087454      -0.02369426
C        3.68350391       6.32165772       7.37777096      -0.08750364       1.81083104       0.99355474
C        6.11255826       6.40189473       7.44252968       0.97780724      -1.46488551      -0.01361656
C        8.63235495       6.40465431       7.41694100      -1.49443520       0.64017383      -0.56465873
C       -4.90884225       8.53233901       7.55922339      -1.60448999      -0.18397194      -0.36675552
C       -2.45030797       8.54235048       7.49499375      -0.57171436       0.53653138       1.24280545
C        0.06164056       8.49879558       7.64613257       1.08893392       1.92007670      -0.80392302
C        2.49907149       8.51234068       7.49233947      -0.11015094      -1.71649341       0.23632140
C        4.94862523       8.53144947       7.36727496      -0.57962821      -1.56769107       0.95750504
C        7.33973647       8.54723415       7.53008940       2.92202198      -1.79824498       0.15526712
C       -6.13336697      10.70072052       7.60704152      -0.21720062      -1.70370397      -1.15411267
C       -3.65210046      10.64667339       7.56627293       0.22698033       2.65125807      -0.82895323
C       -1.19160655      10.59426820       7.40217936       2.03182147       1.15764100       1.17913311
C        1.27522850      10.65203497       7.63984179       0.09172539       0.17678340      -0.37731993
C        3.68161452      10.63475722       7.55206942      -0.54019109      -0.88960992      -0.94062292
C        6.11409384      10.67033298       7.45402030       1.13931083      -2.09255839      -0.05210803
C        1.23929510       0.77195091       7.38164812      -0.49487385      -2.77678576       0.33935065
C        3.73413085       0.68287483       7.49249258      -0.78755024       0.30674418       0.02580822
C        6.18644492       0.67822805       7.54127905      -0.01273133       1.49326792      -0.43532427
C        8.60240669       0.71271875       7.59990996      -2.09469754       1.91593414      -0.62578774
C       10.99658658       0.69878627       7.55414539       2.88136204       1.80735620      -0.71071719
C       13.50801079       0.70379704       7.36591607       0.09436720      -0.13268923       0.21845789
C       -0.04378320       2.85949947       7.41784244      -1.52588725       1.84963027      -0.10135854
C        2.37546377       2.83737557       7.48428849       1.18178134      -0.32049032      -0.37557467
C        4.88741456       2.77226988       7.61530368       1.15411062       1.00038873      -0.62270396
C        7.41021744       2.88129410       7.77172174      -0.04874169       0.95116239      -1.78720569
C        9.86377550       2.85416278       7.52227868      -1.96361653       2.95535144       0.30036218
C       12.27975667       2.85545426       7.36783279      -0.09413426      -0.23216599       0.50303710
C       -1.25952791       4.99227855       7.47306182       0.47730756       1.06539547       0.14213830
C        1.23096270       4.94370238       7.49548253      -1.27316015       2.77862075      -0.01389861
C        3.66878999       4.91192127       7.48193212       0.59132365       0.51696451      -0.61133506
C        6.09056022       4.92407573       7.47306678       2.14493613       3.15146902       0.18701305
C        8.57268052       4.98861022       7.35495502       1.97258094       0.70786610       1.73428287
C       11.09901916       4.93930183       7.52884627      -2.61461523       2.41416560      -0.47647092
C       -2.50447629       7.13727925       7.56255001       2.55346668      -0.60697961      -0.51777415
C        0.05009411       7.11448323       7.60161728      -3.61913546      -0.94549002      -0.11571635
C        2.47029307       7.07004046       7.48406641      -0.75100226      -0.07447277      -0.44126481
C        4.90780201       7.10274403       7.41688903      -0.20415228      -0.57409520      -0.69143520
C        7.36605525       7.10077707       7.47905232       0.12075495       0.32422716      -0.23849064
C        9.86409011       7.10527782       7.41204467       0.50795640      -0.43574439       1.15529512
C       -3.72750914       9.28061390       7.60757670       2.93214235      -2.27022316      -0.84749217
C       -1.15457582       9.19716673       7.53525056      -2.25563420      -0.28050504      -0.29526960
C        1.32501130       9.25877602       7.58788555      -2.54340595      -1.98903806       0.48154602
C        3.71261109       9.16512467       7.44466917       0.17909019       3.46870459       0.27074256
C        6.16961767       9.22521919       7.51286925      -2.43596701       1.91443956      -0.84837483
C        8.59118582       9.24161534       7.56878422       1.03760699       0.82748950       0.32429478
C       -4.85754923      11.41233097       7.45854529      -1.76301007      -2.12978873       1.63554274
C       -2.36472864      11.34355716       7.45831087      -2.73254119      -0.45228867      -0.07491475
C        0.05330418      11.31964824       7.50769191      -1.60094906       0.48566288      -0.67248772
C        2.46766833      11.38466704       7.66127894       0.37033553      -0.70903286      -0.58590530
C        4.88092775      11.31368270       7.33909216       0.39566964       2.18129590       1.78918415
C        7.34481707      11.33473918       7.51148698       1.78779910       2.54389523      -0.44520400
72
Lattice="14.76 0.0 0.0 -7.38 12.782534959858314 0.0 0.0 0.0 15.0" Properties=species:S:1:pos:R:3:REF_forces:R:3 REF_energy=-11165.512441941659 config_type=fd_force_conv_snapshot_015 snapshot_index=15 split=validation degauss_Ry=0.0019000869 kgrid=8 lattice_temperature_K=450.0 trajectory_seed=2 pbc="T T T"
C        0.00591909      -0.02301437       7.62341192      -0.87196187      -0.01553795      -1.12439998
C        2.41045610       0.01946167       7.57697140       1.83015597      -0.07323787       0.35669351
C        4.95757032      -0.01969077       7.64540073      -3.29199292       0.75496151       0.42763102
C        7.35123074      -0.06116651       7.46691429       1.07144991       1.71204643       0.26731451
C        9.75203630      -0.01539552       7.49230635       2.75013910       1.03936845       0.19529148
C       12.28798267      -0.01010077       7.61774427      -0.51274302       1.03812635      -0.82175877
C       -1.18591042       2.08546963       7.70770311      -1.01795116       2.46593244       0.48260352
C        1.26676731       2.13423439       7.56686009      -0.36845939       2.02620335       0.34374775
C        3.73068531       2.14046805       7.60252649       0.96550143      -0.03134278      -0.25814107
C        6.16624667       2.12811894       7.49063020      -0.00036098      -0.31173263       0.95374506
C        8.64157210       2.14794171       7.49207031      -0.95932101      -2.14223158      -0.34754681
C       11.08983212       2.10203119       7.66647514       0.80913876       0.42158121      -0.56620577
C       -2.40121307       4.25471701       7.77057895      -0.99198122      -0.93516113      -0.88866401
C        0.02038036       4.33006119       7.67471920      -1.46106202      -2.52825933       0.30657654
C        2.43958175       4.28141880       7.45035350       2.97761848      -0.40455151      -0.05770970
C        4.96629445       4.31489739       7.42344176      -0.84877566      -1.21510335       0.54883282
C        7.44004196       4.27687278       7.35592413       0.28482424      -1.75407471       0.57287392
C        9.96391497       4.21580137       7.45333551      -2.09603452      -1.64489204       0.04356169
C       -3.65298322       6.38820963       7.37415060      -1.77539250      -2.91443002      -0.07741746
C       -1.23216191       6.42480792       7.62204969      -1.27552248      -0.83402884      -1.00905952
C        1.23763517       6.44526469       7.41305355       0.42274798      -1.83521101       0.82254552
C        3.71093026       6.43860341       7.36009777      -0.06018155      -0.03218327       0.32302954
C        6.15901770       6.42556562       7.42808271       0.49919691      -0.68478247      -1.27242558
C        8.60370608       6.30175777       7.23209150       2.46709998       1.41032619      -0.13571337
C       -4.90663067       8.48638722       7.31804002      -1.72970862      -1.29753241      -0.03123350
C       -2.47019203       8.55524928       7.43250610      -0.87612397      -0.73338275      -0.01099944
C       -0.06529615       8.53916022       7.48037295       1.67894682      -0.36102068       0.43691964
C        2.41892479       8.55744724       7.40240339       1.39754601      -0.90254000       0.06830367
C        4.88079827       8.61566093       7.39958939      -0.42931304      -2.98197367      -0.19132916
C        7.32696474       8.47727654       7.39548118       2.75543120      -0.45978755      -0.76162838
C       -6.18798932      10.65917535       7.42311400       0.51804078      -3.65417008       0.22533997
C       -3.74038723      10.65975903       7.47205556       0.39999912      -0.17130181       1.28393487
C       -1.25826493      10.72780502       7.60254266      -0.83838300      -4.17362368      -0.44576527
C        1.21044773      10.58527553       7.56970211      -0.72992333       3.00344907       0.12183584
C        3.62291960      10.69588788       7.50370083       1.03345363       0.13851818       0.30507733
C        6.08930514      10.63307531       7.50604975       2.70997950      -0.13183640      -0.28712537
C        1.19962126       0.74816200       7.57766499       0.83017424      -1.82096170       0.21161027
C        3.69174762       0.72006633       7.66847830       0.13294789      -0.92533849      -0.62113636
C        6.15332285       0.67316591       7.55824405       0.34263858       1.20854704      -0.30463664
C        8.57893686       0.68514397       7.42317989      -1.03733420       1.34297923       0.64723305
C       11.02794881       0.71907774       7.50792260       1.09018811      -2.24412415       1.24577841
C       13.54173497       0.69751668       7.60329982      -0.34697089      -1.27291075       0.82579514
C        0.01762395       2.85127506       7.73117545       1.16354785       0.66500838      -1.09184210
C        2.55401809       2.84431339       7.46506187      -3.96437651       0.73690028       0.93159989
C        4.95826054       2.88132117       7.58507328       0.22792881      -0.53922667      -1.07699783
C        7.39679904       2.82580778       7.48418418       0.43374716       1.49416498      -0.84078853
C        9.88995167       2.78800469       7.55401304      -0.60011990       1.57999097       0.00198155
C       12.33400471       2.83534925       7.77657196       0.60395805      -1.41562498      -0.31228439
C       -1.23987811       5.01498900       7.68910853       2.06934827      -0.34007184       0.54480982
C        1.23293879       4.98239510       7.53376875       0.44307898       1.90593538      -0.57588597
C        3.70902966       5.01657485       7.40095855      -0.48209907      -0.33512890      -0.01604163
C        6.19982267       5.00112988       7.37617930      -0.01338696       0.15814521       0.21703710
C        8.75194266       4.88953388       7.31261822      -3.97519982       1.45958235      -0.06993812
C       11.14060321       4.88551284       7.50810845       0.98669143       4.02873096       0.29756894
C       -2.49011709       7.10872658       7.43844860       2.50740202       1.45813071       0.74172881
C       -0.00815933       7.08425353       7.50713120      -0.33900484       2.70169798      -0.19722418
C        2.47085035       7.15333946       7.36760030      -0.39750360      -0.89517559      -0.15210389
C        4.94593999       7.15692651       7.41704757      -1.50767124       0.46024444      -0.23920361
C        7.40141080       7.06714490       7.25336759      -1.13869942      -0.30632946       1.28096936
C        9.84417396       7.02801635       7.23165828       0.35741831       1.38097396       0.59457583
C       -3.71441847       9.22935225       7.42328459       0.13304045       0.64170055      -0.48028156
C       -1.27311852       9.28904414       7.48994711       0.84859748      -0.84420964       0.42001927
C        1.22708940       9.21558359       7.55482157      -2.97321341      -0.58591944      -0.77423938
C        3.60588988       9.30310540       7.35634742       2.09761395      -0.55511891       0.85776707
C        6.13697688       9.20172171       7.44638406      -1.40819911       2.26029510      -0.00260813
C        8.58267533       9.12864097       7.38285181       0.46172770       3.65302800      -0.14426511
C       -4.98573558      11.36397108       7.52981818       1.34201301       0.63216922      -0.62999818
C       -2.48866768      11.35138814       7.66675102      -0.92400408       1.12835330      -1.07947638
C       -0.03342002      11.31862856       7.52744891       1.76777046       1.11344348       0.36701495
C        2.39501824      11.37833471       7.61163580       0.17689575      -1.24130367      -1.13915528
C        4.91033001      11.36897931       7.56451006      -1.79649534      -0.39246270      -0.21590170
C        7.36471989      11.31612726       7.46288360      -1.54852813       1.91730120       0.97978494
72
Lattice="14.76 0.0 0.0 -7.38 12.782534959858314 0.0 0.0 0.0 15.0" Properties=species:S:1:pos:R:3:REF_forces:R:3 REF_energy=-11164.972215154117 config_type=fd_force_conv_snapshot_021 snapshot_index=21 split=validation degauss_Ry=0.0019000869 kgrid=8 lattice_temperature_K=450.0 trajectory_seed=2 pbc="T T T"
C        0.00598710      -0.04228612       7.44612208      -0.24820633      -0.16901121       0.39564007
C        2.46074258      -0.00926522       7.46507383      -0.22958126      -0.61930239      -0.23170216
C        4.94264864      -0.03283461       7.29097687       0.97143117      -0.53918424      -0.81386908
C        7.39304900      -0.02866827       7.17380140       0.49354793      -0.03432037       1.45484715
C        9.86554119      -0.00939196       7.36750370      -0.12695233      -0.02297615      -0.23620519
C       12.32219726       0.00976625       7.27790581       0.98548404      -2.11067206       0.93124251
C       -1.28493594       2.15526379       7.27822593       2.25319140      -1.89141790       0.53401324
C        1.15416471       2.06108752       7.41680587       2.43615778       2.29192095       1.30071595
C        3.66514930       2.10192448       7.38120722       1.67595508      -1.44595988       1.23020653
C        6.15015764       2.11990739       7.38983720      -0.37905748      -1.06596960      -0.21706744
C        8.58456185       2.16158481       7.44688756      -0.72700076      -1.57779859      -0.35966879
C       11.06217205       2.08752645       7.37457144      -0.54675794       2.70183939      -0.84277496
C       -2.58874909       4.26875138       7.45744471       4.40455220      -0.09503414      -0.53466476
C       -0.02064910       4.25999265       7.53303636      -2.60001059      -1.08004588      -0.72082703
C        2.45286146       4.23322314       7.58975795       0.24848992       0.27955862       0.15251964
C        4.94116774       4.25538621       7.76144347      -3.14558094      -1.35406120      -0.99829199
C        7.29816895       4.32088974       7.67947902       0.85739168      -1.43617889      -0.67805647
C        9.77641338       4.36023194       7.56610961      -0.64655094      -3.32458577      -0.33541815
C       -3.67752370       6.44088538       7.61961841       0.63278808      -2.19024488      -0.38990265
C       -1.25290972       6.43815130       7.45763291      -1.32103075      -1.69773747       0.26990747
C        1.14639067       6.36552462       7.47050750       2.02341139       1.98088072       0.09201927
C        3.67054246       6.41258781       7.58058633      -0.98865550       0.00144496       0.98064703
C        6.15098064       6.44624891       7.81458776      -1.82414087      -0.14357220      -0.35191460
C        8.62903027       6.40013483       7.78701688      -0.20444075       1.14433245       0.18226807
C       -4.86813088       8.55380412       7.73616085       0.89460120      -1.96426959      -0.10176298
C       -2.42342273       8.56377445       7.52589075      -0.17279896      -1.19352100      -0.77520097
C        0.03575461       8.52566221       7.43506758       1.36617469       0.86671553       0.35597335
C        2.47211707       8.54095520       7.54791340      -0.46773277      -0.51743657      -0.35879616
C        4.92204110       8.55761324       7.58477571       1.27159126      -0.71922060       0.51609008
C        7.43506030       8.48478623       7.84893415      -1.38652009       1.72975927      -1.27501083
C       -6.11831043      10.59901329       7.58410024       0.20059773       0.15412504      -0.20154029
C       -3.63729185      10.72490993       7.29363802       0.29241465      -3.54855045       0.88539074
C       -1.12742067      10.63553569       7.25895920      -1.45880485      -1.66012146       0.68755618
C        1.27751203      10.68744612       7.55775881      -0.81244880      -0.61018834      -1.29762162
C        3.68673321      10.64010194       7.49404233       1.02398760       0.51109006      -0.14004927
C        6.16913732      10.64093488       7.51958393       0.43642985      -1.37186840       0.18146435
C        1.18578056       0.69014547       7.55318733       1.97724595      -1.18827492      -1.41158449
C        3.71879380       0.64131039       7.36593381      -1.78030793       1.86953293      -0.01983812
C        6.15640355       0.65545704       7.23955922       0.74506944       2.52957496       0.08789625
C        8.61989729       0.64826161       7.36517938      -0.32138301       3.55161341      -0.60174947
C       11.10483597       0.68214577       7.26683184      -1.38926783       1.19937977       0.72429956
C       13.56517714       0.69391466       7.35776214      -2.03977544       0.71407042      -0.90854635
C       -0.04602545       2.79341669       7.40112201       0.38189907       2.47942045       0.19649836
C        2.47103634       2.78278542       7.54099730      -2.86530113       1.21941149      -0.95967325
C        4.90846667       2.77522672       7.51252754       0.25525141       2.64440686       0.33216930
C        7.33740721       2.89206280       7.44396699       0.50774428      -0.57936133       0.89194885
C        9.77988557       2.86498928       7.48900887       2.26854423       0.49657541      -0.14836577
C       12.29283810       2.87043055       7.26226921      -3.33818845      -1.20053368       1.30070489
C       -1.32580882       4.98461072       7.54125066       2.15880774      -0.05976195      -0.80258554
C        1.19012708       4.95908271       7.52478515       0.81274422      -0.42562376       0.22618586
C        3.69728708       4.98315553       7.71150087      -0.90174501      -1.05179614      -0.79467836
C        6.08348256       5.01297350       7.78899432       1.93938749       0.65555494       0.00401066
C        8.50996929       5.03147337       7.67301364       2.52076842      -1.42718286       0.06727343
C       11.02311623       4.99727829       7.50476436      -1.66887889       1.60426836       0.64190933
C       -2.46900250       7.13532466       7.48511066       0.24076299       0.82251673       0.82556040
C       -0.05404452       7.14728131       7.41989097       2.23696439      -2.60784551       0.33802859
C        2.41073025       7.12109111       7.49706429       0.07367393      -1.39927276       0.23503354
C        4.85628874       7.16937360       7.71161690       2.80579294      -1.95435953      -0.31344319
C        7.41791850       7.11591391       7.79494648      -1.19772861      -1.37302925       0.88228048
C        9.89630688       7.07961180       7.79618290      -1.94200615       2.71305531      -0.38604445
C       -3.64256523       9.26985505       7.50483331      -0.69017253       1.03575580       0.02460880
C       -1.15766890       9.17982041       7.43389365      -1.69384688       3.64075175      -0.63056562
C        1.27711428       9.29032442       7.52785326      -0.93733371      -1.95630200       0.03444404
C        3.70587545       9.22222618       7.54151728      -0.52318787       1.55305121      -0.04054270
C        6.21298799       9.19300181       7.62164663      -1.38239552       1.45128155       0.56478292
C        8.64847007       9.17180328       7.77080446       0.44295068       2.59481953      -0.41643978
C       -4.89638566      11.34534444       7.41283690      -0.32363864       0.78478836       0.41717717
C       -2.35285552      11.33392528       7.20210253      -2.01643085       0.78203342       0.49192223
C        0.05696405      11.34711702       7.31969812      -0.05642826       0.49281903      -0.21738214
C        2.47789038      11.37430933       7.44426438       1.01217724      -0.26787912       0.54973477
C        4.93399075      11.34593993       7.46125494      -0.10446521       0.55039657      -0.76611161
C        7.41437643      11.30897495       7.49886287      -0.38922851       0.82772604       0.29092418
72
Lattice="14.76 0.0 0.0 -7.38 12.782534959858314 0.0 0.0 0.0 15.0" Properties=species:S:1:pos:R:3:REF_forces:R:3 REF_energy=-11165.70485064372 config_type=fd_force_conv_snapshot_027 snapshot_index=27 split=validation degauss_Ry=0.0019000869 kgrid=8 lattice_temperature_K=450.0 trajectory_seed=2 pbc="T T T"
C       -0.00957606       0.03536914       7.55799449       0.94633129      -1.70193994      -0.43080016
C        2.46841453       0.00750907       7.69565139      -0.17824995       0.33041144       0.17308641
C        4.93757843      -0.08421940       7.76420248       0.43797045       2.77063619       0.73181489
C        7.39071646      -0.03332874       7.76253251      -0.33419945      -0.20629580      -0.40563935
C        9.81164106       0.00840223       7.53179733       0.46853907      -0.51060746       0.10730885
C       12.29968794      -0.04939925       7.46963469      -0.05989025       1.87443911       0.27809232
C       -1.20164275       2.18308617       7.65670103       0.31367227      -3.46211151      -0.30219024
C        1.24351198       2.13939149       7.72977204       0.69783674       0.25716045      -0.32792775
C        3.76722003       2.06756846       7.72662789      -0.23422364       0.97874287       0.40703674
C        6.18831169       2.09304799       7.68089711      -0.99552934       0.79006915       0.25475287
C        8.60082014       2.14897554       7.56694875      -0.28279692      -1.32263743      -0.34082518
C       11.10066100       2.14682043       7.56284869      -0.34780367       0.29468930       0.72848429
C       -2.44732547       4.30243909       7.60965512       0.34171504      -1.11705691       0.34567839
C       -0.00959609       4.30782827       7.59148507      -0.41708770      -0.87004743       0.78269445
C        2.52606513       4.19992376       7.51766127      -0.91920795       0.63974677       0.52710006
C        5.01033239       4.28655002       7.50846219      -2.49317354      -1.91487639       0.72694060
C        7.44134697       4.32966636       7.27177128      -1.73465568      -3.62868711       1.16280737
C        9.86386107       4.31515812       7.31360024       1.02563208      -2.63597646       0.50770211
C       -3.74777418       6.45091166       7.37531324       1.93201716      -3.03772368      -0.18412981
C       -1.26613221       6.44204668       7.57504044       0.33302162      -0.62390878      -0.11378134
C        1.24972171       6.40111495       7.47199901       0.14144924      -0.05366869      -0.04762172
C        3.69965835       6.38823798       7.44028313       0.92276481      -1.54353787      -0.53213839
C        6.17013018       6.39046761       7.21730062      -0.45619649       0.35031821       0.21237466
C        8.58559527       6.38268211       7.15815379       0.41538460       0.95459995      -0.52681929
C       -4.89684032       8.55432227       7.25795531      -1.70850936      -2.44198416      -0.30782687
C       -2.49047389       8.50469456       7.49107254       0.31327966       2.54967482       0.30609883
C       -0.10126865       8.51764586       7.52711540       2.93016106       0.04715429       0.01077112
C        2.41465515       8.54808091       7.43041789       0.83707123      -0.63401758      -0.10102404
C        4.85850763       8.50691048       7.25172839       1.32045019      -0.05216588       0.54879503
C        7.41421318       8.49649465       7.12299257      -1.63019408       1.80314139       0.89100115
C       -6.12303324      10.66418115       7.33067441      -1.48205045      -0.14625155       0.63619788
C       -3.79310477      10.67999249       7.58910722       5.43990099      -2.65840985      -0.20427980
C       -1.28835391      10.67634331       7.77194517       1.21251091      -2.98659780      -0.57133023
C        1.17289683      10.59538865       7.60020662       0.31627603       0.93487676      -0.61869150
C        3.66386007      10.67196862       7.43678667      -1.49399991       0.15541676      -0.27994763
C        6.17006442      10.61070323       7.33922349      -0.86205927       1.29737711       0.20306316
C        1.22834901       0.73513244       7.69857490       0.37825838      -0.63242401      -0.19542595
C        3.74253162       0.64846264       7.77304308      -1.16671262       0.76727915      -0.31470945
C        6.17401771       0.66383581       7.81039958      -0.49133164       0.20939707      -0.54074002
C        8.58793084       0.69178885       7.59403547       0.56790732       1.25419415       0.64155606
C       11.07591063       0.72241691       7.56799453      -0.11593541      -0.92689040      -0.74647455
C       13.53464977       0.70258712       7.49296271      -0.77120882       1.07181500       1.05129991
C        0.00094169       2.86127018       7.68401150       1.69500773       1.31774693      -0.19431858
C        2.54889465       2.76909121       7.68724369      -2.02400712       1.58994937      -0.36720470
C        4.96655619       2.84198248       7.71087745       0.71976696      -0.27469846      -1.02620055
C        7.37107610       2.83550094       7.50842351       1.29280003       1.89563039      -0.32883175
C        9.81060611       2.84976043       7.52619793       2.49413873       1.25513003      -0.81482887
C       12.38464962       2.86007553       7.68258666      -4.30774425       1.27280251      -1.03919079
C       -1.27007680       5.04296532       7.67733816       2.21073220      -0.93911651      -0.90421019
C        1.23581547       4.94620028       7.48943600       1.43357539       1.04396327       0.33935605
C        3.73481321       4.95225222       7.48737117      -0.27854637       0.01393409       0.01507361
C        6.19115869       4.99726871       7.37730086       1.66689503      -0.10969072      -0.86410098
C        8.66545425       5.00016902       7.14927840      -1.34514641      -0.72641660       0.71314868
C       11.12081552       4.98269370       7.38946627      -2.55399376       1.44780490       0.28806434
C       -2.50713388       7.13029996       7.49927769      -0.05169511      -0.46259391      -0.28003530
C       -0.01969623       7.12651434       7.48759639      -0.11059137      -1.61472966       0.34876089
C        2.52884821       7.12663106       7.45389315      -3.57619650      -0.40883908      -0.09126259
C        4.92715443       7.02951491       7.27161614      -0.49460929       3.60208570       0.16708777
C        7.38153882       7.11186397       7.13939923      -0.02202716      -1.01442721      -0.25699256
C        9.78100605       7.06895360       7.21794124       1.79081192       3.38049878       0.33157872
C       -3.70084445       9.23541516       7.38543917      -0.41665781       1.20583427       0.82063005
C       -1.26453537       9.23379727       7.63539304      -1.96686898       0.66869174      -0.15630919
C        1.15091466       9.18135372       7.48070330       0.76345283       1.29001990       0.55630985
C        3.63898744       9.29158076       7.38758248       0.50711693      -2.93467643      -0.30053599
C        6.12970706       9.20234678       7.25933435       0.71591596      -0.52820975      -0.77196421
C        8.63141780       9.23495832       7.22366644      -0.23670913       0.69139895      -0.30398898
C       -4.92857453      11.37695958       7.56313732      -2.14752446       1.03586198      -0.41976653
C       -2.49644772      11.33528313       7.74761305      -1.54661137      -0.71063492      -0.12774963
C       -0.04016662      11.32046471       7.74387183       0.54793165       0.90463416       0.02905089
C        2.39044860      11.35502284       7.47314619       1.09319424       0.09549617       0.76292730
C        4.89086650      11.31910056       7.41371999       2.13297561       1.02424497      -0.08173640
C        7.40806491      11.37062838       7.40456761      -1.10252015      -0.23501837      -0.18509449
72
Lattice="14.76 0.0 0.0 -7.38 12.782534959858314 0.0 0.0 0.0 15.0" Properties=species:S:1:pos:R:3:REF_forces:R:3 REF_energy=-11165.029595935332 config_type=fd_force_conv_snapshot_033 snapshot_index=33 split=validation degauss_Ry=0.0019000869 kgrid=8 lattice_temperature_K=450.0 trajectory_seed=2 pbc="T T T"
C        0.02049796      -0.05036546       7.46298389       0.11292928       0.00481542       1.29666749
C        2.50917958       0.03474828       7.50564557      -3.65727238      -1.58422429       1.35241158
C        4.88001505      -0.01407118       7.30109477       0.73744329       2.17211809       0.92255012
C        7.30172942       0.05973882       7.41132039       0.39663149      -1.54060656      -1.84436774
C        9.81513257       0.00000957       7.44337349       0.01503247      -0.89608627      -0.18232412
C       12.37395028      -0.02563756       7.46179132      -1.97616455      -1.18149981       0.88236635
C       -1.23523187       2.14921614       7.34585888       0.26132847      -1.51575119      -0.35965979
C        1.22579812       2.10643764       7.30020080      -1.54968641       0.74296062       0.45305872
C        3.66428878       2.15017383       7.38439198       0.65307537       0.14341716      -0.26250089
C        6.17511597       2.16780565       7.38935695      -1.58355786       0.47994346       0.09626030
C        8.64681998       2.14522968       7.49636027      -1.59787479       1.05824626       0.04225377
C       11.04835836       2.08115261       7.41722882       1.83590470       1.66966154      -0.05841444
C       -2.49845728       4.26973262       7.41311658      -0.05232375      -0.37795551      -0.36967296
C       -0.02354874       4.24444421       7.13328747      -0.99555660       0.09588055       1.25048199
C        2.51156973       4.25465933       7.27034271      -2.17429401       1.52182028       0.46683623
C        4.95687636       4.25787711       7.44654913      -1.49477819       1.00608707      -0.40178809
C        7.33902605       4.28327153       7.58354668       1.61262547       0.55009883       0.31955727
C        9.81690145       4.24813490       7.49732968       0.74312466       2.24515567       1.16154625
C       -3.73853653       6.35424829       7.54273460       3.59336941       1.14143431       0.73308399
C       -1.23433374       6.44106413       7.35226446      -1.21877592      -1.76231253      -1.11896749
C        1.18912589       6.40854387       7.27200010       1.24201920      -2.33196768       0.60125170
C        3.69731098       6.39952257       7.61306446       1.07472498      -1.21209465      -0.68243711
C        6.15961546       6.40337608       7.69143508       0.27138328       0.70285270       0.65583391
C        8.64264915       6.34129360       7.69925130      -0.60579767       2.31283482       0.73186092
C       -4.88338144       8.49873875       7.77156400      -1.32222297       0.07546034       1.05498508
C       -2.51190127       8.53348076       7.37165063       0.12153836       0.92056138       1.32105209
C       -0.00498839       8.57217412       7.33705023      -0.55809831      -2.27460329      -0.32504786
C        2.45796195       8.48714805       7.56388088       0.30203700       0.38767402      -0.09331253
C        4.92830322       8.53564829       7.82652925       0.78470634      -1.29626922       0.22413900
C        7.41947040       8.49693270       7.87958979      -1.36788910      -0.33810984       0.62672131
C       -6.04344506      10.63992289       7.88833315      -3.05277363      -0.68181208      -0.14080749
C       -3.66679226      10.70274833       7.58663831      -0.11163293      -1.68843265       0.39587378
C       -1.19833977      10.63629303       7.31899663      -2.55015998       0.13048220      -0.76615557
C        1.26063607      10.67985132       7.28377425      -2.42909291      -1.63349691       0.82082700
C        3.62925258      10.65935222       7.69118583       3.58464745      -1.30737639      -0.26840543
C        6.15982935      10.62300023       7.80183036       0.83413709       0.50144328       0.43017076
C        1.21095882       0.68952756       7.45989140       2.34643605       0.42416183      -0.59742847
C        3.67913587       0.72560499       7.51006542       1.14817574       0.91454242      -1.80353605
C        6.07255737       0.78948471       7.30250569       1.89432813      -2.85020772       0.62635184
C        8.54609016       0.73072088       7.41398157       2.27715382      -0.04176089       0.51306466
C       11.08914818       0.61989727       7.44424616      -0.65301469       3.13302444      -0.15795701
C       13.57788942       0.70189723       7.41766453      -0.99762325      -0.06365897      -0.23717835
C       -0.02547671       2.82928913       7.26341780       1.11299431       0.10337917      -0.51084220
C        2.41303982       2.87168875       7.31753469       2.53764051      -2.19867964      -0.11784806
C        4.92286859       2.84889328       7.30942988       0.07715983       0.43905392       1.11120405
C        7.40232958       2.86767586       7.57150597      -0.53320951      -0.31778449      -1.10059362
C        9.85911389       2.91144304       7.46782051      -0.28724159      -6.40264465      -0.18270413
C       12.30794096       2.85256608       7.35411325      -1.96795038      -1.59302029       0.48188310
C       -1.30540218       4.97198432       7.22213717       2.59820285       1.32412533       0.82000939
C        1.21016132       4.90664131       7.28448468       0.78248491       3.36534675      -1.30800528
C        3.74611292       4.98594643       7.39232202      -1.43809924      -0.45227941       0.59630541
C        6.11545633       5.03524879       7.59684895       2.04293532      -3.44359853      -0.43597708
C        8.62400310       4.95994621       7.60797757      -2.07232997      -0.47377204      -0.24331686
C       11.02331073       4.94847764       7.60059428       1.19341893       0.60693693      -1.55520759
C       -2.45627283       7.14656398       7.43349456      -2.02996565      -2.31054062      -0.02827082
C       -0.02677875       7.13879275       7.25725581       1.24787823      -0.08841921       0.64393793
C        2.45883238       7.05148812       7.47145643      -0.90990055       1.77882955       0.29333742
C        4.95715129       7.08539539       7.78718419      -2.41206320       1.94526066      -0.64757398
C        7.39755924       7.07236186       7.78465959       0.99139655       0.27199932      -0.19663360
C        9.88615073       7.08104357       7.75391615      -2.13895703      -0.19904941      -1.00172853
C       -3.74003362       9.27569798       7.66907844       2.99137491      -0.71481733      -1.54958254
C       -1.25709130       9.19971417       7.31608995       0.34286123       2.31783742       0.01546364
C        1.22814863       9.22459472       7.43213321       0.97305405       1.59147120      -0.75984712
C        3.70731189       9.21812985       7.71828214      -2.12139536       0.38621003      -0.08304200
C        6.16829189       9.22740750       7.90447367       0.28808825      -0.89220545      -0.37256468
C        8.63927632       9.16249643       7.96076061       1.25123558       2.62706399      -0.92665566
C       -4.86202249      11.39027289       7.72460403      -0.59402973       0.78581449      -0.63115286
C       -2.45687093      11.37405924       7.35099991       1.00245770      -0.66255606       0.30488270
C       -0.03652506      11.37642661       7.20805270       2.27348306       1.01378932       1.48811877
C        2.45848123      11.34645768       7.45731533      -0.98293042       1.83189918      -0.06831293
C        4.92665255      11.32640895       7.69635006      -0.14628523       1.09659761      -0.55281983
C        7.42804233      11.32097661       7.78179898       0.03352976       0.50730128      -0.79170823
72
Lattice="14.76 0.0 0.0 -7.38 12.782534959858314 0.0 0.0 0.0 15.0" Properties=species:S:1:pos:R:3:REF_forces:R:3 REF_energy=-11165.388821985327 config_type=fd_force_conv_snapshot_039 snapshot_index=39 split=validation degauss_Ry=0.0019000869 kgrid=8 lattice_temperature_K=450.0 trajectory_seed=2 pbc="T T T"
C        0.01720892      -0.00773796       7.42897684       1.28989700       1.63894791       1.09431164
C        2.52342518       0.02193151       7.43717293      -0.96648462      -2.12460333      -0.64457453
C        4.92955685      -0.02440953       7.44831415       2.55380067       0.19908643      -0.10667764
C        7.41242865      -0.07400142       7.65649660      -1.10621688       3.70968534      -0.63244741
C        9.86027938       0.04121776       7.66199366      -2.91476118      -1.41186242      -0.26255128
C       12.32984825       0.03590826       7.62628370      -1.27560630      -1.41871467       0.39588638
C       -1.22304392       2.10249905       7.71368883       0.20629889       1.36106617       0.17028185
C        1.25330023       2.14972702       7.54315599       0.08649242      -1.36990639       0.66539327
C        3.70660780       2.15223098       7.48693731       1.36247770      -2.97253824      -0.30743837
C        6.09647539       2.17620582       7.48105922       2.00742556      -3.49684634       0.35062674
C        8.51494571       2.17344549       7.54959769       1.52792099      -0.39636461      -0.24027859
C       11.01861381       2.18895389       7.68419092       0.59462443      -1.58364297      -0.44535286
C       -2.50939380       4.29487598       7.57276102      -0.34335232      -2.60250430       0.82124223
C       -0.02220062       4.24488309       7.58585230      -0.13500426       0.96208726      -0.23271132
C        2.43762497       4.20314495       7.44726569       1.82493946       1.84424998       0.33211788
C        4.91283205       4.30717106       7.45619531       0.95222657      -1.50439463       0.54749122
C        7.35627164       4.28898131       7.52488353      -0.92918948      -0.42408444      -1.20911731
C        9.80349852       4.26986300       7.48340719      -1.05007016       0.23076165       0.02763087
C       -3.75621246       6.38601991       7.45814793       2.13577914      -0.51909210       1.15495600
C       -1.27745393       6.39047292       7.46169032       2.21636652      -0.97027777       1.98599233
C        1.28124726       6.35204946       7.52870360      -1.70327074       0.91523251      -0.50642273
C        3.68722942       6.40159770       7.37394297       0.07734804      -1.01717520       0.39239379
C        6.15006379       6.46239715       7.43496330      -1.39055209      -2.00961665      -0.56859381
C        8.55786636       6.38238606       7.40191909       1.40717530       0.59869834      -0.13880049
C       -4.86596352       8.50439571       7.35386186      -1.75924880       0.78913275       0.52805548
C       -2.49509749       8.48097888       7.69537667       3.81693223       2.01665402      -1.36603199
C        0.01977551       8.44423010       7.67599773      -2.24496824       1.87049143      -0.26222295
C        2.46410777       8.51213359       7.58224186      -0.62350691       1.00180155      -0.69209726
C        4.89169676       8.55324331       7.33972367       0.56132247      -0.19080054       0.50134995
C        7.41886771       8.50284872       7.30881182      -1.44528959       2.24509345      -0.44689552
C       -6.11865667      10.67916280       7.21808870       0.59723050      -0.98549510       1.04475851
C       -3.63944983      10.56742993       7.29147336      -0.56915354       3.33888779       1.01292234
C       -1.23394071      10.64755181       7.53939103       1.19543159      -0.52404533      -0.22936631
C        1.22094832      10.57348992       7.65736667       1.78235222       1.43330722      -0.69283671
C        3.74807008      10.71007688       7.49705085      -3.17821055      -1.62772196       0.89091578
C        6.19004821      10.65737550       7.28229441      -0.92537397       1.14043158       1.38238241
C        1.27359343       0.73007621       7.49857552      -0.67490918      -0.82337008      -0.43808204
C        3.75517364       0.65790089       7.41807248      -1.88250954       3.93829447       0.61261598
C        6.18416250       0.73503375       7.57099104      -1.37214171      -2.41827730      -0.55203513
C        8.55509057       0.76676776       7.65397270       2.36448648      -2.08569534      -0.07201686
C       11.05417386       0.72739627       7.70677456       1.61662174       1.28943857      -0.32615858
C       13.56518930       0.68403725       7.67010511      -0.31518382       1.41916256      -0.87575296
C        0.03104784       2.84799674       7.70372750      -1.46537994      -0.82624148      -1.00816015
C        2.50200425       2.80751869       7.50759001      -1.83442580       1.02814507      -0.19632892
C        4.92092177       2.83804749       7.46664336      -2.11357561       2.86812857      -0.02969907
C        7.29102424       2.85070609       7.45271934       1.97694693       2.22271843       0.90518566
C        9.78594923       2.89413749       7.51487837      -0.40452940      -2.24389763       0.89929038
C       12.28105983       2.84316566       7.67146859       0.09034497       0.40785589       0.09735559
C       -1.29608168       4.94865140       7.56926984       1.95775673       1.56302863      -0.76386704
C        1.23142526       4.94204650       7.42526025      -0.43875053      -0.38367518       1.04470349
C        3.69312750       4.95501554       7.49555602      -1.67768544       0.96944293      -1.21921583
C        6.14668463       5.03668915       7.49130787      -0.31143336      -0.52852085      -0.07282444
C        8.57825114       4.97207523       7.42060771      -0.21212115       0.53841934       0.64893538
C       10.99463872       4.94925560       7.58253271       1.85429837       2.25643150      -1.27227106
C       -2.46729774       7.11209610       7.56426449      -2.03048347      -2.17928967      -0.37498023
C        0.02042951       7.05152106       7.64950953      -0.80798254      -1.06845380      -1.21826221
C        2.47661583       7.12216939       7.41534305      -0.18339319      -1.30178655       0.99782225
C        4.89628448       7.10531038       7.33729755       0.56927824       1.65269946       0.40573885
C        7.36176507       7.11909314       7.34916085       0.95312465      -0.22735237       0.53642545
C        9.81704189       7.10439554       7.42501713      -0.71136999      -0.55120441      -0.33577990
C       -3.63265362       9.20365461       7.48898320      -2.52995677      -0.95224199      -0.67769986
C       -1.21472481       9.24137243       7.61206725      -0.93477752      -2.43956938       0.84901297
C        1.18511629       9.17071509       7.63004046       2.98351736       0.20581732       0.39450107
C        3.67234857       9.26740478       7.52784867       1.13882978      -0.23399610      -1.04384474
C        6.15746398       9.26272726       7.29880212       0.46529742      -1.68645393      -0.28012915
C        8.63806720       9.21332497       7.28664667       0.71887273       1.24893933      -0.49107993
C       -4.84462426      11.34398995       7.33493240      -1.82239406       0.26002363      -0.75677002
C       -2.46693081      11.34437130       7.36636656       1.60506077      -0.65828211       0.76980551
C        0.05779142      11.30540392       7.59878386      -2.84190254       0.59153499       0.45980221
C        2.45370573      11.35815647       7.56744179       0.97748200       0.75076727       0.81595579
C        4.95648952      11.37575632       7.53389882       0.96298278       1.19531152      -1.20861260
C        7.40425012      11.40040767       7.30426388       0.69422176      -1.94377867      -0.53787041
72
Lattice="14.76 0.0 0.0 -7.38 12.782534959858314 0.0 0.0 0.0 15.0" Properties=species:S:1:pos:R:3:REF_forces:R:3 REF_energy=-11165.371227784804 config_type=fd_force_conv_snapshot_045 snapshot_index=45 split=validation degauss_Ry=0.0019000869 kgrid=8 lattice_temperature_K=450.0 trajectory_seed=2 pbc="T T T"
C       -0.02960133      -0.02525220       7.64662959       1.17468536       2.46779418       0.53480540
C        2.42694876       0.10189304       7.64755452      -0.70325508      -3.44220680       0.46735585
C        4.92439442       0.00609092       7.69389821      -0.53382092      -0.27245620      -1.02314942
C        7.37325373      -0.02892499       7.52755008      -0.75126940       1.78632303      -0.73967681
C        9.86457082      -0.02046419       7.46003774      -1.70475015      -0.43296040      -0.44265938
C       12.29155738       0.01216892       7.64966038       0.77045240      -2.77303915      -0.27891301
C       -1.25828722       2.12788118       7.48945019       2.01024143       1.33277992       0.93299523
C        1.25367319       2.16781434       7.59835636      -1.66733777       0.96726726      -0.53108013
C        3.69683103       2.13352995       7.58085776       1.10054400      -1.12612544      -0.37767783
C        6.17340006       2.13467619       7.52779701       1.25692003      -0.35074707      -1.21849387
C        8.64023810       2.11281670       7.45012788       1.07576756       2.36560028      -1.46810736
C       11.06019706       2.08640831       7.48913898       2.19664050       1.92123961      -0.01535463
C       -2.39627125       4.28780056       7.35012972      -2.48090835      -1.24361097       0.08742394
C        0.06651078       4.29208726       7.29130580      -1.82827701       0.14328681       1.15043291
C        2.46286087       4.25120384       7.47321597       1.65942855       1.61183794      -0.08499321
C        4.95735155       4.21243638       7.40598173      -0.12281363       0.64758298      -0.19270778
C        7.41735305       4.29057463       7.32804443       0.48517359      -2.77598357      -0.40763684
C        9.88108322       4.29219630       7.33264316      -0.29340092      -1.87268458      -0.66716065
C       -3.61375303       6.42930382       7.41498857      -3.71677645      -3.19642270      -1.28503762
C       -1.26601495       6.42859713       7.42183591       2.97496073       0.26480126      -0.32511034
C        1.24353311       6.38780241       7.52817343      -1.24962221       0.43398344      -0.35801377
C        3.71833374       6.36597335       7.50087135      -0.94452251      -0.18245551      -0.28969493
C        6.15914477       6.34963421       7.50269506       1.04382520       1.64870062      -0.25708640
C        8.69131308       6.36150352       7.46657308      -1.98105221       1.40362769       0.15046558
C       -4.92767103       8.49696294       7.55702008      -0.50078148       1.24733882       0.33911205
C       -2.51410236       8.56101783       7.47915266      -0.17196721      -1.26788605       0.19988502
C        0.04458188       8.56051086       7.38292329      -3.78868480      -1.93433501       0.33961625
C        2.41819106       8.50562831       7.46461945       1.46961917      -1.38754699       0.13195339
C        4.88635738       8.50346347       7.59234476       0.71271545       0.59209163      -0.43977100
C        7.35363554       8.51690341       7.49721053       0.56140989      -1.27722712       2.07654067
C       -6.23611408      10.65693187       7.66647768       3.26822050      -0.47474726       0.34335309
C       -3.73350891      10.71692873       7.71356973      -0.59216388      -0.84696560      -0.47586954
C       -1.25558300      10.60887360       7.44440148      -1.03610367       1.19025853       1.02002964
C        1.16239732      10.65841270       7.42533061       2.62760058      -0.74792003      -1.15983595
C        3.60874387      10.58085613       7.47590788       2.25389279       2.04644951       0.25737643
C        6.14610792      10.63017610       7.67707142      -2.78743192       0.12230044      -0.65542562
C        1.19104072       0.78260785       7.66636047       0.34472040      -1.71261901      -0.37526382
C        3.69443004       0.67472782       7.59314340      -0.58998127       3.03275450       0.95046768
C        6.10736792       0.73455570       7.56577295       3.14785199      -1.48240578       0.54353841
C        8.60938313       0.74269716       7.41120462       0.48843170      -3.84131220       1.12889864
C       11.08600395       0.66582483       7.54594605      -1.02249019       1.27620408      -0.11988051
C       13.54435567       0.71856586       7.67290675      -1.61666622      -0.44453602      -0.77539329
C        0.01200912       2.88248193       7.44237012      -0.03696886      -0.93471581      -0.05257777
C        2.49740317       2.86960080       7.56086969      -1.06418525      -1.45220663      -0.09974466
C        4.95267536       2.79311574       7.48212700      -1.02073901       1.83111936       0.24989940
C        7.44359999       2.82363991       7.32457419      -1.88578333       1.12733463       1.45337160
C        9.92708973       2.84900497       7.35238641      -3.45411203      -0.38115165       0.78722757
C       12.29337473       2.86665048       7.51401776       0.49733414      -1.34140571      -1.10909369
C       -1.19663784       4.99775117       7.33956304       0.66080539       0.79367204      -0.07962269
C        1.27426171       5.01425865       7.40830078      -0.87944378      -2.38321208       0.13953685
C        3.72234041       4.93438188       7.44369814       0.30901035       0.37655297       0.25387767
C        6.20294754       4.94480390       7.33431674      -2.29495691       0.48890092       0.98845187
C        8.62332998       4.97625459       7.32165472       1.80573794      -0.12215594       0.55821889
C       11.09043316       4.96503951       7.27038513       2.10792870       2.08637591       1.34287998
C       -2.48618711       7.13612606       7.39565400       2.73162664       1.08356109       0.55264448
C        0.03277543       7.14689325       7.49392346      -1.66477078      -1.07063975      -0.67397433
C        2.44403429       7.03137537       7.56671441       2.04654927       3.38508203      -0.68265077
C        4.91804533       7.11738914       7.46859910       0.67217507      -2.27401708       0.85871426
C        7.42676017       7.06970224       7.63471209      -0.97812272       0.13383106      -2.20501767
C        9.90581405       7.08551760       7.43567055      -1.04403501       0.65047856       0.59018310
C       -3.73225394       9.25602675       7.61775978      -0.07527367       1.16752792      -0.22599920
C       -1.30164478       9.19958901       7.43581462       3.44938583       1.60018107      -0.40509607
C        1.22677429       9.24802100       7.31580383       0.19802045       0.21290688       1.19153817
C        3.66427339       9.19661835       7.52486720      -1.29328160      -0.93336367      -0.10219415
C        6.11320901       9.21329118       7.60905392       0.82680019       0.10210005      -0.22235260
C        8.58032541       9.21816720       7.62496587       0.07812888       0.23408146      -0.78358971
C       -5.01775466      11.43147871       7.72154293       1.92694232      -0.71021146      -0.36608909
C       -2.45290893      11.38121364       7.64333467      -0.99756232      -1.19121061      -0.12129128
C       -0.03242919      11.32696958       7.45369623      -0.79247724       1.37028948       0.13692770
C        2.41945289      11.32129608       7.39130671      -0.47917213       1.50085756       0.82663435
C        4.85580964      11.31256822       7.59088801       1.37900141       1.20613586       0.48114262
C        7.34883970      11.35849503       7.67254821      -1.26758600       0.02727323       0.02778900
72
Lattice="14.76 0.0 0.0 -7.38 12.782534959858314 0.0 0.0 0.0 15.0" Properties=species:S:1:pos:R:3:REF_forces:R:3 REF_energy=-11165.068897609162 config_type=fd_force_conv_snapshot_051 snapshot_index=51 split=validation degauss_Ry=0.0019000869 kgrid=8 lattice_temperature_K=450.0 trajectory_seed=2 pbc="T T T"
C        0.01452349      -0.03173166       7.31171001       0.48096161       1.21084844       0.60326308
C        2.45923190      -0.00396225       7.33303023       1.35411493      -0.92545547       0.45228944
C        4.92296453      -0.04513391       7.53189984      -0.41355912      -0.40540255      -0.94170664
C        7.41185245       0.01943598       7.60019593      -1.27847308      -1.51592062      -0.35278544
C        9.85709097       0.06769683       7.55846413      -0.69379316      -1.94832053      -0.43559064
C       12.26874370       0.04301088       7.32385449       2.97617018      -1.51261881       0.15316370
C       -1.21140342       2.12142539       7.47280157       0.25484440       0.43649284      -0.57124616
C        1.26162599       2.17336917       7.34870513      -1.49816561      -2.62198066       0.47646861
C        3.73479395       2.09139843       7.46262265      -0.93654978      -0.37471077      -0.07595116
C        6.12095593       2.11394623       7.53941229       0.99034729      -2.76995614       0.51419184
C        8.56195335       2.17903322       7.69336242       0.33234902      -1.84284462      -0.52602765
C       11.07320359       2.14988414       7.54063270       0.51065760       0.87682048      -0.17445115
C       -2.39474934       4.25609452       7.63471415      -2.13779077       0.41583351      -0.19693313
C       -0.00841866       4.32534505       7.38536085       1.22427756      -3.31142455       0.58065794
C        2.43153271       4.17447930       7.44578153       1.42189101       5.21140731      -0.03976905
C        4.90303809       4.19909700       7.48537019      -0.70570534       3.16701443      -0.14758826
C        7.34510376       4.29052878       7.68252432      -1.10168762      -1.50637540       0.85779432
C        9.80379879       4.22938017       7.73374703       1.43067416       2.44497461       0.54968232
C       -3.63051776       6.34654943       7.52737107      -3.88845106       0.09107516       1.31607263
C       -1.26663936       6.40003544       7.48637531       4.14926119      -0.80105470      -0.55601469
C        1.28623858       6.40506452       7.52616554      -2.56543902      -0.99275127       0.46263479
C        3.68071723       6.38342417       7.50238703      -1.50980140       1.43798740       0.68959455
C        6.11546921       6.42045574       7.61154286      -0.43269481       0.11170826       0.24209379
C        8.55809169       6.37171274       7.72069047       2.74448885       0.74945446      -0.18995773
C       -4.90817686       8.45908658       7.40544112      -1.09194314       1.04179943      -0.24884988
C       -2.38968848       8.47986909       7.33728222      -3.73109903      -0.17765552       0.23235651
C        0.00816052       8.51207931       7.35121123       0.70879941      -0.37718263       0.22770384
C        2.44102966       8.56428122       7.65206604       3.06874249      -1.07037956       0.43774471
C        4.90176211       8.57733454       7.60313487      -0.78399980       0.06586086       0.90696975
C        7.39404622       8.57813255       7.51950284      -0.80481057      -1.86005404       0.00351830
C       -6.15932923      10.67981236       7.29336553       1.87726141      -1.41408334      -0.11408088
C       -3.67939601      10.58219722       7.29606548      -1.05445980       0.29634098       0.05601817
C       -1.23746619      10.64729656       7.46271976       0.73934951      -0.36525323      -1.22531732
C        1.22695315      10.69483423       7.49227131       2.10237897      -2.83297439       0.72839764
C        3.67433243      10.72483956       7.58152214       0.68645935      -0.84158454       0.34350941
C        6.11409854      10.67365279       7.41850955       1.99693752      -0.49049372       0.53781822
C        1.25262513       0.67713026       7.37923789      -1.11873069       2.36859536      -0.81732027
C        3.70034270       0.66567865       7.45838399       0.41912247       1.29258072      -0.14952559
C        6.14954458       0.66310507       7.53125569       0.05920865       1.16729678       0.61433116
C        8.60840050       0.71563952       7.64108255       0.58565693       2.55030062      -0.06361783
C       11.07346182       0.75107744       7.31983239      -0.56941322       0.50938413       1.91254568
C       13.57892203       0.72411574       7.36230181      -2.46818447      -1.20359458      -0.17098916
C       -0.02256979       2.85402729       7.34570876       2.30126537       1.00352059       0.55223979
C        2.50945083       2.83100156       7.42822123      -0.71257661      -2.56586608      -0.37083098
C        4.95321351       2.78983597       7.50652248      -2.86057672       1.28233744      -0.29919028
C        7.28176392       2.82166149       7.67630882       3.92090995       2.38017561      -0.23567451
C        9.82859248       2.86212993       7.64936595      -0.73273149      -1.69008047       0.31365556
C       12.33956354       2.84822560       7.62260105      -1.12927685      -0.74418113      -0.75943780
C       -1.19281659       4.99539600       7.44976572      -2.59580786       0.51055604       0.95151643
C        1.22873858       4.93069968       7.55081211       0.93336470       1.67176444      -1.44211942
C        3.65040856       4.99589517       7.35293676       0.95190312      -3.45465968       1.53927730
C        6.08806923       4.98551222       7.64368854       1.11528773      -0.24174797      -0.71065214
C        8.58581949       4.96021091       7.81991341      -0.79312208      -0.29857681      -1.03406401
C       11.06342108       4.94558856       7.71288944       1.64928992      -0.42830491      -0.88936104
C       -2.45274468       7.05797318       7.47515704       0.52640329       1.83643023      -0.58826866
C        0.02737319       7.10537563       7.43202027      -1.18232153      -0.65922622       0.15866046
C        2.44134564       7.14893081       7.65997802       2.11098214      -1.45174126      -1.17787532
C        4.85693509       7.12818269       7.58833654       2.32345733       0.50673255      -0.26558467
C        7.38268558       7.11279846       7.63405640      -1.58592122       0.86410972      -0.02180116
C        9.84876497       7.06890722       7.59177192      -0.39358139      -0.87287127      -0.44866213
C       -3.67809676       9.14335081       7.32809429       0.97466793       1.32724433      -0.19583193
C       -1.23722238       9.22464308       7.28787193       2.16727516       0.60847059       0.94902632
C        1.26766082       9.15781653       7.46969692      -3.71692711       5.43782611      -0.14026550
C        3.67411302       9.35066906       7.71437684       0.37999156      -3.50972834      -1.05542859
C        6.15031814       9.27635347       7.57730907      -0.60448512      -0.93058636      -0.74660722
C        8.59609677       9.24565990       7.32576695       1.70567189      -0.43162523       0.94588880
C       -4.88442484      11.36832760       7.26505042      -1.43770330      -1.37396359       0.23527599
C       -2.49047756      11.30559535       7.40920354       1.83722393       0.79130174       0.57414096
C        0.04238099      11.37217219       7.49640422      -2.64792207       0.23331064       0.31128037
C        2.46645769      11.40242455       7.63097243      -1.39861816       1.66636255      -1.17912976
C        4.91442161      11.35636395       7.42814775      -0.79581582       3.34417500      -0.24182177
C        7.39193391      11.34468785       7.36314301      -1.63951021       0.90513810      -0.62945362
72
Lattice="14.76 0.0 0.0 -7.38 12.782534959858314 0.0 0.0 0.0 15.0" Properties=species:S:1:pos:R:3:REF_forces:R:3 REF_energy=-11165.583806925157 config_type=fd_force_conv_snapshot_057 snapshot_index=57 split=validation degauss_Ry=0.0019000869 kgrid=8 lattice_temperature_K=450.0 trajectory_seed=2 pbc="T T T"
C       -0.02079437      -0.05862384       7.69311721       0.66683077       1.38306992       0.02626279
C        2.44388747       0.05891369       7.65689346       0.57612997      -2.01836123      -0.43368777
C        4.90469385      -0.00036800       7.50133332       0.86718913       2.56574421       1.18858808
C        7.36022199      -0.05872479       7.48241955       0.68614516       0.87957028      -0.15883967
C        9.86522124      -0.00685959       7.51858639      -1.91848750      -1.11658151      -0.22114521
C       12.28001921      -0.08854482       7.64365187       0.06427861       3.29894133       0.68810485
C       -1.22316221       2.09803868       7.75501983      -1.88645490      -0.15036146      -0.22029906
C        1.19861888       2.16414170       7.58319485       0.70909277      -2.95092452       0.69968896
C        3.71162359       2.14384459       7.55058355      -1.57866763       0.97891436       0.53947401
C        6.13709166       2.13813680       7.50816003       0.50903292      -2.15782378      -0.76407915
C        8.61337873       2.08664869       7.39788981      -0.87779750      -0.63290455      -0.45446691
C       11.08804537       2.10930293       7.52062153      -1.22130897      -0.13753474      -0.14987115
C       -2.45956375       4.26142191       7.46669865      -0.96823451      -2.04109621       0.22579222
C       -0.04877667       4.24847300       7.73690650       0.84813494      -1.23403927      -1.13429770
C        2.45742737       4.25934809       7.59812355      -0.31998690       0.69543250      -0.72028607
C        4.90732740       4.28211234       7.38049178       0.96260303      -1.17535847       0.96469847
C        7.37639239       4.25213719       7.41774173      -0.50752908      -0.66098023      -1.28880557
C        9.85582702       4.29319530       7.34691876      -1.48720269      -3.12161183      -0.38439046
C       -3.60449188       6.39556147       7.43122857      -4.84047400      -0.91977976      -0.39331425
C       -1.22104374       6.41929319       7.55759116      -0.17649646      -1.77039659      -0.02850068
C        1.17589060       6.36219388       7.59242116       2.33861373       0.34640396       0.01715106
C        3.71082112       6.38145542       7.33397389      -0.55532717       2.08992429       0.58512934
C        6.16545488       6.42064857       7.21277687      -0.25523418      -0.12638438       0.86523072
C        8.60445336       6.37855307       7.31525976       2.65447941       1.35535626       0.39379967
C       -4.86694443       8.60524544       7.49184628      -1.02028598      -2.75324217      -0.60873824
C       -2.44745827       8.58547599       7.60861932      -1.24859557      -2.53276210      -0.55981863
C        0.02176661       8.48924432       7.47528712       0.83194393       2.81312316       1.58143953
C        2.46083623       8.51983893       7.43540749       1.03364029      -1.28114471      -0.26651593
C        4.89168397       8.60804109       7.25904440       1.89499816      -2.78115406      -0.04946391
C        7.38149276       8.58844204       7.37785140       0.40308290      -2.97448019      -0.53145268
C       -6.19915453      10.63613078       7.51237605       3.05873113       0.97267969       0.01058960
C       -3.69493863      10.74425163       7.63345461       0.64223612      -1.00510156      -0.64216747
C       -1.21297103      10.59801918       7.62417021       0.35380616       2.88609158      -0.60125453
C        1.26820364      10.67025916       7.47392922       0.47108292      -1.14982587      -0.00438913
C        3.70469225      10.63738128       7.41861352      -1.64959151       0.41035501      -0.03563240
C        6.09193265      10.67998334       7.49668760       2.73502899      -2.24671890       0.36983134
C        1.21441614       0.68565302       7.62610397      -1.27134392       1.93066090       0.27114700
C        3.68274608       0.76146397       7.68402327       0.49224233      -1.48779147      -1.53593975
C        6.16136525       0.66869562       7.46061958      -1.45611419       1.84365323       0.39928666
C        8.58599719       0.62151965       7.48121005       1.41684136       2.90340385      -0.23899021
C       11.05939456       0.66537684       7.60037071       1.76245188       1.44984559      -0.27684019
C       13.51241698       0.67328925       7.76915495      -0.22701607      -1.03554034      -0.77787441
C       -0.01525091       2.79730886       7.74378341      -0.56170248       2.26338634      -0.30037633
C        2.41997250       2.84893121       7.51821178       2.04255094       0.19900133       0.71474508
C        4.93427941       2.85681472       7.54496838      -0.89483877       0.30281450      -0.79514939
C        7.35381581       2.78877006       7.34387846       1.66242105       2.02565340       1.39814713
C        9.83430489       2.81455500       7.33577618       0.70052405       0.52476113       1.02079763
C       12.28761509       2.83838119       7.59744690       1.29347495      -0.88401520       0.07474480
C       -1.26224844       4.93079308       7.53337707       1.63860313       3.17131717       0.98300910
C        1.19070404       4.94067274       7.62724677       0.31796627       0.45674773       0.57396998
C        3.71981249       4.99331527       7.47039062      -1.99472842      -0.85533532      -0.44980601
C        6.12449059       4.97431408       7.35149917       1.52822232       0.91680551      -0.51494131
C        8.60683558       4.96179324       7.32579952       0.06478511       0.18978289       0.31594770
C       11.07367370       4.92432297       7.37621462       1.14643922       3.37478733       0.14992360
C       -2.44791701       7.09558823       7.50483475       1.56404011       2.70071299       0.49942368
C        0.00973946       7.13530264       7.62631992      -0.94231497      -2.66819547      -0.89327554
C        2.42830486       7.05884400       7.48311675       1.08859428       0.95025325      -0.58830568
C        4.94375263       7.18139839       7.22017522      -1.03374571      -2.01009257       0.17361785
C        7.42723298       7.09124178       7.29868887      -2.44476532       2.46467466      -0.20674035
C        9.87394212       7.15152165       7.40593533       0.72370949      -1.25487652       0.02426761
C       -3.67371249       9.32841356       7.56817068       1.09905353      -0.78368947       0.52495756
C       -1.21084234       9.19404761       7.60574425       0.44076987       1.22914466      -0.35588207
C        1.28430311       9.23309420       7.51316577      -2.38269504       0.20008273      -0.70109150
C        3.69303448       9.26032125       7.30655060      -1.80449456      -1.00678281       0.60142782
C        6.12433743       9.27455718       7.36367931       0.96935783       0.10962310      -0.12697316
C        8.64225507       9.23938259       7.42162563      -1.50398788       0.86252361       0.46382444
C       -4.92959708      11.39237463       7.55263106      -1.28616247       0.88845472       0.82791450
C       -2.43671318      11.43062560       7.60432524      -0.22318975      -4.02567315       0.17509881
C        0.03685515      11.33438055       7.52113435      -1.85324216      -1.39364847       0.22883564
C        2.50364409      11.36918520       7.43075482      -0.93936411      -0.51433376       0.53658640
C        4.89069020      11.31229448       7.57140701       0.28042251       1.54474886      -0.49809570
C        7.35864485      11.30996175       7.60277401      -1.20817089       1.68009739      -0.20175447
