72
Lattice="14.76 0.0 0.0 -7.38 12.782534959858314 0.0 0.0 0.0 15.0" Properties=species:S:1:pos:R:3:REF_forces:R:3 REF_energy=-11166.917802161235 config_type=fd_force_conv_snapshot_000 split=validation degauss_Ry=0.0019000869 kgrid=8 lattice_temperature_K=300.0 pbc="T T T"
C        0.00510370      -0.01942390       7.38759368      -0.76439591       0.90045766       1.11555487
C        2.43371386       0.01215294       7.61238722       0.58220986      -1.57643231      -0.26140894
C        4.87309044       0.05556129       7.51714612       1.17253206      -2.09478188       0.13531407
C        7.34906766      -0.05943043       7.47504195      -0.92790290       1.89415535       0.11254001
C        9.81560454      -0.00132801       7.50160947       1.91543535      -0.35577460       1.44181140
C       12.32280025       0.04266828       7.58981355      -0.90738344      -0.62047996      -0.38625940
C       -1.22715689       2.18758723       7.41907184       0.00243303      -2.56288566      -0.41369050
C        1.25526139       2.11571119       7.51838058      -0.30431114       0.33869528       0.02382179
C        3.67610675       2.12974472       7.44114445       0.85704330       0.73006577       1.02623243
C        6.11110642       2.16736901       7.34492546       1.31092914      -0.72581625       0.02563261
C        8.59193641       2.08931831       7.37507468       0.25705247       1.04591448       0.23322477
C       11.07974256       2.14909911       7.46336385      -0.21873326      -0.55228376       0.24329218
C       -2.41750163       4.32438255       7.37452923      -1.83418052      -3.65854019       0.87133529
C       -0.00247084       4.25592285       7.56377364       1.08025799      -0.60382923      -0.13404318
C        2.47282021       4.25631368       7.53338688       0.50930623       0.51849458       0.63520389
C        4.93948213       4.29136259       7.41999041      -1.78283147      -0.35483178       0.31723402
C        7.38390711       4.28975340       7.37415406      -0.39940262      -1.22650928      -0.27736418
C        9.84244958       4.22754468       7.39876094      -0.06064461       0.99537148      -0.16988487
C       -3.66812019       6.33155426       7.33975923      -0.13155024       0.53109864       0.13264295
C       -1.21444728       6.39103959       7.50487690       0.15069930      -0.31840824       0.31140764
C        1.22511831       6.34887418       7.68550746       0.35878793       1.49034997      -0.17588865
C        3.68167651       6.37993589       7.56512677      -0.25047250       2.77928898       0.80305322
C        6.09100433       6.41692227       7.49403525       2.70855511       1.00438242      -0.23211225
C        8.61339903       6.37636937       7.33715784       0.36317886       1.04370076       0.94490124
C       -4.90404964       8.45011705       7.30791755       0.02629956       2.62393342       0.80647253
C       -2.50854061       8.48418222       7.45310316       1.74137783      -0.49028238      -0.56551234
C        0.01503638       8.51278871       7.67227298       0.18798595      -0.65403542      -0.52044142
C        2.50986597       8.55081328       7.63815844      -1.97825588      -2.18518495       0.23713259
C        4.94692576       8.57133277       7.65613477       0.43850653      -0.29353179      -0.38027336
C        7.43843838       8.53335065       7.45564824      -1.68628912       0.69092175       0.27815582
C       -6.12861464      10.62651835       7.43499293      -0.51168398       0.78599061       0.69861912
C       -3.73083469      10.66011414       7.49149531       1.63380210      -1.52978761      -0.33742567
C       -1.27558986      10.61308085       7.58274163      -1.23252026      -0.30189739      -0.22572846
C        1.23829366      10.65457183       7.68398190      -1.14026034      -0.22951055      -0.72747796
C        3.67635965      10.67156185       7.61881380       2.46186213       0.03809706       0.80193813
C        6.14558784      10.67113236       7.56341647       0.91717189       0.59680755       0.35222314
C        1.22007770       0.69719682       7.57375741      -0.10007273       0.42202473      -1.08759129
C        3.64971847       0.72622539       7.57531001       0.21446189       0.22383176      -0.60372819
C        6.12195224       0.74717362       7.41397502       0.12876213      -1.46356525       0.26504217
C        8.59268321       0.67317284       7.50600804      -0.87016595       0.03210151      -0.97742852
C       11.07111800       0.71931912       7.58457611      -0.63743381       0.57349896      -0.94605335
C       13.51706680       0.73168089       7.36864206       1.44939333       0.51751936       1.07195179
C        0.02835986       2.81740831       7.41865541      -0.34316797       1.97138332       0.96190626
C        2.49494038       2.84403548       7.54399987      -1.82213464      -0.14267746      -0.62512877
C        4.89861362       2.87329987       7.40803354       0.12740767      -0.36961742      -0.39551100
C        7.37327746       2.83188572       7.29535043      -0.20833212       1.10752788       0.75926965
C        9.83771063       2.83642076       7.40065439      -0.67944615      -1.38551350       0.09484131
C       12.30202299       2.87224032       7.45603434       0.64495686       0.77060693      -0.53050651
C       -1.22670718       4.98010695       7.54422723       1.68605361       0.30969092      -0.81797462
C        1.25465053       4.95316638       7.65054942      -1.24212513      -0.76111827      -0.52863784
C        3.69450472       5.00715076       7.53711167       0.38061351      -2.13097838      -0.63126573
C        6.13439525       5.00136513       7.40067187       0.97899227      -0.01403128       0.19979220
C        8.61648497       4.97307832       7.42550991       0.04964852      -0.40875552      -0.78045271
C       11.08394496       4.92356517       7.36112371      -0.49663069       1.26358408      -0.07384131
C       -2.44344693       7.04189449       7.36662729      -0.96055771       1.63834576       0.62705555
C        0.00531883       7.07265443       7.64249897       0.25152665       1.13274398       0.01411741
C        2.43511838       7.08321793       7.63604852       1.35071722       0.92894960       0.04901500
C        4.91050404       7.16257204       7.63000755      -0.51106589      -1.62082138      -0.69830571
C        7.38341179       7.13375620       7.40464135      -0.39651913      -1.74003315       0.19678812
C        9.88818472       7.06942085       7.37566389      -1.74298811      -1.36768753      -0.94160431
C       -3.71803387       9.20889618       7.34777788       0.88404991       0.35837296       0.69491931
C       -1.24735197       9.16380946       7.56682475      -0.41257850       1.44953603       0.31466832
C        1.27671916       9.24799492       7.67528213      -1.37485551      -0.51551133       0.25528483
C        3.70556324       9.24700401       7.63591941       0.89719159       1.06213917       0.12612084
C        6.19614097       9.27396575       7.56751683      -0.77172304      -1.47439962       0.09068769
C        8.66019413       9.22738794       7.43755530      -0.45069741      -1.26831131      -0.85117141
C       -4.91822841      11.33921419       7.50844922      -1.35910004       2.08028317       0.10885074
C       -2.51078206      11.37835260       7.55936233       0.98655337      -0.11653782      -0.22822294
C       -0.07985393      11.30849899       7.56873853       2.99070026       1.00251606       0.46794335
C        2.47822267      11.34920178       7.63341173      -1.93259360       1.54905340      -0.48279558
C        4.94744836      11.41586854       7.68097287      -1.45165590      -1.48008125      -1.04370899
C        7.38948065      11.35034910       7.50322099       0.19820686       0.19300706      -0.79455804
72
Lattice="14.76 0.0 0.0 -7.38 12.782534959858314 0.0 0.0 0.0 15.0" Properties=species:S:1:pos:R:3:REF_forces:R:3 REF_energy=-11167.240519785953 config_type=fd_force_conv_snapshot_004 split=train degauss_Ry=0.0019000869 kgrid=8 lattice_temperature_K=300.0 pbc="T T T"
C        0.00605796       0.02915260       7.63036792       0.50266378      -1.72703082      -0.45864855
C        2.46700000       0.00452480       7.54514825       0.03185031       0.05974087       1.20385992
C        4.90715675      -0.01003699       7.58213816      -0.52479944      -0.37089731      -0.72332588
C        7.36742395       0.02526628       7.52860666       1.42954956      -1.85960821      -0.03212028
C        9.88193750       0.00126643       7.37450239      -1.07774680      -0.20700903       0.42898753
C       12.33972644      -0.02304723       7.44005819      -0.46687711      -0.33523971       0.27884617
C       -1.16717628       2.13630723       7.47490513      -2.01230423      -0.20820099       0.02631576
C        1.30552786       2.15884866       7.51491621      -2.88741364      -0.23600927       0.35828245
C        3.69525283       2.13114407       7.51026210      -2.18293600       0.33976331       0.39473658
C        6.07593749       2.08710400       7.55940980       1.67448338       0.69863172       0.16974320
C        8.60663980       2.13514277       7.45120690      -0.89833779      -1.38078910       0.34426326
C       11.05182475       2.09885171       7.35419828       2.24255680       0.57503931       0.75261872
C       -2.49959316       4.20037884       7.47374017       0.38887344       2.70239320      -0.27184788
C       -0.00549161       4.32194151       7.43947506       0.10487787      -1.82157620       0.04501590
C        2.45959698       4.34948048       7.44491732       0.31567773      -2.51606458       0.81500242
C        4.89482804       4.22894044       7.52259672       0.18357702       1.78892730       0.34705702
C        7.37820928       4.18229166       7.53767178      -0.64961698       2.48044941      -0.51906408
C        9.84400912       4.24610357       7.43681752      -1.04035987      -0.19647188       0.52180590
C       -3.69235821       6.40112379       7.54963692      -0.98001351      -1.55551458       0.27487278
C       -1.23692393       6.37914454       7.39694780      -1.22379214       0.74408085      -0.04219540
C        1.23115303       6.43927645       7.32361936      -0.09271655      -0.11184016       0.69095081
C        3.68564875       6.45028388       7.49423641       0.43078705      -1.50800137      -0.15593046
C        6.16833876       6.35695643       7.50185820      -1.58594333       1.10989510       0.01672143
C        8.58054807       6.38014188       7.52578704       1.14824053      -0.36507582      -0.02366803
C       -4.91977569       8.49470291       7.66744941      -1.35066528      -0.09348300      -0.20298294
C       -2.49238946       8.47334175       7.52091899      -0.08707144       1.68176655       0.16809950
C       -0.03849610       8.54453226       7.42517681       0.24349607      -0.00632054      -0.80840497
C        2.47067317       8.58822038       7.35301225       0.10230831      -1.49032683       0.21365276
C        4.93205112       8.52595773       7.53426115       0.09100394       0.39920567      -0.14714681
C        7.36554021       8.52102120       7.55816339       1.78759855       0.17509881       0.61922114
C       -6.10054812      10.69112495       7.64873178      -0.57498660      -1.57743812       0.63651901
C       -3.66087172      10.60685961       7.60058689      -1.46198376       0.94716072       0.21975579
C       -1.25395546      10.66626086       7.60126389       1.36787368      -1.00877130      -1.47950558
C        1.23175789      10.66299333       7.41503676       0.47119733       0.28468900       0.01035255
C        3.69344509      10.63641579       7.37144793       0.87335361       1.87525260       0.64646687
C        6.17508919      10.64237809       7.55771239       0.48082689      -0.53212914       0.33669624
C        1.24356669       0.71270816       7.59708083       0.40791991       1.09505006      -0.45193823
C        3.67177240       0.71477879       7.56011951       1.10307988       0.20561729      -0.33173170
C        6.13559837       0.68867664       7.55774783      -0.89254792      -0.01842633       0.17434625
C        8.61998821       0.70608580       7.45758554       0.31715792       0.47755284      -0.28333325
C       11.11947070       0.70892500       7.40116248      -1.15012104      -1.40146385      -0.51621247
C       13.54142067       0.70343767       7.52146743       0.82256378       0.65613216       0.00348642
C        0.03048804       2.86772206       7.51172646       0.76081462       0.49716342      -0.36240393
C        2.46905026       2.90449625       7.49495604       1.35329064      -0.69478484      -0.25437646
C        4.87960215       2.81836005       7.55994580       1.01332189       0.59003707      -0.33943447
C        7.30663164       2.78313278       7.55312429       2.28337923       0.42957477      -0.43245518
C        9.85204450       2.80497274       7.41216254      -1.22371321       1.32677279      -0.24442964
C       12.31237206       2.81183319       7.42240973      -0.16169951      -0.31155651      -0.03616077
C       -1.27455882       4.97707161       7.38291894       0.81629003      -1.11518514       0.74073148
C        1.24789907       5.01263019       7.45448221      -1.85368362       1.51477443      -0.96220759
C        3.67748411       5.00868842       7.53522890       1.09085377       0.41696351      -0.71517291
C        6.14188118       4.94250842       7.51314886       0.34252288      -0.98703596       0.20326550
C        8.62091748       4.96051271       7.46248751      -1.67068869      -1.41069129       0.43330879
C       11.01234405       4.97013479       7.54440833       2.89202183      -0.62974313      -0.89139118
C       -2.47229752       7.09193773       7.50458819       0.53575619      -0.93128005      -0.23853795
C       -0.03998986       7.12182144       7.32984606       1.47448241      -0.00297785       0.39770852
C        2.47633506       7.14878183       7.38222898      -1.19807160       0.69073201      -0.10868696
C        4.92079211       7.11730203       7.50310617       0.90006634      -0.49655510       0.21973033
C        7.36407339       7.10011236       7.51166523       0.35294253      -0.34053901       0.21782900
C        9.82890124       7.06946011       7.60207194      -0.35408179       0.80436448      -0.16421482
C       -3.72174332       9.18384363       7.62749859       1.57340843       0.86978363      -0.20167373
C       -1.29972018       9.22837470       7.47730901       1.96219394       0.49080508       0.66251441
C        1.22929103       9.26122882       7.34686096      -0.90831958      -0.66997138       0.52300224
C        3.71831493       9.27349972       7.44714204      -0.90531679      -2.26496885      -0.38583645
C        6.16515232       9.22117644       7.60133223      -0.48744208       0.38877651      -0.66197679
C        8.63392296       9.24234697       7.65447327      -0.96270356      -0.13338009      -0.34467206
C       -4.86269032      11.39166139       7.71173488      -0.73817580      -1.58964161      -1.42166912
C       -2.46981101      11.34547453       7.48358362       0.32953264       0.67202389       1.62616901
C        0.02901280      11.35832977       7.54205459      -2.31512927       0.99376223      -0.04754741
C        2.46824784      11.36359788       7.36960682       0.39494227       0.21723765      -0.09080648
C        4.95092652      11.30846482       7.47632162      -0.71307026       2.39880737      -0.40787184
C        7.40551125      11.35263408       7.61962551       0.03499297       1.50797283       0.03764738
72
Lattice="14.76 0.0 0.0 -7.38 12.782534959858314 0.0 0.0 0.0 15.0" Properties=species:S:1:pos:R:3:REF_forces:R:3 REF_energy=-11167.185256050403 config_type=fd_force_conv_snapshot_008 split=train degauss_Ry=0.0019000869 kgrid=8 lattice_temperature_K=300.0 pbc="T T T"
C        0.00145416      -0.02612117       7.53423311       1.28933856       2.25577716       0.34493277
C        2.49884934       0.01130042       7.75177987      -0.53725437       0.45328806      -0.81212227
C        4.97372613       0.00855672       7.56349179      -1.43916574       0.29025878       0.32032397
C        7.41782903       0.00405818       7.44953700       0.87487776       0.15389287      -0.70343454
C        9.90010370      -0.00054409       7.31880694      -1.70871737      -0.02225675       0.81315560
C       12.29573677      -0.03138658       7.36268630       1.83402162       1.23058422       0.68665809
C       -1.26152457       2.12399027       7.43298009       1.31703165       1.03567558       0.00973805
C        1.22264227       2.15121320       7.51433573       1.34291135      -0.80829004       0.61349375
C        3.73193800       2.12513566       7.64441919      -0.94133640       0.04434844       0.42365070
C        6.14778371       2.13063927       7.69499668      -0.14622146      -0.33443779      -0.63553531
C        8.57111321       2.13123782       7.51465228       2.13318824      -1.06638740       0.83683340
C       11.05041364       2.12287245       7.44626169       0.08012920      -0.47502854       0.07620544
C       -2.49225367       4.26118858       7.41008244       0.42990259       0.06238293       0.32646120
C       -0.05205538       4.27410320       7.35782180      -0.26018433      -0.06376901      -0.11468791
C        2.46851264       4.21519501       7.36736645      -1.96758092       1.09135564       0.58814448
C        4.88396853       4.26071291       7.54412774       1.35076478       0.49817412       0.32332316
C        7.40242117       4.22914737       7.62026428      -0.47815423       0.92178393       0.69942979
C        9.84696303       4.22355059       7.60045679       0.87501300       1.61980091       0.17232073
C       -3.67561357       6.38735038       7.67532082      -0.78077512       0.43538495      -0.66193257
C       -1.27488222       6.45925576       7.36078610       1.03214648      -2.88048786      -0.02570640
C        1.23491487       6.35923284       7.25403058      -1.65148178       0.74586211       0.03531025
C        3.63623530       6.40518690       7.34891382       2.22526536      -0.53754851       0.58896543
C        6.11910050       6.38098059       7.56632541       0.04701802      -1.75623649      -0.47372062
C        8.61528673       6.34848137       7.72795178      -1.11018872       1.18342094      -0.20956445
C       -4.89218838       8.48938050       7.74111827      -1.80573126       0.58596315       0.69930355
C       -2.46385837       8.55329950       7.58820706      -0.35517245       0.66734320      -0.62804980
C        0.00304936       8.54486992       7.36258247      -0.88701079      -0.04340202      -0.93073703
C        2.42683610       8.50802833       7.29783426       2.28862171       2.35670401       0.14331715
C        4.91847624       8.53917019       7.39688514      -0.18476616      -0.48940486       0.01590227
C        7.32662497       8.49211683       7.63697080       2.21527894      -0.30554861      -0.11715566
C       -6.13348079      10.64620760       7.67592571      -0.74265723      -0.62506603       0.38689600
C       -3.66668042      10.67649938       7.67646934      -1.03697321      -0.43697981       0.21597884
C       -1.22046014      10.70996650       7.44031827       0.01938200      -0.83664211      -0.89177530
C        1.24941285      10.65268117       7.30024659       0.15795829       1.04394245      -0.26541138
C        3.70711422      10.66698017       7.34255604      -1.31664573      -1.00406875      -0.10849310
C        6.17167167      10.65099330       7.41314076      -1.24617205      -0.00313649       0.55813173
C        1.26084447       0.71572573       7.60061993      -1.02839730      -0.13855598       0.27198595
C        3.73634087       0.71472298       7.71035478       0.17436913      -0.13796231      -0.36809841
C        6.19608276       0.70452263       7.52612418      -0.56722855       0.90316812       0.74660028
C        8.66458441       0.69943212       7.42429063      -1.32755929       0.92009241      -0.06555927
C       11.10067508       0.70095094       7.41594980      -0.08639267       0.12823197      -0.72306903
C       13.56524400       0.72427204       7.46684567      -2.04896353      -1.62414915      -0.55341556
C        0.00488181       2.86609772       7.45205263      -1.82593524      -1.10754280      -0.29408818
C        2.50713992       2.83168513       7.59003966      -1.73146751      -0.40637468      -1.10463051
C        4.92108153       2.86557129       7.64709740       0.33134321      -1.19018114      -0.07600464
C        7.35945442       2.82057671       7.70952531       0.86518624       0.25150943      -1.16227361
C        9.83258070       2.82510674       7.54803198      -0.91576575      -0.28201376      -0.56239076
C       12.24707860       2.83140125       7.39394264       1.66338496       0.38523790       0.26563404
C       -1.28636314       4.99407625       7.39080043       0.68536740       0.45733472      -0.47475986
C        1.16273651       4.93381356       7.24548506       3.15930934       0.84744434       0.71973739
C        3.64137989       4.96587989       7.45401228       1.07111464       0.81856597      -0.68057306
C        6.16746192       4.92402440       7.56794811      -1.40218376       1.45000242       0.14009196
C        8.65052190       4.95700317       7.66434574      -1.54717573      -1.30050923      -0.12105422
C       11.07776501       4.98636743       7.55222315      -0.94673855      -1.17255108       0.22947918
C       -2.47553766       7.13861568       7.48262882      -0.65755295       0.41328992       0.99253195
C       -0.01930939       7.09284690       7.29930143       0.90229292       1.39780055       0.20819225
C        2.44918545       7.13031846       7.30838776      -1.17188105      -2.06797273      -0.42904564
C        4.90557328       7.10019947       7.42755487      -0.92148594       0.13597768       0.03094528
C        7.33232662       7.04576376       7.63894769       1.63528897       1.51558818       0.44104935
C        9.82722732       7.06926024       7.77429185       1.29825026       0.38035486      -0.37888368
C       -3.70202717       9.25499892       7.74405991       1.17763133      -0.54285295      -0.80271306
C       -1.25721200       9.29661935       7.38617491       1.40301731      -1.61708325       1.06025481
C        1.24363007       9.25195338       7.27796190      -1.28453574      -0.89404147       0.42597523
C        3.70134081       9.26031001       7.35186832      -1.24500631      -1.71851430      -0.28595398
C        6.15291713       9.24627695       7.46033096      -0.23702589      -0.84816914       0.22364072
C        8.60731176       9.17650074       7.72989087      -0.32723715       1.57842774      -0.55429565
C       -4.89812915      11.37920835       7.72698491      -0.53773671      -0.57127161       0.01494145
C       -2.46524475      11.38906333       7.52263694       1.34441365      -0.12981834       0.41234684
C        0.03566424      11.38615106       7.30290540      -0.95100324      -0.50920930       1.07145531
C        2.47650317      11.37277408       7.32717293       0.25868615      -0.30700052      -0.37358437
C        4.90957278      11.33377321       7.35376002       1.90265285       1.37469276      -0.04604743
C        7.35753194      11.36972513       7.59156652       1.97230326      -1.37919759      -0.49857161
72
Lattice="14.76 0.0 0.0 -7.38 12.782534959858314 0.0 0.0 0.0 15.0" Properties=species:S:1:pos:R:3:REF_forces:R:3 REF_energy=-11167.140091819976 config_type=fd_force_conv_snapshot_013 split=train degauss_Ry=0.0019000869 kgrid=8 lattice_temperature_K=300.0 pbc="T T T"
C        0.06430388      -0.00637192       7.40017405      -3.28779637       0.02326000       0.92654973
C        2.45089948      -0.02024442       7.64189613       1.75705590       1.38356820      -1.33346486
C        4.95957913      -0.03707891       7.44165722      -0.74693709       2.18752337       0.42995504
C        7.42399796      -0.02371651       7.38784381      -0.99193366       2.03100695       0.50558790
C        9.86737145      -0.05001074       7.54152703      -0.43604007       2.67148931      -0.25187992
C       12.31936639       0.00486079       7.64395874       0.64582538       1.14535472      -1.28511038
C       -1.18677876       2.12595231       7.54309756      -2.82808338      -1.12682838      -0.34430594
C        1.24189422       2.14544821       7.48339862       0.01474348      -0.53868031       0.56840329
C        3.66139936       2.14947101       7.50278835       1.63610556      -1.00431223       0.17387059
C        6.15025482       2.10750797       7.45774678      -0.42597369       0.78256873      -0.78127238
C        8.60568882       2.14620199       7.46680677       0.08462786      -0.78067562      -0.24317057
C       11.04193463       2.13640828       7.53165999      -0.64355535      -0.38098221      -0.27351241
C       -2.45755308       4.23631132       7.53523258      -1.31645470       0.04208125       0.19894065
C       -0.02920219       4.24126304       7.55032506       0.93228381       0.50693078      -0.22736265
C        2.45295349       4.29747543       7.42069618      -0.79759914      -0.84383117       0.20615105
C        4.91384224       4.23136964       7.46035918       0.14444329       1.17964116      -0.58070139
C        7.39598388       4.25987355       7.54364580      -1.21817479      -1.83389487      -0.58868595
C        9.82617370       4.28790935       7.55590602       0.41140145      -0.08314870      -0.40407277
C       -3.67965834       6.43718318       7.53128949      -0.66999760      -1.22023322      -0.14738977
C       -1.26113523       6.39340143       7.50469741       0.86811267       0.92678704       0.98511998
C        1.14895864       6.40786826       7.56778311       1.89811331      -0.73095743      -0.85738269
C        3.62088564       6.38170685       7.39395817       1.68854989      -0.41343107       0.22322009
C        6.14602692       6.36742535       7.56386079      -0.74992549      -0.75334865      -0.52086411
C        8.57925803       6.39441228       7.62656945       0.54290849      -0.12901359      -0.43102153
C       -4.95799897       8.53382601       7.53530894       0.71239509       0.17486227       0.23517315
C       -2.47663068       8.58784493       7.42664520       0.91292751      -0.92144121       0.82615175
C        0.00280000       8.56349433       7.53682442      -0.00452566      -1.03211409       0.27998799
C        2.49575040       8.53401207       7.27933305      -1.70374845      -1.56450856       1.33523352
C        4.96287713       8.45757358       7.49639153      -1.75323833       0.81110257      -0.43897576
C        7.36515739       8.50998871       7.57193041       0.25473359       0.88255070       0.32431253
C       -6.16053701      10.66357414       7.57142317       0.80292055      -0.82911212      -0.60310213
C       -3.70115707      10.65903114       7.44509007       0.84287267       1.10539618       0.58355866
C       -1.20799585      10.66086714       7.47577143       0.05058800       0.56703186       0.38119535
C        1.24735391      10.64564788       7.36948912      -0.15901013       0.15087413       0.94027685
C        3.73677729      10.65577834       7.47506158      -0.17891587      -1.25886841      -0.74281561
C        6.18518137      10.63150214       7.55582109      -1.21712835       1.09774509      -0.43972523
C        1.23065302       0.71358215       7.52033365       1.81628949       0.33680372      -0.01613624
C        3.73176230       0.71036061       7.57913295      -1.80024710      -0.62152382      -0.43032142
C        6.17519490       0.72142898       7.35701983       0.13860123      -2.29388425       0.72626260
C        8.62170079       0.72374183       7.49371028       1.22962649      -1.53280763      -0.49006409
C       11.09092677       0.71885386       7.57787315      -1.10063270      -1.22745570       0.30410700
C       13.55687224       0.71160501       7.49606422       0.81617459      -0.43373559       0.32030726
C        0.01194179       2.81680909       7.50102153      -0.06719295       1.43069704       0.14293817
C        2.45477744       2.87740940       7.52066155      -0.32652265      -0.47301408      -0.67332384
C        4.91033301       2.83510919       7.43960602      -0.17433828      -0.63779479       0.47843165
C        7.37180490       2.80078942       7.43791352       0.22274778       2.16240729       0.72756332
C        9.80642394       2.88919949       7.44560561       1.14954254      -1.38977562       0.96369729
C       12.25696541       2.78768999       7.54097047       2.94658835       2.28593157       0.15594281
C       -1.24396328       4.96850202       7.58004153      -0.33648310      -0.26517792      -0.59249324
C        1.18525712       4.97316387       7.48205921       0.30409337       0.39600645       0.52135287
C        3.68555663       4.97234612       7.36837442      -0.33880403      -0.30943946       0.69697876
C        6.15617522       4.93275485       7.49311769      -0.07764012       1.08545162       0.56730594
C        8.59287210       4.96773096       7.59808739       0.30364985       1.04407871       0.00057310
C       11.06884991       4.97818923       7.54366945       0.58531832       0.80654246       0.04002873
C       -2.45023891       7.15685176       7.45863495      -1.23850296      -0.52036531       0.16285265
C       -0.03246757       7.13375256       7.62913111      -0.87007339      -0.13523771      -1.11423255
C        2.39997379       7.07941007       7.39866075       0.45402211       1.60395417      -0.03057864
C        4.88735199       7.03810750       7.51638045       0.73363395       1.14472275      -0.48313779
C        7.36267002       7.11299019       7.55672650      -0.16524866      -1.21719572       0.58763874
C        9.81271297       7.10454011       7.57512822       0.61194775       0.61927256      -0.07610877
C       -3.71196776       9.27960114       7.45740519      -0.43159849      -2.08755502      -0.09889543
C       -1.21838349       9.27408069       7.54074212      -0.60269126      -0.81226548      -0.89189178
C        1.24186668       9.24277133       7.42872265       0.68954467      -0.34493072      -0.74488998
C        3.74191222       9.18272281       7.33013572       0.07874235       1.86484195       0.84815423
C        6.15125644       9.21919631       7.55771714       0.30314000      -0.41422760       0.02722078
C        8.57539412       9.24321394       7.62110569       0.82061103      -0.34055496      -0.66996366
C       -4.91648277      11.36232484       7.49325700      -0.65892772       0.17890739       0.95525944
C       -2.43773958      11.34859694       7.49600472      -0.66938619       0.00300870      -0.75114727
C        0.02667594      11.36210222       7.46508052       0.09804799      -0.38030832      -0.77802019
C        2.47964676      11.33819372       7.44035925       0.80345920      -0.16258268       0.09694833
C        4.95958943      11.39316051       7.54713747      -0.49356953      -2.03618412       0.41792819
C        7.39609718      11.35246932       7.47643863       0.17450823       0.44899920       0.47084021
72
Lattice="14.76 0.0 0.0 -7.38 12.782534959858314 0.0 0.0 0.0 15.0" Properties=species:S:1:pos:R:3:REF_forces:R:3 REF_energy=-11166.853947927857 config_type=fd_force_conv_snapshot_017 split=train degauss_Ry=0.0019000869 kgrid=8 lattice_temperature_K=300.0 pbc="T T T"
C       -0.06310204      -0.02803070       7.55667541       1.79442072       0.44176077      -0.48766448
C        2.42357600      -0.04278073       7.44434361       1.10360567       1.55585860      -0.50466204
C        4.97529982       0.02179949       7.30226718      -0.27155220       0.08619958       0.03315026
C        7.43946183       0.04786475       7.53492377      -1.04397767      -0.72327729      -0.39446507
C        9.84696877       0.01726044       7.72922103      -0.98197475       0.07073645      -0.68369515
C       12.29609314      -0.00019451       7.75263544      -1.27743024      -0.46290938      -0.82547555
C       -1.24938380       2.12707665       7.60584737       0.46551391      -0.39735654      -0.50067889
C        1.18789117       2.08168402       7.45936717       1.36599780       1.40416248       0.33600873
C        3.70039819       2.08687746       7.37283360      -0.43615988       0.82107074      -0.83827553
C        6.14807297       2.11501287       7.24796418       2.02795273       1.78002177       0.77046243
C        8.62984285       2.15963383       7.38895542      -0.49240894       0.30515395       0.12629927
C       11.07814080       2.12494826       7.52290303      -0.62285257       0.34772679       0.14674006
C       -2.51085772       4.26758350       7.57295197       1.38255108       0.76045518      -0.32528440
C       -0.04455732       4.23746058       7.58255815       0.87696524       0.91469078       0.41901165
C        2.43140077       4.23984201       7.49750462       2.05768497      -0.75035666      -0.13297257
C        4.96603104       4.24898000       7.32806692      -2.05550982      -1.16839309       0.24365599
C        7.38910015       4.26715956       7.34189448      -1.35329321      -0.25804466      -1.16123849
C        9.83051725       4.27460916       7.43715692      -0.97228426       0.38039471      -0.83717510
C       -3.64801359       6.46348533       7.44030415      -1.06719756      -2.95470944       0.27543688
C       -1.17783635       6.42575293       7.57634545      -1.05024036      -0.40181432       0.08571518
C        1.25030267       6.34445587       7.67003186      -0.33433134       0.01727524       0.47950534
C        3.75205335       6.35819931       7.67171590      -2.16354192      -0.43836975      -0.87217579
C        6.14655465       6.40886621       7.32949602      -0.82702336      -1.16082994      -0.26903612
C        8.56700314       6.43414341       7.21867821       2.51370945      -3.38762922       0.33904392
C       -4.94700920       8.50842007       7.33411658       1.39500936       1.23995641      -0.10525068
C       -2.45140612       8.54795029       7.40800646       1.09128545       0.26005114       1.17388677
C       -0.01140785       8.53714240       7.70638826       0.45349092       0.08631579       0.09480609
C        2.41628284       8.47770777       7.69074112       0.06404541       0.18284194       0.91417630
C        4.91537500       8.54365492       7.64086976      -1.86426705      -0.90734513      -0.25581731
C        7.37573331       8.50917642       7.32892368      -0.97120645       0.62475364      -0.31410139
C       -6.12142144      10.63523333       7.37494167      -0.80884154       1.80151671       0.37054276
C       -3.62250790      10.67232022       7.36345268      -0.61389767      -0.12864052      -0.01396983
C       -1.17848403      10.68447921       7.52335748      -1.01907062      -0.21490746       0.36467447
C        1.20933737      10.64842034       7.68339716       0.90671033       1.37571965       0.88307521
C        3.62875678      10.63974361       7.76735990       0.57841645       0.69524943       0.58476965
C        6.14355565      10.62444989       7.63711828      -0.03957365       1.49898348      -0.51336574
C        1.16302744       0.67722156       7.48858625       1.46246405      -0.31956215      -0.12623654
C        3.69667134       0.66090453       7.31946556      -0.44149492       1.00147579       0.62979043
C        6.22346363       0.75305554       7.33943358      -1.51508604      -2.42580524       0.04442018
C        8.63876210       0.76381723       7.51593186       0.56922758      -1.23606659       0.63075331
C       11.05471480       0.71484282       7.67897416       1.16503498      -0.02508600       0.19948290
C       13.50398187       0.69002879       7.56857599      -0.53433514       0.89441326       1.12933958
C       -0.00925323       2.83000054       7.59747178      -1.05971256      -0.71793042      -0.65226830
C        2.45156972       2.81626029       7.37821660      -0.35682310      -0.85729167       0.77986135
C        4.94495495       2.80475674       7.29619645      -1.37337712       0.84809226      -0.07591234
C        7.38154885       2.85256579       7.33855409       0.26704609      -0.25259932      -0.30043289
C        9.85817515       2.85598979       7.42224684      -0.06958768       0.08677396       0.37400604
C       12.29391270       2.84214503       7.53226596      -0.15850542       0.19491173       0.63014447
C       -1.25208111       5.00899457       7.58107071      -0.17600384      -1.47342260       0.12307588
C        1.21492486       4.91933281       7.62390408      -0.65156665       0.86434369      -0.48554332
C        3.72692797       4.93530641       7.48267174      -0.94674395       0.38756680       0.37748217
C        6.14358643       4.97505919       7.28999474       1.19246428       0.68296650       0.37645450
C        8.57396348       4.97052692       7.24144225       1.82265117       1.33137712       1.16392632
C       11.03022953       4.98518332       7.52544611       1.54792340       1.50984176      -0.43025355
C       -2.40825219       7.14797093       7.46320077      -0.62527661      -0.72117413       0.07282521
C        0.05199627       7.10866897       7.68749141      -0.88900803       0.01775810      -0.37401812
C        2.46635614       7.02816461       7.73130472       0.99920731       1.39243980      -0.39198447
C        4.92187652       7.10961729       7.51966389       0.76813095       0.64547879       0.45104708
C        7.36222851       7.08279755       7.20716637      -0.27144242       2.42290889       0.73113226
C        9.84190507       7.08319906       7.37418887      -0.58453876       2.10974004      -0.86615015
C       -3.65760990       9.23907541       7.37552151      -2.03236989       0.26292512      -0.36862857
C       -1.23942023       9.26018817       7.64858260       0.69334810      -0.00221732      -1.34440773
C        1.21260408       9.26059440       7.71212065      -0.31253224      -2.25995906      -0.17959387
C        3.59628332       9.22646243       7.76658282       3.29619488      -0.77049045      -0.79108782
C        6.14323378       9.21995978       7.51289070       0.06814066       0.07065443       0.33246446
C        8.57770462       9.25977611       7.28078210       1.27260762      -2.45221689       0.50430877
C       -4.87897775      11.35305830       7.42495924      -0.63782745      -1.03810861      -0.52292047
C       -2.38884261      11.40822094       7.33124246      -0.63703529      -1.45046908       0.68434847
C        0.02429946      11.39160867       7.66010710      -0.18181145       0.57133152      -0.82266097
C        2.42407404      11.37385449       7.78122478       0.40845265       0.16238856      -0.41206273
C        4.87401318      11.35828590       7.77073086       1.45200120      -0.96312110      -0.28419252
C        7.39567921      11.36323722       7.48847437      -1.34054054      -1.78817911       0.58783363
72
Lattice="14.76 0.0 0.0 -7.38 12.782534959858314 0.0 0.0 0.0 15.0" Properties=species:S:1:pos:R:3:REF_forces:R:3 REF_energy=-11167.054946175349 config_type=fd_force_conv_snapshot_021 split=train degauss_Ry=0.0019000869 kgrid=8 lattice_temperature_K=300.0 pbc="T T T"
C       -0.05213911      -0.01516992       7.49269422       2.13598046       0.08584194      -1.04801250
C        2.43839931       0.02663606       7.30320586       0.98732367      -1.30923658      -0.79622437
C        4.93979582      -0.05085094       7.30535928      -0.81752570       0.39323532       0.44366313
C        7.34212578      -0.00617427       7.64192444       0.39078120      -0.11485503      -0.05495759
C        9.80219975       0.06981537       7.67816884       0.00447783      -2.09096584       0.35176548
C       12.30693428       0.03279780       7.67417003      -1.65137122      -1.04282067      -0.34819499
C       -1.19149068       2.11692024       7.59575361       0.03466284       0.96458355       0.59274495
C        1.23894314       2.11613953       7.50033738       0.52790533      -1.34969649      -0.28926556
C        3.74425121       2.12059749       7.33658678      -2.18883951       0.26920916       0.01552561
C        6.12040762       2.18456507       7.42625429       0.71591725      -1.68636548      -0.09059899
C        8.57509265       2.15983967       7.41112587       0.27400941      -0.92293116       0.21612565
C       11.05785578       2.17890979       7.53001538      -0.06832450      -1.32615213      -0.69712917
C       -2.46457173       4.20423185       7.49086893       1.89095073       2.69990900      -0.16926241
C        0.01567791       4.24007827       7.61364808      -1.27470692       0.00564074       0.05327737
C        2.43587288       4.22447414       7.43945823       1.22597449       0.07048088       0.77534290
C        4.93343359       4.33965908       7.41984677       0.36440271      -1.80853890      -0.95457630
C        7.42312544       4.28037771       7.20463079      -0.38847749       0.12383461       0.60312244
C        9.86486005       4.31472418       7.25268894      -0.66275738      -1.79099215      -0.03747691
C       -3.64655051       6.38077203       7.33224718      -0.76827776       0.84188228      -0.15204707
C       -1.17155567       6.41054805       7.49811875      -0.61546373      -1.82469417       1.12609073
C        1.26401424       6.34600491       7.71222971      -0.54241458       1.16129376       0.52566616
C        3.69061745       6.39938993       7.67838588       0.42526483      -0.64614136      -0.39923087
C        6.16837506       6.38965058       7.33255043      -0.40236402       0.20231034      -0.27424029
C        8.61473897       6.42809979       7.20432517       0.05089293       0.32737265      -0.53323780
C       -4.90819422       8.53788376       7.30422789      -0.31693526      -0.10733327       0.14751679
C       -2.44212966       8.48013612       7.50237606      -0.75154168       1.29661864       0.36292895
C        0.00335597       8.50956547       7.82184267       0.31667044      -0.37774545       0.34741312
C        2.44921320       8.50512290       7.86633557       1.27999466       1.45405063       0.43847439
C        4.93795425       8.50067385       7.68965179       0.13780933      -0.04824084      -0.21322107
C        7.38754572       8.53919935       7.35540094      -0.02129336      -1.13322529      -0.51681668
C       -6.18753501      10.65939597       7.27332732       0.88226891       0.53023346      -0.01556854
C       -3.71601952      10.62821927       7.26656892       0.17873409       0.33240070       0.53872916
C       -1.27591029      10.57231908       7.61953832       0.80075671       3.09036418      -0.10777139
C        1.18555016      10.64843788       7.85018769      -0.10990978       0.56629190       0.36267827
C        3.67051523      10.67656472       7.80223628      -0.46232214      -0.32427190       0.05756983
C        6.14930437      10.63088179       7.57720795      -1.27375382      -0.04806986      -0.51324696
C        1.21143938       0.69024339       7.37328990      -0.98509349       0.58447191       0.89814136
C        3.71196615       0.69505366       7.28245930       0.06163886       0.18064879       0.10124927
C        6.13286118       0.68175700       7.47970915      -0.35888975       2.24021787      -0.41426154
C        8.56819375       0.73429864       7.61291814      -0.02089278       0.57586026      -0.27003165
C       11.04534037       0.75371841       7.62135271       0.76200119      -0.13367088       0.32712994
C       13.52642536       0.72465851       7.59382924      -0.21120455      -0.70148487       0.13513178
C        0.05913490       2.82299088       7.65185592      -2.24566064       0.35869152      -0.86643914
C        2.45871353       2.79014539       7.39865865       1.34169907       1.21319817       0.03236633
C        4.91031367       2.91218135       7.36462122       0.82598823      -1.03791861       0.19929855
C        7.36679204       2.87531531       7.39199359      -0.14587668      -0.13453914      -0.71345130
C        9.80176027       2.85180035       7.29481225       1.67653950       1.35675777       1.21205865
C       12.34339068       2.82306198       7.56810716      -1.49235723      -0.28066188      -0.26256594
C       -1.23048426       4.95934178       7.54328990       0.67208508      -0.09971869      -0.10246000
C        1.21646884       4.93630735       7.58716357       1.51385449       0.45332971      -0.10135880
C        3.68066298       4.97122123       7.49413486      -0.53982908       1.00160538       0.19673310
C        6.20899967       4.98378972       7.24970644      -1.87899896       0.34818393       0.87240230
C        8.64239390       5.02330265       7.21142302      -0.05934183      -0.81977387      -0.35481018
C       11.11497754       4.96420332       7.33079904      -1.00335681       0.03538018       0.13639882
C       -2.41665226       7.08541226       7.45410105      -0.34831789      -0.19732985      -0.25618472
C        0.05722150       7.08872521       7.75805771      -1.21796988      -0.24364519      -1.01164193
C        2.45892383       7.10642502       7.81555048       0.73584690      -1.20487833      -0.55963274
C        4.95197511       7.07465742       7.59730575      -1.14948572       0.37408625      -0.02351994
C        7.35405814       7.10641685       7.18022510       1.74028743       1.37352522       1.31563117
C        9.84962201       7.14413258       7.24797716       0.75816896      -2.08973197       0.34711127
C       -3.69138578       9.20850226       7.41785363       0.90033708       0.60929411      -0.91063100
C       -1.23791601       9.20146177       7.70179240       0.00029388      -1.55585088      -0.43322883
C        1.21944852       9.21740429       7.92989484       0.15624285       0.54606195      -0.67413862
C        3.73569311       9.24190815       7.82308732      -2.40445994      -0.57187351      -0.01133754
C        6.15339799       9.19765255       7.53790223       0.35217737       1.41404426       0.11176123
C        8.62711015       9.25092917       7.31639887      -1.13050172      -0.30901395      -0.34431314
C       -4.95326280      11.37863081       7.21523924       0.44441312      -0.52438960       0.44597764
C       -2.46519171      11.30383330       7.33466924      -0.36297266       0.23107687       0.50376601
C       -0.06340159      11.35275737       7.75518797       0.51910701      -0.77834775      -0.32182344
C        2.38704140      11.39706033       7.82331443       1.93394806       0.00080116      -0.35050050
C        4.90700544      11.35515380       7.68948966       0.46574274       1.30681563       0.19957108
C        7.33289283      11.35622975       7.34833124       0.38633859       0.01550118       1.20004723
72
Lattice="14.76 0.0 0.0 -7.38 12.782534959858314 0.0 0.0 0.0 15.0" Properties=species:S:1:pos:R:3:REF_forces:R:3 REF_energy=-11167.096903272075 config_type=fd_force_conv_snapshot_025 split=train degauss_Ry=0.0019000869 kgrid=8 lattice_temperature_K=300.0 pbc="T T T"
C       -0.00663592       0.02680193       7.33846706      -0.31729676      -0.44619670       0.31081578
C        2.39415419      -0.03112218       7.53968697       1.88203080       0.33474118      -0.81078247
C        4.86703933      -0.00662384       7.47705699       0.48049342      -0.14698611      -0.17269046
C        7.38638713      -0.05248357       7.41616842      -1.44784141       1.30594377       0.20079621
C        9.78743390      -0.00771017       7.58255796       2.09127669      -0.25388924       0.05423819
C       12.31939307       0.00243009       7.55404392      -0.66852050       0.01735520      -0.15913046
C       -1.18829345       2.16942020       7.39971443      -0.75309771      -1.69815964      -0.60095988
C        1.27258383       2.14506012       7.37260844      -1.58962927      -0.34700560      -0.27664684
C        3.67851229       2.15968850       7.46544619       0.96341935      -1.43124880       0.07569019
C        6.13540741       2.15948697       7.40247043      -1.02627485      -2.48057308       0.15195168
C        8.60017465       2.11533869       7.39704006      -0.62676759       0.60935582       0.72459318
C       11.10647702       2.10934011       7.54660616      -1.46332794       0.10856637      -0.27398627
C       -2.42632711       4.25094315       7.44865857      -0.38156585      -0.36859721       0.42806785
C        0.03327474       4.29527816       7.46952426       0.23724289      -2.38495401       0.16051603
C        2.48088804       4.30108688       7.43596249      -0.23710353      -1.00047460       0.28324558
C        4.96638524       4.30873862       7.44515088      -2.01747446      -0.79881501      -0.08558714
C        7.37706547       4.25262261       7.46435258       0.90658049       0.90592794      -0.29336621
C        9.84754764       4.26480447       7.52950832       0.02558890      -0.75106551      -0.65876317
C       -3.69724999       6.33093648       7.40746934       0.68587442       2.47099263       0.48671291
C       -1.20857759       6.35633122       7.55672567      -0.30453611       1.20273583       0.75922337
C        1.23546994       6.41344342       7.63861681       0.40891802      -0.74022343       0.64439636
C        3.72801627       6.43619769       7.53021681      -0.95028641      -0.67415790       0.03145719
C        6.11787401       6.37198435       7.50040726       1.95353832       3.61404211       0.06999597
C        8.58848120       6.36210351       7.55962952       0.11777607       2.40865186      -0.71176800
C       -4.91999886       8.50633064       7.45116414      -0.25288908      -0.97326925       0.15794107
C       -2.42561165       8.51199407       7.52981704      -2.17073458      -0.63283205      -0.02249072
C       -0.03002671       8.52184070       7.68017304      -1.56517216      -0.18379428      -0.29521021
C        2.42779932       8.50030775       7.54584203       0.64905108       0.31998459       0.93137209
C        4.92369425       8.56905209       7.59045039       1.30622916       0.57990049      -0.47255642
C        7.38356935       8.52247350       7.53550411       0.22758762       0.33621493      -0.18873954
C       -6.15204070      10.65456890       7.46353041      -0.60762958      -2.03163995      -0.38542765
C       -3.69635642      10.60173590       7.49068388      -0.28521273       0.91232073       0.24814616
C       -1.26051561      10.68888006       7.47829845       0.71638365      -1.41286747       0.56524983
C        1.20918971      10.58097971       7.60526541       0.32590044       1.72698403      -0.67346628
C        3.69764589      10.67810360       7.57525150      -0.55243365      -0.63820411       0.52602302
C        6.18575945      10.72524609       7.56651152       0.04200308      -2.90662441      -0.30484593
C        1.21118071       0.72974286       7.41311894       0.43570428      -0.49993533      -0.07257710
C        3.64200908       0.69236226       7.50047607      -0.23979522       1.15015857       0.15108702
C        6.10510747       0.65987554       7.40237099       1.55019806       2.00471716       0.10326450
C        8.59764438       0.69661677       7.47378939      -0.90496866       0.44405368      -0.31958735
C       11.06968125       0.66580447       7.60063198      -0.44834691       1.77505286      -0.40209148
C       13.51254262       0.73408729       7.35374772       1.13751312      -0.06116860       0.83308113
C        0.03084437       2.84143072       7.32231086       0.87485565       1.70539062       0.87630189
C        2.47600229       2.84258636       7.39786065       0.04391033       1.93053852       0.27824247
C        4.92310008       2.89093431       7.48430036      -0.15682907      -0.94714632      -0.62983903
C        7.33817582       2.84487429       7.37431118       2.10643103      -0.21192241       0.32951412
C        9.81534659       2.83872503       7.51975815       1.62502487      -0.71521508      -0.27745700
C       12.34218893       2.84154649       7.45603221      -1.12045256      -0.12716265       0.30647447
C       -1.19811023       4.93510448       7.57001465      -0.47039849       1.44148410      -1.12546724
C        1.25159761       4.99410258       7.56350012      -0.03418924       0.21362731      -0.66156053
C        3.69920517       5.00362616       7.44826446       1.44653221       0.56006726       0.27143110
C        6.18085621       5.00511331       7.43988427      -0.70476226      -1.80405490       0.31120838
C        8.62562721       4.98201903       7.50963534      -0.97018187      -1.82980116       0.23758587
C       11.09366963       4.94088023       7.43743402      -0.31987557      -0.31848538       0.39562490
C       -2.44781506       7.07899243       7.48485706       0.32940408      -0.60338752       0.02082285
C        0.01439492       7.11541373       7.70323848      -1.43907215      -1.04545965      -0.83428775
C        2.47120844       7.08530675       7.65747297       0.33667259       1.21377666      -1.10306419
C        4.95066652       7.17096076       7.50397965      -1.33591615      -1.92029113       0.42841366
C        7.34165302       7.11860416       7.55539888       1.00051831      -1.85345788      -0.17912182
C        9.83279264       7.06968307       7.45537074      -0.14539588      -0.16701860       0.27189622
C       -3.69466861       9.18802738       7.50460148       0.90146605       0.61566634      -0.43457660
C       -1.26564644       9.27416989       7.59124238       1.39331294      -1.23417708      -0.08765662
C        1.16662296       9.17327699       7.61176200       2.87913058       1.40108230       0.02452858
C        3.66863584       9.23828242       7.54169126      -0.04256461       0.72935203       0.31307398
C        6.20705367       9.27970333       7.57739742      -2.55746809       0.11602797       0.12284551
C        8.61543068       9.21523721       7.44988339       0.03661791       0.44800238       0.47350619
C       -4.95000522      11.30437683       7.49544207       1.65101153       1.96158999       0.12332913
C       -2.47760564      11.36372389       7.48625740      -1.21486527      -0.36704837      -0.14997682
C        0.00471822      11.32159993       7.48801525      -0.30368019       0.50105016       0.21424643
C        2.42799371      11.36453976       7.59180777       0.42367641      -1.44855849       0.06364380
C        4.95560016      11.37220644       7.63854246      -1.18602983       0.53262973      -0.82971659
C        7.40370413      11.37197300       7.40501531      -0.37928811       1.85788454       0.53284210
72
Lattice="14.76 0.0 0.0 -7.38 12.782534959858314 0.0 0.0 0.0 15.0" Properties=species:S:1:pos:R:3:REF_forces:R:3 REF_energy=-11167.277412708085 config_type=fd_force_conv_snapshot_029 split=validation degauss_Ry=0.0019000869 kgrid=8 lattice_temperature_K=300.0 pbc="T T T"
C        0.02096621       0.03979058       7.58595272       0.26319509      -1.56747458      -0.99891497
C        2.47649111       0.06309942       7.58786326      -0.61673411      -2.75217901      -0.40798702
C        4.93902310      -0.03210456       7.39743446      -0.09606464       0.52564147       1.31103481
C        7.45726219      -0.00575981       7.47437864      -3.32496449       0.47026325       0.10150792
C        9.84959157       0.02265084       7.33051955       1.07225980      -1.02177208      -0.31939658
C       12.32711630      -0.00922162       7.29814476       0.13285481       0.17239632       0.48610870
C       -1.25071674       2.11656203       7.46497458       0.46020433      -1.08966334      -0.37950100
C        1.19004211       2.15107787       7.52680092       0.81056830       0.68215789      -0.73794826
C        3.68179741       2.14366101       7.49172302      -0.20997351       0.21306115      -0.34551847
C        6.09992062       2.06371792       7.60603736       2.00329740       1.80326274      -0.12051969
C        8.56914388       2.11441749       7.52072713       2.25525574      -0.10058464      -0.09543884
C       11.04750995       2.09154108       7.38544442       0.91052302       1.34668239       0.29609390
C       -2.44395308       4.24354239       7.53234837      -1.83947519      -0.39717219      -0.04212753
C       -0.00233542       4.24875414       7.51008823      -0.55430567       2.34391689      -0.18593472
C        2.42832615       4.27056815       7.44758270       1.42077747       2.05294643       1.03063930
C        4.90866245       4.25960095       7.63064077      -0.62299244       0.39554288      -0.40164565
C        7.36842848       4.19592988       7.70185280      -0.89707589       0.49501783      -0.08219868
C        9.77560661       4.22623863       7.66610986       2.19762163      -0.00531858      -0.18379120
C       -3.69371773       6.34679725       7.68464727      -1.33305245       1.17142494       0.30459859
C       -1.22002117       6.41238291       7.44864398      -1.58167762      -0.57213010       0.32340570
C        1.23350366       6.41156897       7.30937912       0.06106036       0.87215522       1.23802037
C        3.69570685       6.45190689       7.52553796      -0.31451894      -0.80318460      -0.28153168
C        6.14254290       6.36408328       7.64258259       1.10619477       0.16946449      -0.32180801
C        8.56654688       6.36584486       7.79983590       0.70201452      -0.16822368      -0.94130452
C       -4.91810458       8.50151402       7.71418626       0.20103327       0.58582945      -0.19435689
C       -2.43431980       8.52859295       7.59918235      -1.23573517      -0.48988334      -0.15276312
C       -0.00653428       8.53598899       7.26812410       0.20234839      -0.13382181       0.37189670
C        2.44221428       8.55873508       7.26327463       0.71968109      -0.04289654      -0.70187311
C        4.94017677       8.51183465       7.39776528       0.14226608       1.16729960       0.09864937
C        7.38516374       8.50740379       7.59772901      -0.04287597       1.14293532      -0.24375266
C       -6.13713685      10.64790344       7.56687615      -0.68204888       0.67433505       0.38844535
C       -3.65675975      10.67898685       7.62096324      -1.52007013      -1.80437474       0.00792748
C       -1.16339551      10.66954260       7.50730276      -2.34618871      -1.38916652      -0.58459815
C        1.24735505      10.67589355       7.31052477      -0.32304754      -0.28454270      -0.64368853
C        3.66175742      10.64345994       7.22967853       2.98194976       0.55739408      -0.08593090
C        6.16487461      10.68059835       7.44016496       0.60169702      -0.00545845       0.13713364
C        1.24325253       0.74396789       7.54942069      -0.02759694       0.51416612       0.64751665
C        3.71204872       0.71637174       7.47497911      -0.05803520       0.30669918       0.05790690
C        6.15462260       0.68091889       7.53535934       0.74729936      -1.06304960      -0.81056573
C        8.63305393       0.71545090       7.42209486       0.23841814      -0.11482650       0.17355743
C       11.09972999       0.69652955       7.31879892      -1.12450693      -0.01521605      -0.18218991
C       13.55428082       0.66866336       7.42476173      -0.72233266       2.52550130       0.30916564
C       -0.05261955       2.85846317       7.49015948       1.47454438      -0.89974110       0.43812678
C        2.42435549       2.87915640       7.43622202       0.55825514      -1.75506716       0.77323408
C        4.92499843       2.83041402       7.55477650      -1.56412778       0.19336007       0.30683211
C        7.36511768       2.77436733       7.64183676      -1.55642450       0.94373370      -0.02814227
C        9.82552041       2.81885343       7.49601107      -1.06093847      -0.30075711       0.30409131
C       12.30182157       2.78993632       7.43312636      -1.13716216       1.82779518       0.31501284
C       -1.24328854       4.98712248       7.49014953       0.84886539      -0.68633002       0.10161308
C        1.23623010       5.01916455       7.52255411      -1.16289376      -1.69232633      -1.39889738
C        3.66863137       5.03036563       7.57715582       0.33329339      -1.77622219      -0.60629184
C        6.13932059       4.93359389       7.65743771       0.28642681       0.42318018       0.45347575
C        8.56968708       4.92691219       7.74960884      -0.11146941       0.47955728       0.05921045
C       11.03226550       4.93226322       7.65958320       1.15364807      -0.09396816      -0.42071604
C       -2.47721388       7.09699547       7.58484604       0.81465532      -0.21668692      -0.18888018
C       -0.01635772       7.11542030       7.32181435       1.16287988       0.22741510      -0.27490621
C        2.46368343       7.16941025       7.36278780      -0.44202586      -1.89971485      -0.13437871
C        4.96325858       7.10138427       7.53689116      -1.55203794       0.34223851      -0.14863059
C        7.37953858       7.09598076       7.62361284      -0.99250264      -0.63860520       1.02047110
C        9.78329602       7.07989686       7.75843245       2.26776004      -0.56643562       0.04637190
C       -3.66653816       9.23106855       7.68815852      -0.45709946       0.35399874      -0.21099270
C       -1.22397067       9.22610434       7.43721821       0.94257208       1.09120035       0.29413574
C        1.22397854       9.26635541       7.20347233      -0.26370957      -0.28503044       0.60972374
C        3.69717986       9.22157126       7.20746920       0.03620216       0.56729746       1.06570761
C        6.15665969       9.25881540       7.51257288       0.19376476      -1.00870162      -0.60226960
C        8.62623710       9.22873908       7.60161755      -0.48320567      -0.48368493       0.43370217
C       -4.93752289      11.36056102       7.63453140       2.11948401       1.74997072      -0.45295716
C       -2.42468356      11.33433130       7.49568687       0.18219583       1.15468449       0.15506220
C        0.02337445      11.38271993       7.42699881       1.35909156      -0.36558002      -0.09335547
C        2.47232637      11.37758062       7.23938227      -0.65319184       0.22999161       0.48487483
C        4.95615717      11.38251537       7.32224703      -2.15693444      -1.65644941      -0.37671804
C        7.39882467      11.41205077       7.52320092       0.10283718      -1.62627803       0.23716807
72
Lattice="14.76 0.0 0.0 -7.38 12.782534959858314 0.0 0.0 0.0 15.0" Properties=species:S:1:pos:R:3:REF_forces:R:3 REF_energy=-11166.764238389927 config_type=fd_force_conv_snapshot_034 split=train degauss_Ry=0.0019000869 kgrid=8 lattice_temperature_K=300.0 pbc="T T T"
C       -0.00334802      -0.00207140       7.49073708       1.71616765      -0.38788125       0.41582220
C        2.46129205       0.00060431       7.65355442      -2.34069092      -1.85726645       0.38392535
C        4.86888275       0.01914101       7.50770889       0.99986397      -0.35436024       0.66485411
C        7.36833577       0.02070044       7.41576435       0.99928470      -0.97787486      -0.08260440
C        9.88184540      -0.00474857       7.27521365      -0.91224489       0.48051707      -0.22704409
C       12.34563940       0.00581870       7.31553374      -1.62237741       0.43977228       0.09841026
C       -1.19210370       2.14083997       7.47185943      -1.27681343      -0.05856356       0.60275117
C        1.26226843       2.17781507       7.49338505      -2.33619561      -2.41943610       0.36773974
C        3.66858289       2.10949288       7.68750056      -2.09848529       0.81242309      -0.67746203
C        6.09789270       2.09990726       7.71249620       0.10990103       2.30824334       0.46412552
C        8.55700663       2.09772112       7.65616241       2.03036443       1.05578675      -0.66509605
C       11.05322497       2.12580861       7.47252998      -0.28996027       0.90487893       0.27695409
C       -2.47543168       4.22370326       7.65370752       1.97030834       1.13759514      -1.33922747
C        0.01039214       4.29564775       7.39682416      -0.22310285      -0.24477416      -0.37315371
C        2.46477529       4.33040290       7.43916215      -0.15786573      -2.00964571      -0.24620627
C        4.86692773       4.27603928       7.68796471       0.64578064      -0.45053132      -0.33389657
C        7.37124979       4.20567617       7.72870850      -0.52194911       2.77631910       0.73472358
C        9.86765359       4.26401819       7.80415988      -1.43554331      -0.48858545      -0.46915408
C       -3.70568955       6.37470680       7.67768517       0.37821982      -0.63866614       0.63977094
C       -1.25879086       6.37711839       7.30949891       0.14953922      -1.00408469       0.12380273
C        1.25467489       6.43714762       7.24521388      -1.65037081      -1.11087135      -0.30998917
C        3.67145293       6.44248531       7.50980939       1.24718198      -0.23065752      -0.61808137
C        6.09024929       6.36579689       7.56552497       2.14233391       0.73883375       0.46191848
C        8.59630663       6.44294634       7.71183049      -0.73389646      -2.98109024       0.42455290
C       -4.87689307       8.49302933       7.75861987      -0.03188605       0.04079621      -0.05628942
C       -2.46345722       8.47841041       7.47677441       0.55766482       0.60838291       0.05207949
C       -0.03596443       8.51767176       7.18847294       1.19381308      -0.35486494       0.57996451
C        2.48956518       8.51413536       7.16566101      -0.92112650       1.10543629       0.89262454
C        4.99403617       8.54534227       7.42236393      -2.93871126      -0.35697222      -0.11825583
C        7.40740658       8.51071654       7.56288319       0.35065451       0.78749342       0.11439558
C       -6.12510750      10.61917743       7.73623929       0.54413490       1.04946877      -0.87522614
C       -3.66936199      10.62624074       7.57457081      -0.41443380       0.25648682       0.16944701
C       -1.24456186      10.67497761       7.37468874       0.38578323      -0.61035958      -0.69159435
C        1.24247035      10.63844438       7.19853981      -0.41708513       0.04212984       0.40814591
C        3.69949893      10.65702547       7.20385722       1.31070520      -0.76805099       0.18545727
C        6.18573715      10.66011076       7.44815446      -0.73749189       0.36153439      -0.81587917
C        1.22809241       0.70360982       7.58324928       0.09639143       1.22300024      -0.31877283
C        3.62114747       0.68828552       7.67752902       3.49993680       1.66516931      -0.60616842
C        6.14478073       0.72133343       7.59675617      -1.51364314      -1.26799917      -0.76664151
C        8.62977627       0.71676695       7.40326604      -0.81364514      -1.08230768       0.48407059
C       11.09316439       0.75104118       7.28206087       0.09165880      -2.36250648       0.45642223
C       13.55118065       0.69046464       7.48080637       0.04770862       1.85092920      -0.89233143
C        0.02497877       2.88924401       7.48732957      -0.33038033      -1.14929725      -0.41878822
C        2.44083167       2.84734770       7.49883659       2.42607572       2.10168992       0.72056709
C        4.83559105       2.84459533       7.72791633       2.45027365      -0.46301120      -0.04434484
C        7.34337975       2.81811655       7.76812809      -0.50563495      -1.15439010      -0.52078723
C        9.80537931       2.82877079       7.62167669       0.44370376       0.42550549       0.65974816
C       12.28060045       2.83025281       7.55618719       1.31014701      -0.79206895      -0.19345957
C       -1.24325032       4.94347873       7.36990900      -0.26883635       0.72670354       1.19280469
C        1.23727104       5.01286169       7.32603852       0.17784243       0.33882923       0.24166133
C        3.69535625       5.03367631       7.48859924      -1.01829878      -0.81347673       0.94660048
C        6.10709717       4.95349737       7.70322082       0.91378292      -0.43209625      -0.40970375
C        8.59606411       4.97198275       7.80375495       0.51383754       0.16674041      -0.60616277
C       11.11626604       4.96692424       7.74107182      -2.40549146      -0.51968268       0.04517762
C       -2.49965432       7.05151722       7.50401207       1.52784591       1.55591876      -0.50204337
C       -0.02400839       7.08787651       7.17096337       0.18279284       0.60520169       0.47162260
C        2.47851767       7.12233717       7.28367356      -0.51894709       0.14043031       0.06361295
C        4.91830212       7.13570793       7.56963732      -0.29570772      -0.35011329      -0.77738358
C        7.35109014       7.10798021       7.52800187       0.23974843      -0.68480176       1.00528514
C        9.84016476       7.08263266       7.81426272       0.06317895       0.46982051      -1.00001103
C       -3.66973648       9.19264331       7.60875944       0.52308297       0.78534552       0.18350529
C       -1.22701324       9.22811973       7.35949279      -1.53806914       0.30720749      -0.30049228
C        1.21447627       9.20962430       7.21591153       0.93477803       0.51981510      -1.06956837
C        3.70909782       9.22756760       7.25917190       1.11568522       0.38715440      -0.13095091
C        6.18662905       9.24546605       7.46125734       1.10424381       0.22699678       0.29203104
C        8.68730546       9.20446091       7.72232493      -2.82943629       0.13449029      -0.28296482
C       -4.87746190      11.33954809       7.74807516      -1.33739428       0.12278817      -0.88629757
C       -2.48992202      11.39264103       7.38235408       0.92174563      -0.91887550       1.10818480
C        0.00628905      11.36394533       7.29630583      -0.42265542       0.55396449       0.17896498
C        2.49109084      11.33827727       7.19257594      -1.16750118       1.37255925      -0.00692295
C        4.93890675      11.37756028       7.28511366       0.49195077      -0.66878404       0.32478381
C        7.41155190      11.35896498       7.48840854       0.21775958      -0.62241034       1.19644743
72
Lattice="14.76 0.0 0.0 -7.38 12.782534959858314 0.0 0.0 0.0 15.0" Properties=species:S:1:pos:R:3:REF_forces:R:3 REF_energy=-11166.854554877773 config_type=fd_force_conv_snapshot_038 split=train degauss_Ry=0.0019000869 kgrid=8 lattice_temperature_K=300.0 pbc="T T T"
C        0.02100747      -0.04142323       7.47099757      -1.12245417       2.90221368       0.65963426
C        2.49331293      -0.05751339       7.63679258      -0.11522373       4.67759358      -0.77299060
C        4.91253208      -0.00121606       7.50155250       0.73336810      -0.35699767       0.65902979
C        7.39486662      -0.02510639       7.46803855       0.08355982       0.85225462       0.29565475
C        9.88077277       0.00229486       7.57012792      -1.99111320       0.16519621      -0.33462316
C       12.25128906      -0.03229731       7.56912774       2.59325296       1.20013028      -0.25440629
C       -1.26982070       2.10986429       7.54044182       0.70273829       0.63239445      -0.15162258
C        1.22467036       2.13879306       7.52599795      -0.02342352      -0.13584295       0.36639814
C        3.66473985       2.12725361       7.62095941       1.42241114       0.54849704      -0.32805759
C        6.13757888       2.12761183       7.55767753      -0.48893126      -2.24249227      -0.45398611
C        8.59341220       2.10907821       7.55997163      -0.90801156       0.17832529      -0.47854298
C       11.00417206       2.12683307       7.54386594       2.45725034      -0.16753822      -0.55131497
C       -2.50604430       4.26944796       7.41227287       0.67222289      -0.71712978      -0.08264040
C       -0.07111069       4.29188402       7.59332562       0.74421969      -2.15436128      -1.02403722
C        2.40682858       4.22611100       7.48057872      -0.49535851       1.58578418      -0.09024392
C        4.87822419       4.26052960       7.45080608       0.14052879      -0.98905993       0.10551807
C        7.36894063       4.22787385       7.53337209       0.34727299       0.44080407      -0.31101709
C        9.84736740       4.24641795       7.42229399      -1.40544444       0.22942545       0.13828267
C       -3.69089319       6.39294696       7.38902306       0.39373180       0.84488635      -0.44732413
C       -1.21012390       6.43353232       7.45159668      -0.38834688       0.07212973       0.04541802
C        1.25928844       6.41395939       7.50212178      -1.16331208      -0.61272217      -0.18328263
C        3.71442973       6.38487382       7.41620279      -1.45144276      -0.19275869       0.18833331
C        6.13052044       6.36093051       7.55202568       0.52964031       1.20162357      -0.15006886
C        8.59075419       6.36724222       7.48578607       0.44343970       1.71156872       0.75971625
C       -4.88827141       8.55065696       7.48192609      -1.93937540      -1.43893177       0.18509809
C       -2.44442982       8.56075767       7.46555268       0.44186645      -0.09843751       0.02420437
C        0.00483300       8.58074567       7.54249932       1.35650863      -0.60271235      -0.45048273
C        2.47032074       8.50958000       7.27556952       0.90458017       0.30968783       1.67072083
C        4.91901500       8.52728059       7.53056522       0.52731320      -0.41469349      -0.60504794
C        7.35632113       8.55973772       7.58495755       0.78142330      -1.99152329      -0.07434113
C       -6.10068121      10.66190002       7.56016094      -2.33841318      -0.77657960      -0.66947258
C       -3.66596464      10.64042490       7.43636685       0.78035449       1.43287142       0.81380094
C       -1.18496101      10.68695585       7.49759239       0.04173080      -0.48735852       0.10807761
C        1.30977583      10.64135256       7.41966387      -1.36624334       1.10924384       0.40431137
C        3.76899683      10.63009867       7.46961909      -3.68479038       0.77922835       0.04616467
C        6.14783095      10.66812936       7.52864879       0.88035446      -1.25003102      -0.26205198
C        1.25825790       0.74622677       7.53419224      -0.65270616      -3.92856798       0.24440650
C        3.73009325       0.74652411       7.63814905      -2.26232910      -2.98156358      -0.38795427
C        6.13906931       0.65396402       7.49838947       1.00479637       2.22866025       0.17154992
C        8.60545720       0.70074526       7.54953546       1.09418000      -0.15207278      -0.06371245
C       11.08900260       0.71664279       7.53882663      -1.90512008      -0.29647005       0.63265619
C       13.48149307       0.69947827       7.55098283       1.73927673      -1.37687202      -0.43560298
C        0.00184743       2.82755617       7.52714200      -2.30393443       0.99807808       0.35600086
C        2.44941194       2.82448745       7.56499223      -0.24447720       0.69709420      -0.13055291
C        4.91660847       2.81552078       7.54685204      -1.18597893       1.61601573      -0.05220856
C        7.34227259       2.81102305       7.51132906       1.60950518       0.61406505       0.52397565
C        9.80181037       2.82130514       7.49360860       0.05975681       0.79951847       0.23173430
C       12.24852749       2.82540497       7.49554559       0.34780624       0.98056012       0.12823146
C       -1.28114721       4.98751165       7.46999059       0.16066387       0.86567989       0.27636454
C        1.14712363       4.96142511       7.50351992       2.36865553       1.16573200       0.42312465
C        3.61305055       4.97457011       7.39141069       2.29062229      -1.05554969       0.70224078
C        6.14186500       4.93201236       7.47887051      -0.76714648       0.95452488       0.38394721
C        8.62042239       4.96462588       7.51714018      -1.05928782      -1.02417041      -0.50091260
C       11.04214219       4.97615943       7.31871838       0.64997796      -0.07032353       0.82109748
C       -2.44390750       7.15566268       7.37906807      -0.25785157      -1.48046871       0.64289020
C        0.03689415       7.17721753       7.52697143      -0.68921737      -2.11344063      -0.25494802
C        2.50378336       7.08909242       7.43253621      -1.26420680       0.81335357      -0.76105425
C        4.90261629       7.10698584       7.52018179       1.57120294      -0.79284363      -0.21435981
C        7.35812173       7.11401068       7.59355515       0.13876887      -0.84289863      -0.57341540
C        9.84746552       7.09105637       7.47150041      -0.42456832       1.08654897      -0.32111921
C       -3.66845172       9.26415838       7.43381562      -0.40207425      -1.36720776       0.11901174
C       -1.20823799       9.26866924       7.56980158      -0.61076993       0.34997188      -0.72996061
C        1.26786143       9.24158315       7.40651021      -0.27431305      -0.44210942      -0.15226819
C        3.71966330       9.23701661       7.38772656      -0.82686781      -0.79703864      -0.03485387
C        6.15233069       9.24264094       7.53090263      -1.09587847       0.51568359       0.55293990
C        8.58269444       9.24053528       7.56149783       2.73586254       0.38320647      -0.23124913
C       -4.87903697      11.35787565       7.52035589      -0.41049822      -0.95162184       0.23668727
C       -2.43481337      11.35642757       7.51022789      -0.35555503       0.37500902      -0.67264095
C        0.07784146      11.36881977       7.44331476      -1.30194416      -1.14514338       0.21568265
C        2.48696414      11.38189425       7.51584443       2.35173793      -1.31408157      -0.59575623
C        4.93389199      11.34210216       7.53340534       0.25694422       0.94698949       0.05924979
C        7.37749967      11.34264691       7.48551031       1.81908454       0.49706392       0.59597091
72
Lattice="14.76 0.0 0.0 -7.38 12.782534959858314 0.0 0.0 0.0 15.0" Properties=species:S:1:pos:R:3:REF_forces:R:3 REF_energy=-11166.974303198409 config_type=fd_force_conv_snapshot_042 split=train degauss_Ry=0.0019000869 kgrid=8 lattice_temperature_K=300.0 pbc="T T T"
C       -0.02850012       0.01226967       7.55309857       0.02941085      -0.23944067      -0.35909775
C        2.43766549       0.01643133       7.46780040       1.77120649      -0.25281683      -0.10234765
C        4.95587838       0.00079455       7.41762301      -0.15160664       0.83357736      -0.01399554
C        7.41486760      -0.01221081       7.53726475       0.05691574       2.00983571      -0.33308204
C        9.87520636       0.02432283       7.63507207      -0.43756911      -1.90763616      -0.02945841
C       12.30121211      -0.01919589       7.65871916       0.04945311       0.50551796      -0.16127810
C       -1.26889327       2.14862641       7.59884870       0.46664957       0.32023810      -1.53661775
C        1.19776249       2.11855911       7.45606133       0.66659989       1.24909539      -0.36215968
C        3.71627929       2.10932434       7.40886501       0.01483809       0.21130946      -0.75038083
C        6.15885882       2.11000360       7.38909491       0.91348596       0.54128021      -0.50633660
C        8.66164869       2.14991552       7.40016847      -1.21380212      -2.05244686      -0.20846967
C       11.09142404       2.11927938       7.38346398       0.97502043       0.12859887       0.49368009
C       -2.47768776       4.32822649       7.52444051      -0.52370029      -2.46288260      -0.36681029
C       -0.07287277       4.26962832       7.59374882       3.33609865       1.28389708      -0.10705534
C        2.47223679       4.22989534       7.50305705      -0.51395401      -0.46631944       0.10488584
C        4.91748091       4.24258287       7.30363802       0.54964581       0.03720206       0.49793449
C        7.41834671       4.28491613       7.32972319      -1.80750121      -2.44541375      -0.75046670
C        9.83633483       4.25476018       7.34051252       1.10984522      -0.24056681       0.13277897
C       -3.72111952       6.40539458       7.43724092      -0.36050337      -0.21168895       0.03631040
C       -1.28213413       6.40029072       7.57579398       0.90850110       0.27034096      -0.40484102
C        1.23911339       6.39687655       7.69612705      -0.06918556      -2.01478791      -0.45725476
C        3.66473634       6.35147087       7.65126729       2.19685673      -0.44467383      -0.60600310
C        6.15751004       6.39761818       7.31836741      -1.17544974      -2.04905661      -0.25948499
C        8.60571918       6.42456944       7.27905999       0.35510946      -1.46960889       0.03538275
C       -4.87412492       8.58088950       7.33114336      -0.71772653      -1.00348357       0.19617826
C       -2.45702615       8.54221577       7.48156357      -0.28282109       0.11668129      -0.10396693
C        0.02039960       8.47406651       7.64816863      -1.83690846       0.86041582       0.29216242
C        2.44744378       8.50550595       7.75629987      -0.36591040      -0.37504579       0.13669219
C        4.88504630       8.48016878       7.59531713       1.30964616      -0.06481160      -0.10530442
C        7.40713318       8.51818291       7.28519715      -0.95319279       0.58143364       0.34348473
C       -6.16941116      10.70216664       7.42697350       1.27023886      -1.54593825      -0.13053748
C       -3.74151416      10.69622102       7.40523697       4.59132664      -0.36347814       0.07976822
C       -1.23696604      10.65424127       7.56451018       0.53546926       0.53183089       0.62128780
C        1.24269173      10.66846542       7.71043646      -0.88724348      -0.81195618       0.64893744
C        3.67146172      10.63390940       7.85348789       0.86546958      -0.70212585      -0.43143985
C        6.12865811      10.62892431       7.62331146       0.34401849       0.54569248      -0.54467124
C        1.20056877       0.70959280       7.47175507       0.15155239       0.14377583       0.27505584
C        3.72291980       0.70407476       7.44372558      -1.37771303      -0.16065821      -0.16470050
C        6.19573923       0.70856261       7.39331133      -0.74423615      -0.74333601       0.70072974
C        8.65243353       0.69971953       7.49272920      -0.09838403       1.10908083       0.33570508
C       11.10376765       0.69857287       7.56872699      -0.67157832       0.82313842      -0.11189878
C       13.50176882       0.71349993       7.54154142       0.54344199       0.36620788       0.90623673
C       -0.04132249       2.88570904       7.50782395       0.36081885      -2.26364473       0.69859547
C        2.47599108       2.78557559       7.35773569      -1.29908021       1.34296714       1.19029015
C        4.94650860       2.83351609       7.31256415      -0.88583863      -0.53068032       0.54875158
C        7.39263407       2.80032671       7.39367783       1.24359606       2.53461278      -0.28910307
C        9.89931394       2.81612463       7.31413780      -2.05757467       1.43109093       0.44114500
C       12.28658789       2.89079403       7.44913966       0.29105633      -0.79978432       0.84478917
C       -1.26432022       5.00183582       7.58395679      -0.19071800      -0.00469792       0.13565654
C        1.25628865       4.96894118       7.64201175      -1.80411815      -0.75281515      -0.48724642
C        3.69679406       4.93554262       7.52875889      -0.42006144       0.17178003      -0.58954984
C        6.14830267       4.93547593       7.24271896       0.91095599       1.80985068       0.82648548
C        8.63097624       4.97901038       7.28112145      -0.15310019       0.60261542       0.37154523
C       11.04708230       4.97358359       7.48210864      -0.35308188       1.26703270      -0.71597510
C       -2.50414140       7.11483915       7.43650566       0.69942388       0.37906777       0.87852590
C       -0.01700462       7.04031789       7.60427499       0.29273629       2.22084306       0.67085712
C        2.48339534       7.07253411       7.70130856      -1.75990160       1.20994212       0.37188359
C        4.91917495       7.04993035       7.52202302      -0.60536495       1.14515598       0.01791159
C        7.36918249       7.08246768       7.23586339       0.65264728       1.88040072       0.36659252
C        9.81735065       7.12511916       7.38608155       0.93442862       1.15974236      -0.70473115
C       -3.65173717       9.30874130       7.37719478      -1.11682371      -2.15550259       0.23471755
C       -1.23456888       9.21341527       7.64979493       1.01952519       0.52876151      -1.06790333
C        1.20122153       9.23060030       7.73150448       1.45108357      -0.42712580      -0.09451015
C        3.66770590       9.17756175       7.81105532       0.72255969       1.68865685      -0.47831441
C        6.13140929       9.21150369       7.42804121       0.35896482      -0.09048201       0.94907902
C        8.65334982       9.27101998       7.33035188      -1.74613514      -0.21042962      -0.07834177
C       -4.89889631      11.36418243       7.44103363      -3.95017091       2.53579626      -0.07883157
C       -2.46593571      11.40252678       7.44412489       0.34471629      -2.07283468       0.21913667
C        0.02401705      11.40545973       7.67855039      -1.17307327      -2.82868219      -0.85792776
C        2.47057478      11.34050038       7.77468813      -0.07300493       1.64279222      -0.18845621
C        4.89733586      11.36403374       7.77015616       0.73055968      -1.55147512      -0.24889950
C        7.37065430      11.37660215       7.52919942      -1.24683848      -0.30393113       0.18427688
72
Lattice="14.76 0.0 0.0 -7.38 12.782534959858314 0.0 0.0 0.0 15.0" Properties=species:S:1:pos:R:3:REF_forces:R:3 REF_energy=-11166.545898871726 config_type=fd_force_conv_snapshot_046 split=train degauss_Ry=0.0019000869 kgrid=8 lattice_temperature_K=300.0 pbc="T T T"
C       -0.01195019       0.02812234       7.46688570       1.48806941      -1.09902627      -1.08056627
C        2.44071107       0.01856719       7.31121345       1.92248480      -1.09584582      -0.74714355
C        4.91584642       0.01198308       7.28270595      -0.52720496      -0.48427962       0.20481305
C        7.31736361       0.02541096       7.52802090       2.20434455      -1.22036023       1.00862603
C        9.80897083      -0.04593447       7.58728045      -0.13776639       2.57908721       0.64650363
C       12.29758808      -0.00301157       7.62728497      -1.44061867      -0.41785054      -0.76185926
C       -1.18852131       2.15648234       7.68572219      -1.88079950      -1.95426337      -1.35411236
C        1.25691057       2.11163801       7.41491974       0.71204825       0.94907517      -0.44109409
C        3.70379645       2.14151679       7.33285181       0.58237543       0.06367311       0.00558649
C        6.17522212       2.14276859       7.45188847      -0.42065125       0.98889178      -1.49839470
C        8.66264455       2.16415843       7.50378326      -2.97143704      -0.94188868      -0.75846978
C       11.07317507       2.15444042       7.57316082      -0.90999414      -1.59582845      -0.33512170
C       -2.46301373       4.24323761       7.64149737       0.46416948       1.45754578      -0.79869597
C        0.03478478       4.24146427       7.63244421      -0.79350903       0.58544225      -0.49711714
C        2.46289435       4.28617576       7.47860660       1.89876894      -1.81306456       0.71301756
C        4.92127592       4.23967540       7.40605161       1.39845463       0.15296547      -0.49289385
C        7.43206365       4.27906960       7.23557627      -1.63722964      -0.43400093      -0.13540741
C        9.90360053       4.26969564       7.31450054      -1.83460963      -0.08285560       0.15128448
C       -3.69059897       6.42847294       7.38023161       1.26863938      -0.09966624       0.56661200
C       -1.26411420       6.37745198       7.59104063       0.95855071       0.07653763       0.41326447
C        1.22982321       6.37992647       7.66537589      -0.53467993      -0.28856442       0.27514943
C        3.69739991       6.35863232       7.66168687       0.54716546      -0.92193203      -0.18963223
C        6.18888201       6.38410802       7.35133146      -1.35870127      -1.37164780      -0.16695715
C        8.65378712       6.42774926       7.26966799       0.25524112      -1.28078835      -0.47441944
C       -4.94272259       8.56168591       7.40162867       0.52397385       0.29762807      -0.18384339
C       -2.50203225       8.55214487       7.56522346       0.75876005      -0.51890055       0.44175152
C       -0.05411768       8.48998428       7.79845817       1.22787608       0.81852020      -0.01187953
C        2.47885100       8.49573398       7.78259461      -0.87235499      -0.66681663      -0.77364160
C        4.90893926       8.48658998       7.57160506      -1.55070225      -0.58961746      -0.18675876
C        7.28127014       8.51743404       7.42815445       4.15446099      -0.00969743      -0.41190332
C       -6.17354143      10.66005054       7.36630906       0.54161317       0.42590915       0.41397126
C       -3.69331850      10.66555906       7.26222818      -1.39643529       0.45312711       0.91312420
C       -1.27517762      10.65992333       7.66540178      -0.07310855      -0.33902489      -0.42787990
C        1.22156057      10.61963793       7.72761739       0.22815224       0.78771350       0.99262888
C        3.70485286      10.60504862       7.65901911      -0.09097643       0.84852061      -0.19509145
C        6.17818300      10.66737472       7.49708973      -1.73854268      -1.04349970       0.64696566
C        1.25590546       0.70316375       7.26093610      -2.37707409       1.34634660       1.89392755
C        3.70165337       0.72985348       7.28997330      -0.96939151      -0.63520389      -0.11579374
C        6.12378580       0.72470078       7.39368545       0.27126758       0.25274818       0.41438367
C        8.57238722       0.75239649       7.58250327       0.67438699      -2.34870120      -0.29815001
C       11.01160957       0.72639680       7.56305270       2.25130395      -1.12580508       0.73306728
C       13.52755594       0.68224883       7.52200317      -0.35310759       2.69479611       1.33264056
C        0.03480187       2.82861184       7.56690328       0.02636049       0.06593080       0.41248234
C        2.50168582       2.85686292       7.40535000      -2.01886774      -0.33996232      -0.24174695
C        4.93205433       2.85503942       7.33886402       0.65885316      -1.68819636       0.61935073
C        7.41892632       2.87691458       7.36801624      -0.14501150      -1.11120096       0.62944771
C        9.84287476       2.84062815       7.42859951       2.57775769       1.68816860       0.35066582
C       12.29206561       2.83775018       7.66103426       1.51505391       0.01879374       0.15306934
C       -1.21827244       4.95245753       7.61725649      -0.41416332      -0.36805547       0.34775970
C        1.25148166       4.95578188       7.57449350      -0.72090005       1.03751417       0.18665129
C        3.74298362       4.92129682       7.57731712      -2.95706431       2.35979139      -0.56301529
C        6.13256720       4.93480848       7.24122757       2.36601526       1.95360491       0.96719733
C        8.66319558       4.96881503       7.20730425       0.13761264       1.61105864       0.38045128
C       11.09113963       5.00409463       7.43143769       0.50046240      -0.63223710       0.09981588
C       -2.45443809       7.13810682       7.54418901      -1.33097269      -1.03714522      -0.47189565
C       -0.03447167       7.07060927       7.68895624       0.67492358       0.67366014       0.15921094
C        2.46089078       7.05976952       7.74873757       0.28507415       0.71385908      -0.21081400
C        4.92178764       7.05226261       7.55331754       1.07938356       1.03741390      -0.19254040
C        7.42651916       7.10320764       7.28837355      -2.30124609       0.37967840       0.75174968
C        9.86947338       7.15366754       7.33475856      -0.96885826      -0.70950826       0.06099094
C       -3.69946329       9.27553913       7.43138421      -1.10003209      -0.76275323      -0.44976256
C       -1.29693995       9.23396228       7.78010003       1.55584343       0.18791165      -0.90355816
C        1.25177498       9.19969168       7.79119320      -2.22852449      -0.07355900       0.14574195
C        3.67857274       9.19694575       7.60026580       0.51917849      -0.13618568       1.18164405
C        6.07687280       9.20566986       7.51217250       2.29151549       1.72021405      -0.36456854
C        8.58391551       9.25329888       7.40975183      -1.66745656      -0.79316013      -0.23893802
C       -4.96015471      11.37395906       7.30988223       1.55103572      -0.05618555      -0.45161993
C       -2.48134102      11.35527797       7.31009124       1.14181457       1.06732174       0.99129345
C       -0.04404200      11.34622077       7.75196613       1.00701420       1.20887254      -1.49121052
C        2.49470646      11.34183721       7.73132281      -2.02970160      -0.97667133      -0.87903163
C        4.92802653      11.32915650       7.59677606       0.28325844       1.36130091      -0.03618339
C        7.38860839      11.39714873       7.46774576      -0.75157048      -0.79967273      -0.37312955
72
Lattice="14.76 0.0 0.0 -7.38 12.782534959858314 0.0 0.0 0.0 15.0" Properties=species:S:1:pos:R:3:REF_forces:R:3 REF_energy=-11166.945826349138 config_type=fd_force_conv_snapshot_050 split=train degauss_Ry=0.0019000869 kgrid=8 lattice_temperature_K=300.0 pbc="T T T"
C        0.03213741      -0.04302242       7.40538986      -0.68264229       1.63961023       0.21522010
C        2.50199682       0.00789026       7.62687589      -2.26291660      -0.49609950      -0.98900620
C        4.90476993      -0.00916979       7.48204179      -0.39331888       0.52769321      -0.37777810
C        7.35390372       0.00344383       7.34268523       0.26700238       0.09531671       0.76177236
C        9.87829516      -0.01191113       7.44320321      -2.28970286      -1.09165981       1.10849025
C       12.28086764       0.00635229       7.56323508       0.54111591      -1.30860743      -0.70427838
C       -1.26924123       2.11996820       7.49311494       2.18223589      -0.03508219      -1.65811368
C        1.24452389       2.15950297       7.51626290       0.06981754      -1.88090183      -0.15120709
C        3.69975456       2.15514094       7.54623983      -0.06039933      -0.15181593      -0.26808636
C        6.16080221       2.14459231       7.44441868      -0.50311347      -0.20826527      -0.45421031
C        8.62324412       2.09751438       7.55919188       0.30970917       1.09230155      -0.60351145
C       11.06354351       2.13171546       7.49876321       0.00672472      -0.38375129      -0.31992494
C       -2.41916448       4.23932625       7.50725095      -1.21226666       1.47278548       0.39719070
C        0.05585690       4.30084849       7.57727822       0.42163084      -1.83030483      -0.46367326
C        2.51163786       4.28783402       7.44561799      -0.24485978       0.18314353       0.73485728
C        4.97015323       4.29136429       7.40121887      -1.16828742      -0.06371836       0.30878615
C        7.33498698       4.22513780       7.59899640       3.29068654       1.93961786      -1.22792699
C        9.84314820       4.25424082       7.57318734      -0.60878118      -0.28198522      -0.20203086
C       -3.69343516       6.34262502       7.49561728       0.74834734       1.81789155       0.48952570
C       -1.20458711       6.37634452       7.53594375      -1.01030779       1.63070033       0.49774680
C        1.24318712       6.39319360       7.52687969      -0.17186668       2.47438803       0.13593731
C        3.71054345       6.39789334       7.47337679      -0.72094324       1.60642346      -0.24894449
C        6.12898616       6.43899480       7.49093948       2.26723219      -0.66864366       0.01897886
C        8.64080977       6.37547506       7.62966907      -2.20697839       0.50644819      -0.52555971
C       -4.93732891       8.48462070       7.50626358       0.15479481       0.53907009       0.09152922
C       -2.44336461       8.49669689       7.49650964      -0.94019843       0.34409742       0.22414312
C        0.01785800       8.53492416       7.54248518      -1.01142442      -0.41316882      -0.64431434
C        2.45859407       8.51222397       7.50061622      -1.11694892       0.24161376      -0.10762278
C        4.87602089       8.56023829       7.51742573       1.77864854      -0.18670991      -0.50590388
C        7.37184058       8.54396334       7.48604893      -1.12712817      -0.16909786       0.32679055
C       -6.14707702      10.63480351       7.47521924      -0.21104412       0.85932053      -0.20329276
C       -3.71298523      10.62776532       7.42228650      -0.35520382      -0.18106968       0.89636858
C       -1.27639969      10.63576771       7.40073647       0.18918640      -0.12988622       0.57432968
C        1.19750010      10.66761396       7.44561346      -1.02741565      -1.50333585      -0.18103472
C        3.64689161      10.61792845       7.60708806      -0.16653087       1.51344388       0.04791791
C        6.11715271      10.65780683       7.52801376       0.35299807       0.64786349      -0.20015318
C        1.26739864       0.70225990       7.52402864      -0.99468474       0.55409998      -0.02377371
C        3.67948448       0.71543295       7.55020945       1.85291512       0.98202951       0.38654376
C        6.10983354       0.72737043       7.38829002       1.54141157      -0.56050897       0.32663166
C        8.64161795       0.69230604       7.48820102      -1.52729236      -0.37087623      -0.92869095
C       11.06133063       0.69749510       7.48949284       0.88249336       1.12656330       0.26961102
C       13.51832795       0.69078027       7.38015439       0.70036593      -0.05764953       1.47121377
C        0.01835272       2.82312691       7.43508614      -1.28776993       1.94318398       1.30410029
C        2.46689299       2.87147903       7.55000800       0.77773274      -0.08595815      -0.51549898
C        4.93925685       2.87436184       7.45910925      -0.11723408      -0.44822119       0.02317335
C        7.40224834       2.83794849       7.44035104      -0.77491404      -1.19430184       1.31646267
C        9.86018422       2.82889767       7.58147299      -1.20199099       0.01712920      -0.25581062
C       12.27739360       2.85419985       7.41786555       1.06782774      -1.11934390       1.18851995
C       -1.18077981       4.96726015       7.64346557      -0.61432139      -0.13676675      -1.31686170
C        1.32020868       5.03537928       7.54175065      -2.55042352      -3.24121903      -0.28539117
C        3.72504728       5.00389265       7.41524903       0.73567772      -0.84965678       0.01786171
C        6.18751288       4.99353906       7.47044675      -1.87111158       0.45931215       0.27950360
C        8.59787456       4.96728929       7.57261920       0.08554497      -0.91446709       0.85549858
C       11.06398354       4.95096762       7.52130215       1.52709361      -0.70934165      -0.03422164
C       -2.47762964       7.10798594       7.51136889       1.53075717      -2.53975704      -0.11936398
C        0.00691467       7.13175262       7.51439478      -0.04491049      -1.86103337       0.45946719
C        2.44341673       7.11193535       7.53875966       1.94719130      -0.63193216      -0.52397874
C        4.93219582       7.15720818       7.42336777      -1.50703335      -1.06830648       0.75545259
C        7.37413825       7.13469785       7.58360378       0.58975733      -1.00231397      -0.46332359
C        9.86097678       7.06445099       7.56514499      -0.81992403       0.42584205      -0.16019592
C       -3.69793961       9.17055295       7.46536318      -0.33980445       1.94713550      -0.21202834
C       -1.22920560       9.21588748       7.54301924      -0.03932759       0.63926675      -0.81546625
C        1.23062528       9.21202275       7.44003773       0.10489561       1.86368470       0.81640856
C        3.64828720       9.23640530       7.52803575       0.87762704      -0.58258755       0.26100965
C        6.13087731       9.26814967       7.48120020      -0.65918637      -1.27025480       0.42918140
C        8.57318305       9.24073332       7.49165303       2.41352668      -1.15021822      -0.02368269
C       -4.93149802      11.37758202       7.51898967       0.88196577      -1.44462419      -0.13889099
C       -2.49731724      11.35475484       7.45078079       0.21623929      -0.37652803      -0.41100858
C       -0.07532503      11.35987986       7.36243786       2.00296907       0.32820955       0.13182123
C        2.41445947      11.32627248       7.54125407       1.33758942       1.67901135      -0.62269213
C        4.86492222      11.35191100       7.66079500       1.11957093       0.50142837      -1.07808207
C        7.38731301      11.32530442       7.40498619      -0.93107436       1.00134492       0.84348947
72
Lattice="14.76 0.0 0.0 -7.38 12.782534959858314 0.0 0.0 0.0 15.0" Properties=species:S:1:pos:R:3:REF_forces:R:3 REF_energy=-11166.49186005662 config_type=fd_force_conv_snapshot_055 split=train degauss_Ry=0.0019000869 kgrid=8 lattice_temperature_K=300.0 pbc="T T T"
C        0.02630042       0.06071887       7.43540979      -0.87288927      -2.64471153       1.00538001
C        2.50391421      -0.01160472       7.67324184      -2.34371223      -0.32366409      -0.95679285
C        4.89631084       0.03036465       7.65956653       2.04070386      -1.72817727      -0.84144596
C        7.35320744       0.00145621       7.52158580      -0.97076216      -1.87392309      -0.45104194
C        9.75705458      -0.00629839       7.44548687       3.14772035      -1.50134118      -0.54669521
C       12.32792015       0.02757984       7.41380554      -0.57795957      -1.29232849       0.03396479
C       -1.22125438       2.11155607       7.46674552       0.33799465       2.08070509      -0.17161162
C        1.26319945       2.12538970       7.50486617      -1.21991492      -0.01928687       0.26525557
C        3.68828707       2.15229264       7.58353037      -0.28322758      -0.62375400       0.65115167
C        6.13045911       2.19434294       7.65592620      -0.06692607      -2.56778850       0.10690621
C        8.59344734       2.12599574       7.60068624      -0.05767293       0.07064440      -0.35097409
C       11.07134055       2.10849888       7.37057616       0.52095924      -0.06227032       0.47644033
C       -2.42488190       4.25975497       7.37639915       0.29294250      -0.73915822       0.93620165
C        0.04602978       4.24596617       7.49962083      -1.71686905      -0.94948243      -0.08253858
C        2.49978401       4.26023591       7.53935164      -1.67913091       0.30250751      -0.30759496
C        4.95817431       4.27708331       7.58683505      -0.69541733       0.41921014       1.36990922
C        7.44350069       4.31517508       7.71195535      -1.28050116      -1.22102203       0.27338026
C        9.86199815       4.23278706       7.46294135       0.73252375       1.60702484       0.90055845
C       -3.72402971       6.39488097       7.53046072       1.15975676      -1.11992780      -1.30723909
C       -1.20612688       6.39330364       7.39623159      -1.79753947      -1.83601268      -0.56052851
C        1.19380558       6.36944494       7.26033011       2.65377853      -0.20323851       0.67348890
C        3.69980932       6.36807916       7.59240516      -0.56866837       1.77011171      -1.34353458
C        6.14717242       6.38075292       7.69230280       0.24610548       1.95561526       0.35684598
C        8.59422691       6.39272921       7.76582824      -0.23218553       1.67856681      -0.37230474
C       -4.91331015       8.52935548       7.74070650      -0.13088458      -0.56062030      -1.52681079
C       -2.44755716       8.49718929       7.50279797      -0.39126637       0.80145322      -1.27439402
C       -0.01821224       8.48789176       7.16778285       0.25343981       1.22041705       0.35220899
C        2.48196686       8.52205969       7.08646220      -0.29354105      -0.28988545       1.15198354
C        4.90597746       8.50704186       7.53843048       1.27111818       1.44844434      -1.14039712
C        7.39654225       8.52061633       7.62930381      -1.96977638       0.64840136       0.26590092
C       -6.21044752      10.65021179       7.57621593       2.90408339      -0.76156384       0.35671305
C       -3.70208876      10.64689330       7.62371036      -0.40495800      -0.14034264      -0.40770574
C       -1.31597586      10.64444913       7.40973527       2.90362213       1.13321912       0.23735139
C        1.17687293      10.62126403       7.20007525       0.16604930       0.68961872       0.30164362
C        3.68934696      10.68833252       7.33880920       0.28338725      -1.01728473      -0.36949478
C        6.16776857      10.66239916       7.49212806      -0.64171392       0.45987085       0.00563946
C        1.22839216       0.70189322       7.55655353       2.90528281       1.03129519      -0.13555267
C        3.71084344       0.71422713       7.65518060      -1.44078528       1.27815477       0.13621293
C        6.14696049       0.70296699       7.56566118      -0.97954660       2.46762294       0.92110414
C        8.55506137       0.67508644       7.52847135       1.00731477       2.74385584       0.10881089
C       11.06771435       0.66529866       7.41062737      -1.19708609       1.60480829       0.05392606
C       13.56018667       0.74756999       7.42448613      -0.85861579      -1.59024710      -0.09194393
C        0.01684270       2.81132957       7.50615961       0.57243966       0.73104073      -0.11009644
C        2.47025915       2.85829746       7.53518384       0.28267788      -0.64583540       0.09361901
C        4.87975715       2.87700476       7.67393703       2.02354175      -0.46926592      -0.90956734
C        7.35865903       2.87295790       7.70282174       1.72130086       0.23141574      -0.55503381
C        9.85729876       2.84202991       7.45243386      -1.52821564      -1.69464443       0.18955407
C       12.31443288       2.82907595       7.41040089      -0.43841088      -0.06562252      -0.35336702
C       -1.18463796       4.95722565       7.49800634      -0.58361805       0.62757337      -0.96716596
C        1.22618143       4.95109283       7.42488791       2.10640352       0.80771206       0.23248403
C        3.71051139       4.95842867       7.61977928       0.54448123       0.67092294      -0.48300513
C        6.19237415       5.00171912       7.70200197      -0.22020676      -1.54273183      -0.36780993
C        8.67589950       5.00326131       7.70128667      -1.13609438      -1.44447378      -0.56277514
C       11.10717358       4.93444023       7.43320628      -1.39042842       1.68072217       0.05681341
C       -2.47716723       7.07657171       7.30858464       0.15743327       0.66101288       2.44118943
C       -0.00402936       7.06022956       7.25834478      -0.38935192       1.86673248      -0.26360904
C        2.46551082       7.09787590       7.29030575       0.09977140      -0.58396438       0.08896351
C        4.94491062       7.09937657       7.59427667      -2.05118651      -0.65389658       0.30982693
C        7.32825688       7.14473665       7.77494894       2.24864594      -2.69605543      -0.47483390
C        9.80036399       7.10942398       7.63567036       1.39091642      -0.10449323       0.93261985
C       -3.68914677       9.22946683       7.58268789       0.66756225      -0.62564993       0.81187545
C       -1.21860937       9.26019056       7.37466535      -1.44179932      -2.97438892      -0.33393179
C        1.19928327       9.20927032       7.06413869       0.78261064      -0.34134043       0.22163629
C        3.71995581       9.24488068       7.27497515      -1.27589272      -0.20102530       0.36622896
C        6.15218033       9.25548164       7.51355884       0.19416508      -1.06567932       0.70773831
C        8.60948964       9.18949759       7.64385041      -0.05051138       2.65285576       0.25584096
C       -4.93816738      11.33940254       7.59352352      -0.03497472       0.75386724       0.77028759
C       -2.49353189      11.37181346       7.57562029      -0.67855269       0.48065565       0.23113472
C       -0.05425176      11.34375707       7.37015434       0.21728367       0.32755417      -0.08971864
C        2.42046101      11.34261874       7.30238400      -0.24948417       0.75743748       0.15082014
C        4.93982039      11.38043267       7.43303571      -0.49528214       0.25340021      -0.15391395
C        7.39021467      11.39400031       7.55594214      -1.20045578       0.26064790      -0.93818192
72
Lattice="14.76 0.0 0.0 -7.38 12.782534959858314 0.0 0.0 0.0 15.0" Properties=species:S:1:pos:R:3:REF_forces:R:3 REF_energy=-11166.7493517221 config_type=fd_force_conv_snapshot_059 split=validation degauss_Ry=0.0019000869 kgrid=8 lattice_temperature_K=300.0 pbc="T T T"
C       -0.00440673       0.01729802       7.54026919      -0.68236769      -0.62500715      -0.14337500
C        2.40974171       0.04092027       7.61788164       1.14138751      -1.20099931       0.47706228
C        4.87377724      -0.02987609       7.57966609       0.41075610       0.42426159      -0.15540365
C        7.34540582      -0.00147929       7.49143193       0.64964295      -0.15823006       0.10574279
C        9.81480962      -0.00126106       7.42329096       1.50184872       0.63068955      -0.62244505
C       12.29077688       0.00547930       7.40708722      -0.45907818      -0.46744018       0.00904026
C       -1.22699854       2.13058518       7.41138127      -0.08793481      -1.02351992      -0.38432850
C        1.22607226       2.15593389       7.42148114      -0.20489352      -0.12548475       0.37652597
C        3.69315275       2.16886314       7.72227809      -0.27991214      -0.75432593      -0.71131909
C        6.10177402       2.10676353       7.72581899       1.08596301       0.50394008      -0.33767661
C        8.59582982       2.10345015       7.66882367       0.77099876       0.12316664      -0.78515371
C       11.10200521       2.17156159       7.39030910      -1.78519740      -2.65551068       0.72723807
C       -2.45659264       4.25996735       7.46544141       1.88235219      -0.99902604      -1.23116838
C        0.06657753       4.24310987       7.25379432      -3.37210490       0.44537163       0.25844420
C        2.46301072       4.31279158       7.43154162       1.64402095      -1.77700201       0.86388475
C        4.91223859       4.30050585       7.65804299      -0.96421896      -0.01596527       0.55176979
C        7.31653407       4.24009268       7.66188247       1.04274817       0.18536034       0.78500202
C        9.79642899       4.25739726       7.64936790       1.18532972      -0.74934904      -0.53363323
C       -3.63611280       6.36042709       7.47990981      -0.60981630      -0.13322377      -0.30348685
C       -1.18054746       6.37922453       7.28079145      -0.58128092      -1.04266332      -0.33472935
C        1.27110735       6.39365167       7.33521691       0.16276317      -0.13838834      -0.60793837
C        3.72544443       6.44712471       7.62040520      -1.32109065      -0.56792429      -1.18303913
C        6.19901816       6.38399005       7.53486434      -2.16204399       1.82889433       0.47236770
C        8.60848822       6.41129813       7.67700520       1.32023422      -1.40113372      -0.46438211
C       -4.90424493       8.45209439       7.67140687       1.48346250       2.69752353      -1.46435175
C       -2.42152374       8.49356374       7.43819658      -1.55951933      -0.16983345      -1.09362876
C       -0.00012961       8.51804368       7.34497758       1.19431341      -0.58917497      -0.02992147
C        2.42181687       8.54996971       7.43945393       0.70964144       0.58728984      -1.55819059
C        4.87108252       8.52655052       7.44579669       2.30733420       0.02614401      -0.07581540
C        7.40910599       8.52181129       7.52049344      -1.12962034       0.19716427       0.12019933
C       -6.15940985      10.61656726       7.64864562       1.01365408       2.12954088      -0.11560451
C       -3.67532903      10.63955081       7.53919459      -2.33107320      -0.89943899      -0.56613403
C       -1.23409355      10.64679488       7.47090066      -0.04562937      -0.90536487      -0.19815235
C        1.20591355      10.67481606       7.34507127       1.32552298       0.47082838       0.67014236
C        3.67498413      10.63248192       7.40686126       0.82209327       0.96100946      -0.65831374
C        6.18285672      10.66495875       7.52877539      -2.50547704      -1.10347480      -0.61029762
C        1.18089307       0.74008032       7.55568486       1.66156796       0.52918908      -0.15220905
C        3.66948546       0.71929193       7.67702643      -0.30143562       0.41243117      -0.23342326
C        6.10917903       0.68463654       7.57289219      -0.29881901       0.48265108       0.60662788
C        8.59780432       0.70190789       7.47059140      -1.31647475      -0.07846775       0.83270164
C       11.05368265       0.72618933       7.35412556       0.53228675       0.05547926       0.50059610
C       13.53469496       0.69486259       7.44373009      -0.71870869       1.03655618       0.02491039
C       -0.03059904       2.84621657       7.32094280       2.61560176      -0.45719151       0.34040635
C        2.48384592       2.86496375       7.51943045      -1.25345599       0.56934997      -0.14286360
C        4.91049466       2.89220038       7.73694769       0.02033408      -1.40455226      -0.12850296
C        7.35925927       2.80184394       7.74032715      -0.62430113       0.71573984      -0.44662839
C        9.85443645       2.80323309       7.59423737      -1.29474096       2.30770598      -0.03202103
C       12.31893486       2.81751673       7.42817922       0.03904066       2.10304232      -0.07940029
C       -1.18392605       4.95641653       7.29428870      -0.73318940       0.03884474       0.43305348
C        1.24307939       4.95664375       7.30778211       1.26557925       1.77055343       0.00718263
C        3.69844343       5.02124225       7.62620345      -0.88280164      -0.10920324      -0.61560720
C        6.11172218       5.00336787       7.63972725       1.70985636      -1.26028664      -0.20189150
C        8.54049412       4.97339594       7.70356254       1.55499394      -0.22313576      -0.34651246
C       11.08788830       4.93594692       7.46091109      -1.76352172       0.68405382       1.15002590
C       -2.42969454       7.06344159       7.30513040       0.65893415       0.88244940       1.18785609
C        0.04676481       7.06225080       7.26249151      -0.41157757       2.18452186       0.50561284
C        2.49126696       7.16389118       7.37518616      -0.76103522      -2.31451144       1.56081054
C        4.93602504       7.12702692       7.58174304       1.01504427      -0.50479445      -0.50799034
C        7.40637791       7.10645088       7.50913765       0.26757548       0.14363031       0.75379757
C        9.91421064       7.08045831       7.65070055      -2.17277218      -1.68148296      -0.09984416
C       -3.69026096       9.19174916       7.41321948       0.71141473       0.37813060       2.20161173
C       -1.20378240       9.20480388       7.44408153      -0.98893575       1.01307430      -0.39773757
C        1.20555066       9.28382969       7.34628764      -0.03540383      -1.90831570       0.24424272
C        3.66318694       9.21875047       7.34186485      -0.32512576       0.89042316       1.34446044
C        6.13773155       9.20744995       7.45853463       1.03766587       1.54168796       0.42084819
C        8.65417070       9.21363580       7.64315000      -1.70261665      -0.64873664      -0.06489130
C       -4.93016913      11.38161151       7.65266134      -0.00100042      -0.76605196      -0.49540376
C       -2.48607154      11.32917901       7.44464672       1.22556054       1.02389375       1.00022366
C       -0.01087376      11.35181336       7.48400546      -0.66391900       1.06199750      -0.89149634
C        2.48012834      11.37945989       7.36436878      -1.78162074      -0.87192253       0.19469962
C        4.90610003      11.35577329       7.44817991       0.78478065       0.01491934       0.10111017
C        7.37094881      11.38456892       7.58026289       1.35841022      -1.32037589       0.17671501
