72
Lattice="14.76 0.0 0.0 -7.38 12.782534959858314 0.0 0.0 0.0 15.0" Properties=species:S:1:pos:R:3:REF_forces:R:3 REF_energy=-11165.047078024954 config_type=fd_force_conv_snapshot_003 snapshot_index=3 split=validation degauss_Ry=0.0019000869 kgrid=8 lattice_temperature_K=450.0 trajectory_seed=0 pbc="T T T"
C       -0.02030902      -0.01939019       7.73003020       0.59154656       2.56929593      -0.83929626
C        2.41023112       0.01619341       7.77390649       0.19370023      -1.66878788       0.18302501
C        4.87394512      -0.04254704       7.61737085       0.42372449       1.65641316       0.70425318
C        7.37294363       0.00436466       7.49248159      -2.18636714       0.91344353       1.48817225
C        9.83420387      -0.02112779       7.44368783      -1.32928502       1.02673559       0.17480699
C       12.29065780      -0.00190723       7.52256476       1.63918291      -0.39071872      -1.11647224
C       -1.25316303       2.09083998       7.33165713       0.99262631       3.05322486       1.77655747
C        1.20614100       2.12256824       7.60126804       0.31524502      -0.49573903       1.24373387
C        3.63964486       2.10617960       7.67694538       0.41029381       0.08989914       0.53939250
C        6.08255997       2.10889677       7.72169411       3.30490397      -2.36447466       0.38108223
C        8.54424248       2.16757104       7.66677632       0.97487979      -1.50418045       0.47298194
C       11.03156658       2.08442245       7.46754416       0.15102634       3.77654405       0.22790798
C       -2.45311913       4.26432704       7.52553388      -1.23636098      -0.25145003      -0.55530095
C        0.03204577       4.27054150       7.47883691      -0.75708395      -1.05801486      -0.78024573
C        2.45681558       4.25018606       7.52926759       0.70165328       0.06440922      -0.09740084
C        4.94369932       4.19885421       7.57506594      -0.13645076       0.68842418      -1.07813015
C        7.38596745       4.28985414       7.50297536       0.75869295      -0.85682116       0.70442724
C        9.83492193       4.31202035       7.64157541       1.06427242      -1.12724953      -0.45613710
C       -3.66233380       6.44065515       7.39854408      -1.03034877      -2.39083361       0.94016629
C       -1.20138258       6.36677816       7.49496579       1.22296682      -0.20607340      -0.31806140
C        1.31532494       6.39493360       7.39684132      -2.48666068       0.01931644       0.36535504
C        3.67829913       6.34491475       7.39922159       1.93863724       0.64363685      -0.41477808
C        6.12972845       6.34499096       7.29193968       2.28765112       1.53066024      -1.31998662
C        8.68234846       6.41038067       7.39088122      -2.08857163       1.82587997      -0.62752812
C       -4.86488628       8.57567154       7.53510509      -1.94036219       0.73589189      -1.43355173
C       -2.41419264       8.45118930       7.41941086      -1.03394008       3.68911549      -0.43519675
C        0.00712576       8.47573810       7.37312224       0.38067753       2.39110280       0.49145866
C        2.47280059       8.56825298       7.32835444      -1.17482111      -1.39523870       1.37942410
C        4.89942204       8.54743323       7.35324693       2.38582201      -1.94175521      -0.07101464
C        7.38645980       8.50203647       7.38311806       0.69065462       1.09709923      -0.32896134
C       -6.21308833      10.67685620       7.54510627       5.16490145      -0.58927268       0.86835950
C       -3.63995233      10.69819496       7.56465906      -2.88770880      -1.41951223       0.24625049
C       -1.20780228      10.66385003       7.46336937      -1.38239141      -0.90440868       0.15667171
C        1.21735949      10.66837405       7.43882658      -2.82810369      -0.33454037      -0.09925718
C        3.69543325      10.65737480       7.37197787      -0.42001490       0.26793158       0.52006398
C        6.18969622      10.69439159       7.51785565      -0.34082312      -2.53762791      -1.07844588
C        1.19066598       0.70034999       7.83198504      -0.08549844       0.95822984      -1.38645041
C        3.61915300       0.68359608       7.68716449       1.78642099       1.11426649       0.15561705
C        6.10319851       0.64905390       7.67041985       0.41244531       2.37097595      -0.76699170
C        8.57088544       0.67962563       7.59380954       2.29997185       2.55835512      -0.76644251
C       11.08586490       0.70213172       7.41551156      -1.71215622      -1.31102581       0.59666717
C       13.54332821       0.73466866       7.52915812      -1.71485022      -2.70486223       0.16584310
C        0.01234253       2.81782343       7.48550528      -1.61989269       1.19787311      -0.70836283
C        2.41364251       2.86592775       7.66039942       1.15699539      -2.03106377      -0.49886755
C        4.92225789       2.76171156       7.70914948      -3.57036806       2.83556478      -0.55532537
C        7.31533492       2.85639684       7.77256109       0.78269060       0.56135692      -1.66034772
C        9.78618998       2.88253619       7.61867788       0.93354262      -1.73219694      -0.18583162
C       12.27755104       2.84716705       7.41349838      -0.39606302      -1.51094734       0.06767066
C       -1.23676540       4.95022534       7.47084750       1.90970024       0.48660236       0.36852213
C        1.27234943       4.97562824       7.38750865      -0.91930693       0.06509365       1.07796354
C        3.71281443       4.91786793       7.50736917      -0.22808847       0.52570524      -0.00840468
C        6.16764961       4.93954411       7.29596553      -1.23630441      -0.56589132       2.05862497
C        8.65582948       5.03286033       7.53723058      -2.03623194      -1.67475875      -0.32415260
C       11.06951224       5.00347468       7.54886120       0.54314554       0.14156623      -0.30497757
C       -2.42282327       7.04360268       7.44865202       0.50211022       2.11520518      -0.24524339
C        0.06893890       7.10030621       7.46494830      -1.48374455      -2.00109448      -0.61415273
C        2.49067840       7.11701277       7.41061773       0.66705343       0.51573321      -0.73887283
C        4.93137515       7.04761947       7.26263116      -1.56585993       2.10518019       1.12223434
C        7.40844067       7.10835102       7.22985010      -0.48786837      -1.57813952       1.47894970
C        9.87532012       7.16677340       7.39023313       0.72256278      -0.51589288       0.64208802
C       -3.65625536       9.29323229       7.43119677       1.08068017      -2.44662217       0.95734486
C       -1.21376784       9.21669641       7.35895946       0.04733529      -0.49267119       0.76027135
C        1.20056817       9.25005959       7.42070891       1.60994535      -0.68240395      -0.82681587
C        3.69516700       9.25158873       7.42774385      -0.30064963       0.31463001      -1.16384044
C        6.17488716       9.24160435       7.40070263      -1.29497545       0.26618091       0.11873277
C        8.60826502       9.27058116       7.50349331       0.21103255      -1.40180324      -0.16597319
C       -4.91647921      11.38244401       7.70917422      -0.93286076      -0.77429954      -0.95071013
C       -2.44422930      11.35333619       7.59864557       0.78524010       0.13616177      -0.73722295
C       -0.04787278      11.42680319       7.49185689       2.68129884      -3.69700158      -0.74316143
C        2.39186173      11.35227318       7.38010074       4.11577412       0.62127006       0.22814761
C        4.95980218      11.32999950       7.44099189      -2.07652010       2.26416949       0.65044642
C        7.41096337      11.40438141       7.52814255      -2.92047134      -0.63576928       1.08869892
72
Lattice="14.76 0.0 0.0 -7.38 12.782534959858314 0.0 0.0 0.0 15.0" Properties=species:S:1:pos:R:3:REF_forces:R:3 REF_energy=-11164.907511381334 config_type=fd_force_conv_snapshot_009 snapshot_index=9 split=validation degauss_Ry=0.0019000869 kgrid=8 lattice_temperature_K=450.0 trajectory_seed=0 pbc="T T T"
C        0.05031630      -0.07045205       7.37873127      -0.67854472       1.95357612      -0.00054867
C        2.49505887       0.02515760       7.11085961      -2.36499222      -0.54110743       0.52428264
C        4.93904808       0.00594069       7.18386985      -0.70355024       0.71781421       0.62797395
C        7.33750455      -0.03399396       7.41086900       1.04954077       0.96376079       1.21448655
C        9.80423785      -0.00285314       7.58540113       1.54892742      -1.09306594       0.43410891
C       12.32885378      -0.04368262       7.49380669       0.63948041       1.28985098       1.15978401
C       -1.16300960       2.09693042       7.38302439      -1.95653186       1.82309418       2.06136910
C        1.26138898       2.17159446       7.38405750      -2.03747121      -1.75483859       0.35075066
C        3.67132893       2.15978939       7.23897215      -0.13143299      -0.17273057       0.47992237
C        6.09470817       2.21358664       7.27916813       2.41794383      -3.32404404      -0.22070401
C        8.58586429       2.13025459       7.41792193       1.03692745      -1.46669660      -0.19836035
C       11.05554258       2.06277532       7.53046012       0.93708046       3.00850232       0.24811017
C       -2.44899189       4.26125618       7.53881241      -0.93201410      -1.50189911       0.44027493
C        0.03258768       4.27956243       7.49234120      -1.32044711       1.57296132       0.20340948
C        2.46862584       4.26002490       7.56272497       0.38356360       3.02082484      -0.17718320
C        4.91346426       4.27112850       7.46304029      -0.80856901       2.39706802       1.40329962
C        7.40306872       4.20914945       7.53507472      -0.71677985       1.79914435      -0.34118153
C        9.82163203       4.33266862       7.48672466       3.40094779      -4.77668981      -0.28353534
C       -3.72486647       6.41102427       7.66619664       1.09863058      -3.08532739      -1.61344925
C       -1.29937967       6.40189236       7.60797069       3.25557427      -0.84930119       0.14709101
C        1.25881106       6.41389652       7.52570789      -2.07012088       1.32121612       1.52389516
C        3.65695699       6.46658128       7.66406837       0.66323509      -1.11936961       0.59103902
C        6.17459717       6.34773942       7.66935895      -0.79213811       1.09572035       0.62270396
C        8.59638481       6.32132219       7.66693087       0.38322344       3.02617479      -1.24651786
C       -4.91505207       8.46231429       7.49360678      -1.89601683       2.14597023       0.04056661
C       -2.51296064       8.48672698       7.48666168       1.95280916       0.92321990       1.35924171
C        0.00485805       8.53023446       7.72960863       1.13381638      -0.78487758      -0.91680165
C        2.49712913       8.58454692       7.70498520      -3.20144535      -0.40329733      -0.88542725
C        4.91887518       8.52399310       7.64840610      -0.62294641      -0.95182162      -0.65707241
C        7.35459130       8.54302772       7.47936502       1.14686216      -1.40354233       1.25762040
C       -6.11598820      10.62518039       7.41699176      -0.15210132       2.49613365      -1.96575595
C       -3.75558523      10.63979046       7.31585760       3.00244608       1.05177994       0.25548075
C       -1.23220500      10.59743287       7.55397908      -0.36922096       1.89890624       0.16467890
C        1.23033418      10.67849256       7.57591859      -0.04219849      -1.01518954       1.02849449
C        3.72013444      10.67728111       7.60838476      -1.38011984      -1.03285508      -0.06157843
C        6.19302427      10.65477409       7.51290674      -1.73373214      -2.17198490      -0.12388115
C        1.23714304       0.71297843       7.30121599       1.20856375       0.27245903      -0.53607578
C        3.68072444       0.72130000       7.13950335       1.68683548       1.30888023      -0.20233965
C        6.15096163       0.72605846       7.28396521      -0.95956424       1.14402469      -0.35516756
C        8.57865677       0.65909782       7.49295132       0.07442907       2.46997756      -0.50769620
C       11.09666462       0.65521493       7.60504017      -1.43768144       0.68200491      -0.91758455
C       13.59062941       0.68274640       7.47538949      -0.68759038      -0.86193842      -0.96420662
C        0.02817197       2.88553450       7.47125319       0.35692054      -1.76482938      -0.80324451
C        2.44141745       2.87487620       7.45200007       2.24473350      -1.12203148      -0.92077426
C        4.89020549       2.90412469       7.26943054      -0.76283037      -1.55175717       0.23531533
C        7.38037143       2.83627839       7.35690002      -1.36303769      -0.04577026       0.44857394
C        9.81628159       2.85770101       7.43867818       0.65581308      -0.99164389       0.56691102
C       12.32007309       2.83693955       7.57613058      -0.06380527      -2.14811273      -1.65569196
C       -1.25937471       4.96172614       7.56071780       2.27644780       1.31903069      -0.22817641
C        1.26529400       5.02446618       7.48083061      -0.50930083      -2.22044866       0.52892580
C        3.69104297       5.04720385       7.65619125      -0.46990330      -2.24844437      -1.40002018
C        6.14782372       4.92313462       7.65246131       1.39258815       0.41790557      -1.10875584
C        8.63422156       4.94836594       7.50769254      -3.36393290       0.63328225       1.15143384
C       11.08604439       4.95668992       7.56553968      -1.24328162       1.87310419       0.46795800
C       -2.50967189       7.07951222       7.56449623       0.04820278       1.42504807       0.46763533
C        0.00835065       7.10871337       7.69679432      -1.42340051      -0.67798936      -1.12463369
C        2.40647413       7.18163018       7.69849949       2.99005311      -1.13107302      -0.67027657
C        4.93973113       7.08985331       7.68105526      -0.56841923       0.76703772      -0.14289883
C        7.39520964       7.09450270       7.67990165      -0.44035927      -0.19900930      -0.90755879
C        9.82861653       7.05593523       7.51565538      -1.36987965       0.51376735       1.46967419
C       -3.72571334       9.21673167       7.54679939       0.25750935       0.08186033      -1.60138898
C       -1.22315697       9.16740070       7.59884756      -2.21112661       1.72313637      -0.17845436
C        1.24207145       9.27612864       7.61225023      -0.26538413      -0.89494188       1.08071899
C        3.68887124       9.25063227       7.57082864       1.75850421       0.68348484       1.30877301
C        6.11267340       9.20320353       7.53083879       2.06085874       1.88142685       0.02926275
C        8.60783626       9.27648710       7.45113090       0.51750650      -4.71985069       0.28739843
C       -4.92294322      11.38047337       7.11575019      -0.20506887      -1.02134296       1.91606784
C       -2.46246711      11.40563354       7.37576549      -0.36906926      -3.66418119      -0.43299563
C        0.00704688      11.35430010       7.65895816      -2.28893230      -0.39369683      -1.96202348
C        2.44229081      11.35556954       7.64617326       1.82352612       1.03147388      -0.82466900
C        4.95938136      11.33895436       7.58248211       0.04267620       0.78930270      -0.55244085
C        7.40815747      11.29593147       7.38511628       0.46676501       1.58277522       0.59183709
72
Lattice="14.76 0.0 0.0 -7.38 12.782534959858314 0.0 0.0 0.0 15.0" Properties=species:S:1:pos:R:3:REF_forces:R:3 REF_energy=-11164.513971368115 config_type=fd_force_conv_snapshot_015 snapshot_index=15 split=validation degauss_Ry=0.0019000869 kgrid=8 lattice_temperature_K=450.0 trajectory_seed=0 pbc="T T T"
C       -0.07223834      -0.01731676       7.63590973       3.46180786       0.26526997       0.01443803
C        2.44340424       0.01282605       7.73679034      -1.49976330      -0.91759921       0.64208571
C        4.92051237       0.02220598       7.72749333      -1.30246841       1.45800704       0.29781782
C        7.41086983       0.04537188       7.71920853      -2.10605179      -2.06243431      -0.68551781
C        9.85194431      -0.02758511       7.53866251      -0.95195249       0.64725877       0.09885866
C       12.28359416      -0.01724090       7.53395477       1.32975347      -0.31241937      -0.36902144
C       -1.24264523       2.18359992       7.45026917      -0.27058418      -2.39224386      -0.23673792
C        1.25376420       2.14714682       7.46594849      -4.68371229      -2.84142895       1.18041737
C        3.67761266       2.16254503       7.66135188       0.19927592      -1.97518238       0.11789742
C        6.17441319       2.14914932       7.59835438      -1.55880483      -0.53085824       0.83936979
C        8.59824405       2.16594401       7.63546186       0.37489435      -0.58112099      -0.13692410
C       11.12114242       2.11592057       7.53153812      -1.80907549       2.68047120      -0.48542299
C       -2.45404103       4.39824284       7.52970448      -1.55440875      -3.81470282      -0.54656845
C       -0.00918587       4.23673284       7.28727698      -1.49392484       0.97342428       1.31968529
C        2.41496765       4.19505608       7.29249092       0.57341231       1.67532902       1.20036965
C        4.94314322       4.22324635       7.45337305      -1.77352279       0.62470505      -0.50820836
C        7.40719918       4.23958560       7.60839004      -1.92106786       2.44268427      -0.56199379
C        9.80053288       4.28603827       7.61175878       3.61350937      -1.41331587      -0.11833425
C       -3.75098624       6.42114205       7.44356931       1.97778665       1.26076949      -0.25114587
C       -1.22088945       6.41535432       7.45173848      -0.01758017      -0.11302672      -1.48559935
C        1.22247849       6.37444336       7.22877032       0.77722854       0.12109485       0.03367965
C        3.70148239       6.32619576       7.31386002       0.47032162       1.62689792      -0.76043821
C        6.14051886       6.39010119       7.42100438       2.02264469      -1.34230560      -0.85999236
C        8.64840403       6.34003148       7.42307418      -0.63764670       1.31677454       0.56261548
C       -4.92967366       8.50258754       7.42623650      -1.55390944       4.21321044       0.84289812
C       -2.50504332       8.54267836       7.42134390       2.04434300       0.45985029      -0.84962695
C       -0.03093599       8.50900762       7.30881624       3.78165001      -0.36424356      -0.04663056
C        2.50083452       8.47447744       7.37759054      -1.56179656       0.84058567      -1.05350798
C        4.94484503       8.57076699       7.32265651       0.18177956      -2.93917509       0.17357157
C        7.38189125       8.49526982       7.53152763       0.65846081      -1.15114742      -1.05223837
C       -6.20036518      10.60703624       7.82523627       3.23105829       2.77076681      -0.23765684
C       -3.72124895      10.64986537       7.66251677       2.17610304       2.20163949      -0.70706880
C       -1.15208069      10.63828771       7.49755135      -1.46584608       2.95122971      -0.08029787
C        1.28733707      10.61268275       7.28850248      -1.15919574       0.84247466       2.08050351
C        3.69929812      10.58767510       7.43204744       1.17691784       2.83607745       1.08128926
C        6.16490795      10.65590687       7.64503611      -0.02460340      -1.66221665      -0.22200550
C        1.18599848       0.71158802       7.61292610       0.46776363       0.00886414       0.13018729
C        3.62205249       0.73011715       7.78536563       3.05639246       0.79819101      -0.78635982
C        6.13719640       0.75326457       7.78203429       1.55327850      -1.10182569      -0.96372094
C        8.58214699       0.74044996       7.63161346       3.11470096      -0.21916932      -0.09914662
C       11.07466693       0.69901268       7.48582198      -0.19950758       0.02030143       0.57124667
C       13.53522426       0.70447197       7.45146414      -2.68007088       0.79424488       1.05420089
C       -0.06082217       2.85128064       7.45713316       4.26273992      -0.01396238      -1.14163100
C        2.42422478       2.79778253       7.58205562       2.14198707       2.81992270      -1.57995960
C        4.93793242       2.82971535       7.53038637      -0.76949261      -0.18399097       0.54256807
C        7.36485012       2.87507629       7.61031802       1.45376832      -1.66753421       0.25082371
C        9.82047794       2.86753525       7.58320403       1.99265637      -1.19411055       0.31246488
C       12.33968478       2.92331752       7.44998969      -2.75857926      -0.50858657       0.82611421
C       -1.21653050       4.98408532       7.42907690       0.21895797       1.98440750      -0.12117095
C        1.18200866       4.95355957       7.26567712       2.04263065      -0.44993457      -0.56898487
C        3.66182944       4.91300267       7.32735807       0.79468402      -0.20933973       0.17170444
C        6.13586316       4.94173878       7.46993277       1.45660810       1.00444002       0.42964368
C        8.63551237       4.95007316       7.61409240      -2.22047257       0.94191722      -0.71362125
C       11.02503930       5.05293660       7.54343964       0.67334698      -2.08742749       0.09569929
C       -2.48824556       7.11256346       7.36229996       0.32136090       0.68033524       1.15013826
C        0.02294208       7.10311019       7.27624428      -1.75491135      -0.43908606       0.73046224
C        2.48567524       7.06982826       7.24799864      -0.27896855      -0.73520335       0.66531408
C        4.95969340       7.11218527       7.28767999      -1.87045467      -0.21553352       0.73627421
C        7.44810772       7.01816451       7.36422314      -2.98279154       2.71008826       1.10058128
C        9.81758001       7.14965858       7.41360370       0.06182398      -2.75260479      -0.17953859
C       -3.73348329       9.27928052       7.43177535       1.12509777      -2.47832208       0.66806413
C       -1.15505867       9.24394501       7.40293618      -5.25920103      -0.09038970       0.12380325
C        1.22758354       9.19812548       7.32316155       1.37193370      -0.35895840      -0.37356792
C        3.71101459       9.22534637       7.38026883      -0.43002009      -1.73441271      -0.25581628
C        6.17964896       9.21184215       7.46362795      -0.60720098       1.22776629       0.71947951
C        8.56502455       9.26177762       7.62345154       1.54148099      -3.58066662      -0.46856581
C       -4.88914607      11.35487767       7.83461781      -3.27344216       0.12998675      -0.62476264
C       -2.46414306      11.44628995       7.55613589       1.19166415      -4.52087482       0.97165691
C        0.08256089      11.37112415       7.51423867      -1.34366211       0.07314943      -0.22932826
C        2.50037669      11.30674584       7.48594757      -0.51650197       1.45125121      -1.05731630
C        4.93287717      11.32921935       7.60223362      -0.71033538       0.59197928      -0.92033846
C        7.38562785      11.33304757       7.77865019      -1.89229722       1.50998857      -0.39715625
72
Lattice="14.76 0.0 0.0 -7.38 12.782534959858314 0.0 0.0 0.0 15.0" Properties=species:S:1:pos:R:3:REF_forces:R:3 REF_energy=-11164.605185967686 config_type=fd_force_conv_snapshot_021 snapshot_index=21 split=validation degauss_Ry=0.0019000869 kgrid=8 lattice_temperature_K=450.0 trajectory_seed=0 pbc="T T T"
C       -0.01569685       0.00632570       7.44741688       0.62128882      -1.03328805       1.26296932
C        2.44051180       0.01191274       7.37604035       1.40524595      -1.31974340       0.54417141
C        4.93756418       0.02700128       7.31334668       0.30553524      -0.61881722      -0.25687635
C        7.38340271       0.01271390       7.32390027      -0.56229820      -0.28096321      -0.21917677
C        9.83344421       0.01106239       7.42093347      -0.01432182      -0.70490856       1.34309518
C       12.29666080      -0.04518715       7.55185463       0.48144832       1.74871550       0.75917914
C       -1.21663214       2.16314572       7.61283745      -0.59318332      -1.42628837      -0.15389364
C        1.28801844       2.11255140       7.55436414      -5.14138280      -0.71707090      -0.19538764
C        3.68661425       2.12929702       7.46600004       0.10422764      -1.07190653      -0.67995600
C        6.05368843       2.13687887       7.03814662       3.66225826       3.15859201       1.66519785
C        8.59109329       2.15959673       7.30102757      -0.66627876       0.48850703       0.24331069
C       10.96267260       2.11221192       7.57546115       4.67044386       1.95935364       0.09961431
C       -2.40119606       4.23090600       7.62429626      -3.09115094       1.91091792       0.23864362
C        0.00460413       4.25601915       7.63156333      -0.99185627       1.48514709       0.52019125
C        2.43362872       4.24822741       7.44392344       1.96060243      -1.43754414       0.79705586
C        4.94602499       4.28201775       7.30224759      -1.78689690       1.65867984       0.34464301
C        7.44838894       4.25461841       7.27919777      -3.91575309       1.60631855      -0.22098683
C        9.79340713       4.27132864       7.56901203       2.92210708       2.42503313      -1.22376669
C       -3.65842221       6.36853710       7.56020163      -2.46490066      -0.77424838      -0.55508317
C       -1.26693222       6.41545543       7.63522689       1.29209761      -1.47675398       1.53688206
C        1.20466638       6.33826240       7.62714382       0.60824587       1.65711275       0.85165581
C        3.64179818       6.42121903       7.58457392       1.94028351      -1.38023734      -0.58497405
C        6.17659014       6.45570042       7.56862898      -0.62436026      -2.93891901      -1.83983154
C        8.60147123       6.38991977       7.45793623       0.53574617      -0.42861858      -0.83336241
C       -4.92868006       8.45470176       7.57886371       1.01818591       0.48313420      -1.38033376
C       -2.46611831       8.52471705       7.67713487       1.18350758      -0.92303478      -0.11489232
C        0.02136961       8.50540618       7.72952911       1.47635237      -0.45610650       0.15315367
C        2.46969284       8.55099313       7.64328108      -2.02155840      -0.56204855       0.11301670
C        4.91306215       8.51872608       7.45829196       0.09469039       0.01504635       0.73955828
C        7.42512472       8.57024172       7.41662729      -1.07142908      -2.34541070       0.10726462
C       -6.14980819      10.62442561       7.49429595       0.92192097       1.74623105       0.51542185
C       -3.70831122      10.67744769       7.41320332       1.29993767      -1.53063299       0.24920623
C       -1.19415495      10.58431556       7.40905041      -0.78153926       2.59730964       0.14795542
C        1.26378838      10.64519498       7.55524487      -0.46257848       1.65415676      -0.55359528
C        3.71608554      10.65376772       7.60024856      -1.37643545      -1.02995924      -0.08834156
C        6.12926244      10.60199115       7.69057802       1.61680531       1.93453247      -1.18159108
C        1.24327776       0.69300889       7.41975737      -1.61992020       1.16441868       0.41290374
C        3.68671502       0.66457214       7.40706425       0.56428875       2.93256144      -0.28820858
C        6.18008044       0.79920132       7.23696907      -1.85673166      -4.30499960      -0.20663802
C        8.57635511       0.74719722       7.39159791       1.82691741      -1.25853263      -0.78702111
C       11.06654074       0.69910662       7.55809961      -1.13069455       0.02743213      -0.81218629
C       13.52610591       0.72121493       7.54299630      -0.11786091      -0.56737870      -0.05781923
C       -0.01368428       2.89317785       7.61935285       1.90531548      -3.38846354      -0.28708809
C        2.44326522       2.76913916       7.55120954       2.77372332       3.83403366      -0.73515630
C        4.87714444       2.88830426       7.26229987       0.05874457      -1.83903244      -0.44479005
C        7.36681470       2.86867791       7.14582165      -0.53596265      -1.23489931      -0.07476434
C        9.80732340       2.91778294       7.48377396      -0.81535055      -4.41311629       0.00378338
C       12.31989743       2.84786064       7.63392079      -2.30488677      -1.59975684      -0.13014821
C       -1.23438493       4.99774330       7.71328309       1.05960226      -0.87681560      -1.21640665
C        1.23738906       4.91399870       7.57079899      -0.58007893       2.19054827      -0.09901035
C        3.66458144       4.98991490       7.41363061       0.26051317      -0.30689433       0.50203052
C        6.16084481       5.00376026       7.33993185       1.51993849       0.00303827       0.58467632
C        8.61653566       4.99287159       7.39804264      -0.21983729      -0.64475991       0.72511948
C       11.07250654       4.96349498       7.54160254       0.76107842      -1.11065332       0.89022981
C       -2.48240019       7.07640549       7.67159861       0.69568729       2.54738962      -0.31040697
C       -0.02258015       7.06773051       7.77169960       1.09176085       0.58337739      -1.24607718
C        2.44414311       7.12563275       7.67190129      -1.21863348      -0.70289564      -0.60739998
C        4.92132240       7.09697612       7.54529506      -0.74724743       1.41510818      -0.01759612
C        7.41077954       7.11039242       7.42789063      -0.85226105       2.12421998       0.60914885
C        9.83386461       7.04009533       7.42841988       1.01287941       1.46181510       1.68432300
C       -3.70647005       9.16944498       7.55353413       0.79611767       2.76624501       0.16325091
C       -1.13592804       9.21612108       7.69492756      -5.15510683      -0.16715487      -1.02849731
C        1.21844235       9.28120320       7.63453883       1.52225557      -3.21637549       0.56257383
C        3.66178664       9.23557727       7.56423221       2.40646000      -0.06989698      -0.02865289
C        6.16914985       9.24122136       7.44639652      -0.66202924      -1.35085272       0.84905000
C        8.65604643       9.22059157       7.47603629      -0.98179683       0.20628089       0.32141926
C       -4.90622810      11.38614257       7.44563057      -1.65853740      -1.24567583      -0.52631819
C       -2.46053735      11.39551036       7.29567402       0.98768697      -2.47634593       0.99979712
C        0.01452842      11.31121201       7.38527176       0.15552243       2.46893729       0.40765561
C        2.51543429      11.35705941       7.55074039      -2.25220204       1.22252561      -0.54857700
C        4.91437973      11.31663173       7.64614551       1.22708521       1.55502402      -0.23526545
C        7.38027400      11.34049221       7.62828393      -0.47144647       0.19925741      -1.17806996
72
Lattice="14.76 0.0 0.0 -7.38 12.782534959858314 0.0 0.0 0.0 15.0" Properties=species:S:1:pos:R:3:REF_forces:R:3 REF_energy=-11165.088349122692 config_type=fd_force_conv_snapshot_027 snapshot_index=27 split=validation degauss_Ry=0.0019000869 kgrid=8 lattice_temperature_K=450.0 trajectory_seed=0 pbc="T T T"
C        0.07398286      -0.05536097       7.38403688      -3.89513747       3.59136703       1.27429041
C        2.44344303       0.06692209       7.46474295      -1.26178842      -2.80947759      -0.34556783
C        4.81490413       0.01891656       7.62178147       3.29473115      -1.91993966      -0.37639536
C        7.30905493       0.00032304       7.64238226       1.61770931      -0.91270408       0.04882782
C        9.83757405      -0.00482807       7.56237337      -1.51149756      -0.93586510      -0.25540105
C       12.31495626      -0.04494564       7.40401795      -0.44433522       0.05070035       1.29941908
C       -1.22964352       2.13520992       7.43805203       1.03585041       0.60330704       1.36636675
C        1.19893692       2.13654689       7.56301022       0.06148485       0.22147303       0.23295017
C        3.65390564       2.15559962       7.64668553       1.27825325      -1.23204255       0.24129032
C        6.17530137       2.09656267       7.71368458      -0.46388460       1.97204949      -0.28440155
C        8.63372397       2.14143457       7.72288140      -0.43827564      -0.52137010       0.16079242
C       11.06927332       2.09052149       7.50496948       1.95273922       1.62091471       0.65199782
C       -2.49223400       4.30825503       7.31429718       3.22925775      -0.35069590       0.62841489
C       -0.01402649       4.29992256       7.51252288       0.08171429       0.30767003      -0.57331487
C        2.43590023       4.30204981       7.61320484       0.89372986      -1.17425315      -0.38155068
C        4.92041848       4.21681970       7.69678328       1.44409377       2.38083381       0.73021001
C        7.44566210       4.29614786       7.78451329      -1.98369376      -1.08165102       0.09132301
C        9.92125728       4.22876236       7.57032315      -2.35657366       0.68034321       0.42595158
C       -3.69899480       6.37926080       7.24554967       0.32193580       0.40509813       0.04974468
C       -1.22246512       6.46624199       7.15989652      -1.03962582      -3.86607141       0.61452477
C        1.16608874       6.45022017       7.34057834       2.16648943      -1.73222008       0.32444622
C        3.72867341       6.40599799       7.51748988      -1.43173885       0.06585109       0.55617641
C        6.19116899       6.42708271       7.75434908      -0.57292509      -1.14802533       0.46202312
C        8.69289722       6.41362160       7.63487378      -2.05100087      -3.35383772       0.26642285
C       -4.96977260       8.48565742       7.44461723       1.55917326       0.51850923      -1.51035059
C       -2.45231099       8.45294604       7.25968821      -1.28711044       1.50108073      -0.23735139
C       -0.02568981       8.51053137       7.37563216       0.06030008       3.53116928      -0.69468611
C        2.45959055       8.55084038       7.32665265      -1.14299959      -0.68677379       0.11821315
C        4.86369392       8.53804305       7.63112846       2.94798549       0.16530882      -0.97530068
C        7.38964965       8.49396191       7.54880069      -1.29151371      -0.11812419       0.24851152
C       -6.18031467      10.64484003       7.32220796       2.40581954       0.44115657      -0.06923929
C       -3.66101876      10.59723860       7.39241111      -1.96433336       0.89901630      -0.53116292
C       -1.21313784      10.64727401       7.33063382      -0.44689912       0.31086231       2.37636704
C        1.25047750      10.67527074       7.45512210       0.09899878      -1.03754991       0.13783118
C        3.68838190      10.62264266       7.45138215       1.23266116       0.47259087      -0.43714127
C        6.18164253      10.59991423       7.49094509      -1.11201137       1.77223287       0.11723073
C        1.20348664       0.73122450       7.48903910       1.19836650      -0.30370256      -0.46754431
C        3.63677958       0.70532511       7.62702554       0.47570834       2.75068623      -0.19056400
C        6.08232812       0.70950686       7.61109572       0.41068976      -0.85306452       0.82762371
C        8.55225467       0.72242715       7.68581666       1.55146921      -1.09107771      -0.42312362
C       11.04625251       0.68007666       7.47772609       1.95247414       0.14622069      -0.00709136
C       13.54529578       0.68674783       7.51099553       0.16249398      -0.15915514      -1.71173173
C        0.02203657       2.88557940       7.56700875      -2.20664903      -1.04891702      -0.76915322
C        2.41664720       2.81142530       7.61666020       1.19456384       3.15862517       0.15786882
C        4.94163491       2.82362389       7.69718919      -1.22492368      -0.52622588      -0.00370136
C        7.42081227       2.85173508       7.74156343      -0.85448891       0.05762305       0.22232072
C        9.88878814       2.81186396       7.68958807      -0.35781888       0.46684137      -1.00931843
C       12.33644178       2.90832281       7.48809236      -2.03813250      -2.99885605      -1.04998582
C       -1.23068826       5.02999370       7.32423852      -0.14965672      -0.41919292      -0.41909804
C        1.21932336       5.01054668       7.47749102      -0.46108030       0.61867170       0.16279531
C        3.72401909       4.98029550       7.64162532      -1.60371094      -0.32841009      -0.54481933
C        6.15766015       4.99279883       7.81417024       0.74085566      -0.47547077      -0.80034482
C        8.67552714       4.95306683       7.70263745       0.85258244       1.04742295      -0.32089450
C       11.07355188       4.99164476       7.32477962      -0.70931903      -0.91495174       0.25300144
C       -2.47223956       7.06070028       7.13989207       0.09947675       1.17749711       0.41055324
C       -0.04014488       7.15514959       7.27074845       1.25009735      -0.99611273       0.03011070
C        2.42243306       7.11050733       7.35743277       1.70178696       0.69768144       0.37854095
C        4.93859274       7.15158353       7.68099371      -0.47419370      -1.77156258      -0.46358096
C        7.45993655       7.07433911       7.71312779      -1.50699427       1.34460828      -0.42835659
C        9.85645377       7.08068973       7.41978094       0.52431144       1.05933101       0.17249403
C       -3.70101285       9.11366247       7.30996493      -0.34144636       3.57009167       0.64929019
C       -1.26286434       9.23215794       7.32571133       0.78589111      -0.71888559      -0.39999115
C        1.19017679       9.27021827       7.37562766       1.66018959      -1.68051442      -0.10824267
C        3.70801772       9.23851895       7.37916872      -2.34526209      -0.89586901       0.91394336
C        6.13330569       9.21470629       7.56286518       0.88244940      -0.90195353       0.28551432
C        8.56271970       9.21196790       7.38062668       1.63300223       0.65178648       0.66482814
C       -4.92993388      11.42257727       7.28349398       0.63796269      -2.96307864       1.35935793
C       -2.46366081      11.34974406       7.52201431      -0.36065533       0.08946899      -1.17917964
C        0.03370083      11.32591880       7.58406710      -2.24908406       2.24121160      -1.41560903
C        2.50553242      11.32987455       7.43477243      -2.08567657       2.26853574       0.75799618
C        4.91931113      11.29046149       7.50643027       1.36604382       1.98204749      -0.74571736
C        7.40657403      11.37169108       7.42431725      -1.09890595      -2.91228392      -0.53965347
72
Lattice="14.76 0.0 0.0 -7.38 12.782534959858314 0.0 0.0 0.0 15.0" Properties=species:S:1:pos:R:3:REF_forces:R:3 REF_energy=-11165.789206750045 config_type=fd_force_conv_snapshot_033 snapshot_index=33 split=validation degauss_Ry=0.0019000869 kgrid=8 lattice_temperature_K=450.0 trajectory_seed=0 pbc="T T T"
C        0.02021281       0.02025784       7.55962945      -0.21297039       0.89569752      -0.99912606
C        2.49189723       0.01992459       7.42047033      -0.23577376       0.14438775       0.09095252
C        4.94933201      -0.02728551       7.34428411      -0.02333919      -1.91010159       0.29070512
C        7.41723417       0.01851308       7.31143044      -0.80174093      -1.80818641       0.18274964
C        9.83683843      -0.06207677       7.48683809      -0.75693483       2.61211843      -0.14060566
C       12.27253482      -0.02783751       7.64337446      -0.80617814       0.12869965      -1.18701945
C       -1.30015513       2.09711132       7.57559667       1.41167036       1.46180173      -0.17602184
C        1.19232124       2.09706729       7.38209307       2.38472749       0.96569786       0.45378685
C        3.69477591       2.09377976       7.30640048      -0.28018982      -0.20041646       0.48565105
C        6.08366936       2.04202034       7.29268955       2.42961793       2.57602657       0.40898512
C        8.58874316       2.17215835       7.47771297      -1.47383681      -1.49203379       0.00071605
C       10.96170795       2.16045089       7.75408103       3.38690725      -0.46602248      -1.30610601
C       -2.47363288       4.35432717       7.65117460       0.57177349      -3.21472073       0.60329136
C       -0.01192055       4.23989092       7.61800651       0.57932559      -0.53759093      -0.17538446
C        2.48117488       4.20293654       7.34411008      -0.62897102       1.88304716       1.01029802
C        4.94502754       4.22008365       7.27855102       0.52376045       1.25848044      -0.53470538
C        7.39728152       4.24021325       7.26563484      -1.31272274      -0.14094968       1.54705617
C        9.81963376       4.31916156       7.64828693      -0.36034371      -0.44888864      -0.21395743
C       -3.67137735       6.38588046       7.69957323      -1.47827016       2.63804157       0.90711528
C       -1.21111204       6.43265227       7.86903388      -2.04619034      -2.62105815      -0.63534839
C        1.22304701       6.42029996       7.62869729       0.43468433      -2.61847857      -0.59443494
C        3.66655792       6.41491613       7.32030322       1.53086233      -1.45294942      -0.35114070
C        6.13004421       6.42510708       7.24610836       1.18952731      -0.54684433       0.08928953
C        8.54975786       6.42155770       7.50477397       1.26515836       0.58284518       0.01120847
C       -4.87828048       8.47090881       7.60405750      -0.68434461       3.95282223       0.23282342
C       -2.43106326       8.52367000       7.74165752      -2.59292900      -0.66928155       0.08270519
C        0.00101895       8.48100327       7.61431269       0.31492491       0.57819919       0.29999503
C        2.45330733       8.52459584       7.48141651       1.53445468       0.36971718       0.75408605
C        4.94651120       8.55982181       7.40550444      -0.30814646      -0.70332321       0.23896090
C        7.41126136       8.57715178       7.46428098      -1.52638733       0.09760756      -0.45038220
C       -6.11387346      10.65706679       7.44770792      -0.24812894       1.27401350       0.18738097
C       -3.67812509      10.69600644       7.59344890      -0.27755984      -1.59704073      -0.19778442
C       -1.19805142      10.63473671       7.63143535      -0.12500832      -1.66483763      -1.55203280
C        1.25725990      10.63378415       7.46987920      -1.25915098      -0.91511912       0.69818615
C        3.67491712      10.64981235       7.45193817       2.05640302      -1.36446619       0.57387511
C        6.18323408      10.69633515       7.45910064      -0.59126168      -0.67126670      -0.49317332
C        1.28347101       0.72026406       7.44190083      -2.57565941      -0.81256707       0.19252163
C        3.73227137       0.65780180       7.35938617      -0.14004490       2.06381911      -0.31518794
C        6.15894120       0.66836404       7.26917238       0.03616565      -0.71378812       0.29461088
C        8.61902652       0.73946886       7.34690339       0.78758109      -1.08585091       0.97369939
C       11.01486476       0.71045938       7.63178672       0.85547518      -0.30488141       0.39383335
C       13.47343251       0.68764347       7.59536582       1.65492423       0.10977376       0.33615631
C        0.00040945       2.78048237       7.46522796      -2.85688385       1.88849738       0.76594706
C        2.45280154       2.79824317       7.38625982       0.14828658       0.04358765      -0.93233291
C        4.92188219       2.80107203       7.31666805      -1.36224090       0.04203831      -0.52716562
C        7.29794986       2.79284902       7.43314000       2.00984960       1.23817412      -1.48071502
C        9.77612180       2.88992448       7.66039486       0.37873095       0.60442599      -0.10882965
C       12.27546192       2.88214219       7.63435905      -1.77357653      -0.32355251       0.62617906
C       -1.22215758       4.99265718       7.75395819      -0.12140981       0.31410242      -0.18732389
C        1.22881151       4.94651772       7.58528063       0.86076909       0.56674544      -0.72243936
C        3.73052850       4.94532551       7.26677708      -1.68221598       0.58159896       0.55020965
C        6.18284544       4.96745783       7.20662325      -0.93452966       0.43470850       0.27954910
C        8.58602135       4.99891160       7.49166638       0.05260888      -0.28873257      -0.42959611
C       11.05506464       5.02586931       7.68650889      -0.00406466      -1.70757425       0.00396696
C       -2.46041270       7.11215261       7.84756837       0.13859454      -0.31741811      -0.68963980
C       -0.02803888       7.07388011       7.70938006       2.87730201       1.77713339       0.18322452
C        2.45697378       7.12158117       7.44343303      -0.85432693      -0.76349963       0.42034451
C        4.91930455       7.12230432       7.28257802      -0.88071262       0.32704329       0.35159116
C        7.35642143       7.19385074       7.37949528       0.08701024      -3.00945877       0.09506525
C        9.81996408       7.11052263       7.66121919       0.59101126      -2.11411734      -0.54348467
C       -3.65348760       9.26600346       7.68666287      -1.19660401      -1.11086543      -0.29022561
C       -1.23939881       9.14124961       7.61096773       2.83346213       4.24636122       0.87173356
C        1.24317578       9.21647856       7.59644474      -0.97483839      -0.14558332      -1.01647021
C        3.72030667       9.24306369       7.52280159      -1.48587677      -0.56072340      -1.26628579
C        6.16210599       9.27892297       7.45005278       1.00417956       0.07671221      -0.28025307
C        8.63665301       9.22919755       7.48447257       1.47125876       0.82946899       0.33582515
C       -4.90902738      11.43430373       7.49769945       0.26929066      -3.45661989      -0.01982449
C       -2.42835315      11.30966958       7.50941346       0.31048565       2.29832094       0.25781583
C        0.02975715      11.33313261       7.45137768      -0.18808957       1.35309420       0.10207485
C        2.46892619      11.31118315       7.48618393      -0.52455415       1.73387304      -0.51683210
C        4.92063645      11.32388979       7.43184404      -0.29747329       2.33732226       1.25711672
C        7.41503539      11.42827498       7.42343133      -0.09730314      -2.52719515       0.89254689
72
Lattice="14.76 0.0 0.0 -7.38 12.782534959858314 0.0 0.0 0.0 15.0" Properties=species:S:1:pos:R:3:REF_forces:R:3 REF_energy=-11165.336708919858 config_type=fd_force_conv_snapshot_039 snapshot_index=39 split=validation degauss_Ry=0.0019000869 kgrid=8 lattice_temperature_K=450.0 trajectory_seed=0 pbc="T T T"
C        0.00101552      -0.03168405       7.52349020       0.81469003       0.72965105      -1.25009967
C        2.45712180       0.01474553       7.57968238      -1.66238917      -2.43610919      -0.43069192
C        4.84999859       0.05229050       7.56534611       1.81098325      -0.91142933       0.13715164
C        7.36989598      -0.03898842       7.57601200      -0.04977476       1.65801110       0.40145590
C        9.82456710      -0.01744156       7.41313399       0.41106463       2.10730598       0.77539123
C       12.32375462       0.00601072       7.33910051      -2.18706185      -1.75930665       0.25624077
C       -1.21166690       2.08389291       7.35772234      -0.51018760       0.75395775      -1.59126140
C        1.26175715       2.11250369       7.60156744       0.03266587       0.62880596      -1.44839163
C        3.70895072       2.11587343       7.73163937      -0.74310178       0.95978998      -0.29760313
C        6.15785000       2.09639640       7.69732221       0.87145459       0.88671280       0.57471021
C        8.58670839       2.10713738       7.57833910       0.92592495       0.31085563      -0.15577029
C       11.08173455       2.14405833       7.37060885      -1.90901273      -0.79602022       0.16500440
C       -2.43043947       4.26711338       7.24636956      -0.92501735      -0.97807670      -0.52655987
C        0.02019364       4.22890413       7.37804751      -0.05444954       0.09703318      -0.03169347
C        2.49244435       4.23300800       7.67292220      -0.67150401       2.93060869       0.49413286
C        4.94325190       4.24796325       7.79444821      -0.67087126       0.33373819      -0.64014709
C        7.40376997       4.23874583       7.69303288      -0.22225104      -0.40557841      -1.33091150
C        9.90336936       4.27787857       7.41967740      -2.99376758      -2.13834022      -0.31843061
C       -3.65106928       6.37640974       7.30803164      -0.93103811       1.68111323       0.06130281
C       -1.23620008       6.37176859       7.41780057       0.06529162       1.09805748      -0.39942987
C        1.17888887       6.42136694       7.57986621       1.40117538      -1.29213952       0.09515216
C        3.69653874       6.45702247       7.51270375      -0.28293705      -1.04255045       1.54800568
C        6.16562123       6.38819064       7.63417133       0.54965635       0.70035307       0.13695007
C        8.61577132       6.27110393       7.43068647       1.14631477       5.09063411       0.59206155
C       -4.94534978       8.52827032       7.32053350       1.05093456      -1.12916783      -0.37214636
C       -2.46864514       8.52210101       7.30233264      -1.28415213       0.51197863       0.29223981
C       -0.06403704       8.56566912       7.46917642       1.27571531       0.36562064       0.55579100
C        2.41504568       8.54838813       7.78573052       0.70640185      -0.49986436      -2.14288593
C        4.93155675       8.60294107       7.62410123      -1.46024364      -2.40341453      -0.54323862
C        7.44391046       8.50095703       7.52176718      -3.27204476      -0.16066309      -0.04320867
C       -6.18545652      10.69908900       7.27429190       2.98304865      -2.58801279       1.05063528
C       -3.67387323      10.66527846       7.30215238      -0.51242986       0.07563183       0.69380473
C       -1.29012945      10.70086169       7.62043595       2.03740231      -1.08310729      -1.80467891
C        1.26681753      10.65067971       7.68712868      -2.61529965       1.63227615      -1.33768070
C        3.66322220      10.65018295       7.57250658       0.96956249       0.68374915      -1.04188453
C        6.13697189      10.67510059       7.34975295       0.81465481      -1.79489714       0.04708898
C        1.23919932       0.69203150       7.56156041      -0.95886593       0.34936304       0.65594524
C        3.59836572       0.73715509       7.59839817       4.22924127      -0.19805722       0.43765755
C        6.14741486       0.69860494       7.67741921      -1.26675990      -0.51206193      -0.87009113
C        8.59312282       0.69884376       7.51995089       0.15519333      -0.86151805      -0.14916204
C       11.06914451       0.72088942       7.42977908       0.66042204      -0.67825881      -1.04446309
C       13.54661564       0.65461891       7.38440656       0.06792983       1.88849918       0.52370235
C        0.03450831       2.78973325       7.29656201      -0.21333240       0.68651823       2.05788012
C        2.52312856       2.86030802       7.64946485      -2.00137267      -1.99610499       0.57252091
C        4.93863642       2.78676029       7.78958374       0.04448703       1.93265145      -0.19135847
C        7.40038887       2.82808212       7.66623050      -1.69289428      -0.33164017       0.40464767
C        9.79678192       2.82453327       7.49856183       3.17809434       1.13779620      -0.71465098
C       12.29153379       2.82708980       7.19022343       1.77123734       0.21985169       1.55010910
C       -1.22304513       4.96090662       7.27260992       1.27544149      -0.15478992       0.82533877
C        1.23038179       4.93381753       7.63972620      -0.37503602       1.41276102      -1.44676155
C        3.69139867       5.01457880       7.74539313       1.28781338      -0.64201757      -1.18123858
C        6.18021743       4.95545841       7.65688864      -1.00882092       0.19277874       0.96720119
C        8.60761210       4.91855159       7.42179099       1.60634015      -1.16974807       1.17406469
C       11.09890060       4.99123620       7.29776132       0.75305529      -1.57120860       0.14523133
C       -2.44462439       7.11098005       7.37275241      -0.05818149      -0.73892142      -0.69261971
C       -0.04107212       7.14018686       7.49028430       0.29161452      -0.62453767       0.01256087
C        2.41669155       7.14400663       7.57363179       0.63607601      -0.68428471       0.79626551
C        4.95274654       7.16200259       7.54943535      -0.72043622      -0.94773742       0.72935049
C        7.44917831       7.06373650       7.68801944      -1.35216732       0.20948757      -1.91966841
C        9.86785465       7.06382832       7.33184263      -1.38401455       0.26669333       0.14488038
C       -3.70929604       9.24570348       7.25777403       0.38498799      -0.67582424       0.20534938
C       -1.30205980       9.27513509       7.41312392       1.73804800       0.11809154       0.72881596
C        1.22138217       9.27083864       7.61225277      -1.45484870      -1.54675149       0.98364031
C        3.65376231       9.25344084       7.67652370       0.59101151       0.03054548       0.44148490
C        6.12573083       9.25138475       7.47667662       3.16266206       0.28683433       0.27817871
C        8.59154607       9.23213518       7.32386079       0.92036931       1.11977919       0.05297450
C       -4.89910122      11.35079014       7.45789889      -1.39756735       1.10891885      -1.30698250
C       -2.45559135      11.41856065       7.42465778      -1.98391231       0.05158301       0.77820505
C       -0.01081896      11.36147728       7.61261971       0.32272950      -1.23750460       0.61038478
C        2.45052517      11.38526261       7.51083722       0.52423894      -1.32611356       0.89773281
C        4.91810372      11.32386391       7.34198497      -1.20272015       2.18385234       0.87219867
C        7.38687495      11.36079624       7.33788065      -1.43947041       0.88386891       0.50027163
72
Lattice="14.76 0.0 0.0 -7.38 12.782534959858314 0.0 0.0 0.0 15.0" Properties=species:S:1:pos:R:3:REF_forces:R:3 REF_energy=-11165.527508204621 config_type=fd_force_conv_snapshot_045 snapshot_index=45 split=validation degauss_Ry=0.0019000869 kgrid=8 lattice_temperature_K=450.0 trajectory_seed=0 pbc="T T T"
C       -0.00190559      -0.03874888       7.47161482      -0.11018205       1.68452586       0.87597716
C        2.50120468       0.04827649       7.57373200      -4.13517155      -1.92768357      -0.34669449
C        4.90809255      -0.00612513       7.59212762      -0.49176256       1.02986488      -1.97688625
C        7.32429062       0.06615076       7.34914755       0.87166079      -1.27953417      -0.53340826
C        9.78668730      -0.05786650       7.53704728       0.30844213       1.52377740      -1.79383451
C       12.27662927      -0.03369305       7.63258621      -0.27218264       0.44577889      -2.20971096
C       -1.22239854       2.10419383       7.50067722      -0.78266797       0.20013904       1.55890793
C        1.22042043       2.10110375       7.50611326       0.35443171       1.86006073       0.18808802
C        3.69472217       2.09426988       7.44659630      -2.26041080       1.87434063      -0.25930681
C        6.06652504       2.11961003       7.36824760       3.16380466       1.40982765       0.14902114
C        8.58113210       2.15032612       7.47224079       1.93433193      -1.09043519      -0.70925141
C       11.05225673       2.07890834       7.68122619      -0.02729946       1.73458678      -1.07296917
C       -2.46255508       4.25561150       7.65636664      -0.69014631      -0.42693579       0.02444091
C       -0.01536795       4.24776817       7.46063711      -0.60853975       0.89824189       0.10627501
C        2.48499282       4.25376756       7.44100389      -1.40476541      -1.30233651      -0.32799743
C        4.96913671       4.25197506       7.42346034      -1.53446959      -0.18734909       1.04758647
C        7.44418135       4.19717765       7.40269709      -1.72360920       3.85977940       1.31663339
C        9.86229964       4.29800190       7.56299682      -0.79264025      -0.65898994       0.12412052
C       -3.70687627       6.42387306       7.71208615       3.52332844      -1.67477855       0.38027284
C       -1.27573073       6.39311440       7.61362521       0.93324951       0.21431662      -0.49217522
C        1.21231909       6.42707001       7.42311024       0.86011268      -3.10632174      -0.57388874
C        3.71358677       6.37827147       7.30195829       0.78068256      -0.81177157       0.90923361
C        6.21451954       6.36536988       7.45985472      -0.64948791       0.90033708       0.83003386
C        8.64236420       6.43735815       7.55488632      -0.45277924      -1.10574174       0.59339441
C       -4.89695501       8.53757161       7.70115507       0.07977799      -1.03973715       0.32596934
C       -2.39529772       8.56339907       7.70050951      -2.45282419      -0.70331216       0.11879319
C       -0.02973361       8.49238239       7.40801593       1.54711916       2.26999176       0.53893716
C        2.46850385       8.49324383       7.32818606      -0.88154848       0.41599009       0.63954520
C        4.93601521       8.52472557       7.42990152      -0.57870184      -0.99833262      -0.14510226
C        7.37345031       8.56115618       7.62293115       0.10077850      -0.24880977      -0.78861853
C       -6.16730804      10.69872578       7.59836494       1.72481530      -2.05328401      -0.30523468
C       -3.67435966      10.65719625       7.63295217      -0.54032761       0.67650481       0.44475842
C       -1.20905157      10.66356278       7.44120931      -0.19268593       1.37711602       0.75724670
C        1.23840975      10.62948906       7.34686647      -2.06288683       1.29322375       0.12180447
C        3.73398259      10.63185452       7.32124411      -2.13076961      -0.20311895       0.41677788
C        6.09766915      10.69355690       7.32277106       4.78042023      -2.22388416       0.67594868
C        1.22957593       0.71716546       7.59453644      -0.37121330      -1.34106684      -1.04044215
C        3.65161142       0.72042203       7.45346710       3.89608595      -0.74417290       1.35272114
C        6.08273975       0.74490241       7.32372202       0.42209749      -1.53685763       1.44645404
C        8.57575762       0.73039848       7.37536698       0.55591261      -0.77974823       1.18279641
C       11.03485189       0.66865596       7.55824811      -0.22971007      -0.37844042       1.45807569
C       13.48909933       0.65121802       7.55930668       1.89494340       1.97003606      -0.32571223
C        0.01199090       2.85261192       7.51459982      -1.27648536      -1.77293015      -0.59592283
C        2.45009384       2.81426196       7.44187866       0.74982856       0.23555624       0.36789118
C        4.87929438       2.80838264       7.45130458       1.26682778       2.06044042      -0.48855768
C        7.39064810       2.83642945       7.41557951      -2.35366008      -1.52579597      -0.46196939
C        9.83219371       2.84621931       7.51668351       0.36201158       0.21104643       1.04849715
C       12.30325657       2.82913671       7.67324579      -0.20294411      -1.22432539      -0.73807244
C       -1.29722610       4.98623258       7.51940330       2.94981534      -0.74235539       0.58092996
C        1.22423703       4.91834214       7.41909413       0.17595267       3.14659678       0.31582300
C        3.70239451       4.94732450       7.42154829       1.52111888       0.89165652      -0.61030816
C        6.21308260       4.94860988       7.54830975      -0.58137142      -0.71721077      -2.06280738
C        8.59973622       5.01798288       7.49843536       2.23763494      -1.71092234      -0.17396495
C       11.09535836       4.98724220       7.70188122      -1.26982389       0.25274073      -0.47606238
C       -2.45410842       7.14243273       7.73457911      -0.27715618      -0.31461767      -0.32932952
C       -0.03048784       7.10472147       7.48186059       0.23867911      -0.72418926       0.03138237
C        2.49083051       7.06591125       7.30162886      -1.76524487       1.18369681       0.44671400
C        4.96476271       7.08071732       7.40606550      -0.12228167       0.22002781      -0.18744113
C        7.42326771       7.13441870       7.57981473      -1.21096928       0.16349825      -0.37708647
C        9.88726225       7.08219969       7.68750999      -2.82593599       2.93439567      -0.29945484
C       -3.66732852       9.23244630       7.73508765       0.35128905       1.17273517      -0.58990440
C       -1.21189845       9.26730559       7.52065086       0.59295861      -0.99901165      -0.24042797
C        1.23567880       9.23949998       7.39659756      -0.84054093      -2.45040272      -0.91005122
C        3.66886663       9.19834767       7.42407539       2.05385557       1.23689037      -1.34151164
C        6.12259726       9.28002169       7.43961361       0.95453902      -1.03848451       0.21265723
C        8.62972389       9.22641569       7.66348120      -0.49049681       1.91165145      -0.18571438
C       -4.92638412      11.41323403       7.56885597       1.01512552      -1.43258706       0.78286003
C       -2.42281469      11.37725375       7.62806374      -1.46152739      -0.80847928      -0.63669333
C       -0.02650410      11.42756277       7.34567021       1.35188347      -1.73857764       0.22136530
C        2.43746158      11.30863286       7.36009142       2.24790804       1.16345092       0.49526183
C        4.96220537      11.37605769       7.29657308      -4.48521259       0.47531521       1.48587240
C        7.38232132      11.35577262       7.44502232      -1.26098958       0.12439537       0.03344465
72
Lattice="14.76 0.0 0.0 -7.38 12.782534959858314 0.0 0.0 0.0 15.0" Properties=species:S:1:pos:R:3:REF_forces:R:3 REF_energy=-11164.940671037657 config_type=fd_force_conv_snapshot_051 snapshot_index=51 split=validation degauss_Ry=0.0019000869 kgrid=8 lattice_temperature_K=450.0 trajectory_seed=0 pbc="T T T"
C        0.05936977       0.10415540       7.52483351       1.13036314      -4.49086207      -0.48255493
C        2.54109217      -0.00388008       7.52024331      -2.25349427      -1.05937009       0.40776771
C        4.96353353      -0.01716286       7.59068249      -1.13454092      -0.29218711      -0.81580203
C        7.39923850      -0.02795397       7.58473559       0.05060008      -1.01684379      -0.61064626
C        9.89155988       0.04490481       7.53905676      -0.46145028      -0.11474396       0.05126394
C       12.38395130      -0.02334921       7.54647434      -0.40309935       2.49600252      -1.19642789
C       -1.22647143       2.19354259       7.46630499       0.97596556      -1.91171856      -2.07648950
C        1.26055207       2.16432144       7.54443638       1.09563962      -1.14688016       0.36690285
C        3.77099428       2.10663440       7.60260182      -4.96782948       0.09539204       0.64511729
C        6.16103390       2.06504696       7.82735353       0.18092647       1.47054194      -0.54635942
C        8.58699164       2.18749610       7.60878399       1.36154259      -2.68739081      -0.67393036
C       11.08900182       2.13645715       7.37161103       0.46068204       1.65196978      -1.00374762
C       -2.46957967       4.29563526       7.19311347       0.20800019      -2.87117070      -0.45512820
C        0.00325661       4.30542933       7.34728468      -0.81825204      -1.53304880       0.61414887
C        2.40629816       4.26770858       7.66468444       2.29038009      -0.29985002      -0.78293845
C        4.92991110       4.18871764       7.81624786      -1.69018048       2.12284084       0.05481129
C        7.36609558       4.23538202       7.73360917      -0.11922797       1.51837423      -0.76243133
C        9.81748843       4.26635849       7.16705526      -1.19395629      -1.98322737       1.15583994
C       -3.78545459       6.33406605       7.18851203       1.31797679       1.10757673      -0.45045059
C       -1.30825604       6.39934684       7.29101970       1.72212490      -1.07262104       1.14996137
C        1.16400362       6.43115214       7.48571072       3.05668710      -1.80503012       0.35057737
C        3.64448294       6.37061321       7.66639758       0.96204510       2.02365153       0.04019766
C        6.06641676       6.34943432       7.59860310       2.04276512       1.96410890       1.16372937
C        8.54698242       6.36799439       7.40270036       0.14340816      -0.62588801      -0.39678318
C       -4.97006286       8.49898840       7.24847404      -0.05769273      -0.09336267       1.05252633
C       -2.46222380       8.43587692       7.30524840      -2.03876911       3.66155069      -1.02760874
C       -0.02063131       8.52905200       7.49446037       0.67818502      -0.19963073      -0.20154209
C        2.42585426       8.53885373       7.67635219       1.29936278       1.36286414      -0.32902767
C        4.89693055       8.57164366       7.50512292       0.88642818       0.49167334       1.56332894
C        7.36844184       8.52026016       7.51678857      -0.24925920       0.02539581       1.54596808
C       -6.14267702      10.64291248       7.56132801      -0.52047484       0.98371590      -0.27497897
C       -3.65827799      10.55998308       7.43703199      -0.75254955       3.23940821      -1.19895580
C       -1.20792428      10.61751966       7.32329047      -0.34433088       0.07151755       0.15287728
C        1.26504555      10.66834746       7.59767436      -0.41848483       0.55370995      -0.67092808
C        3.73889396      10.72024881       7.66720991      -1.15378563      -1.72873957      -0.82442963
C        6.16383995      10.70798013       7.49594988       2.17695176      -1.33663349       0.55367318
C        1.31092970       0.72048059       7.59301112      -0.37375021       1.41070363      -0.84179512
C        3.72033799       0.71957191       7.56283269       1.92117019      -1.62269957       0.03952994
C        6.17708995       0.66216907       7.67315971       0.37842705       0.92949647       0.23530762
C        8.59623162       0.71611654       7.53926334       1.74601893       0.84112817       0.74265055
C       11.17050591       0.76674627       7.51605733      -1.90710471      -2.77977878       0.12770901
C       13.60681282       0.70535906       7.39508154      -2.32209799       3.10522156       1.75183888
C        0.03336997       2.87144537       7.45896387      -0.94984213       0.50339166      -0.06321366
C        2.50316521       2.84076404       7.62454617      -0.70242358       0.37851755      -0.40011507
C        4.90409944       2.77767423       7.79470315       4.18182550       1.31118394       0.19848299
C        7.37705020       2.85126811       7.74976445      -1.22362373      -1.53201213       0.36945621
C        9.82953994       2.84389149       7.37756868       0.05444722       0.29594092      -0.21760532
C       12.32080358       2.86631027       7.15662727      -0.48782672      -0.17570996       2.38763824
C       -1.27340823       4.96152638       7.34375390       1.55417401       2.20729438      -1.15256718
C        1.21802373       4.98591056       7.41726536      -0.44291006       1.16868903       0.92789776
C        3.66199309       4.96221755       7.73522543       0.65621649      -0.89868772       0.03940036
C        6.13142947       4.95018541       7.80273133      -0.74524865      -0.69097935      -0.59703818
C        8.54731387       4.93461533       7.39012921       1.57097411       0.70043664       0.21840390
C       11.06235179       4.90961360       7.09469889      -1.91166122       3.12392222       0.47344525
C       -2.54460833       7.08318976       7.29458121       0.49253621      -2.39192658      -0.60917199
C       -0.02715992       7.08533415       7.45012180      -2.51682537       1.83878819      -0.48965580
C        2.43015780       7.12845988       7.63176068      -0.86389041      -0.82698479      -0.22660418
C        4.89040584       7.15771322       7.62096151      -0.95454622      -2.39420895      -0.45579051
C        7.34944340       7.06177140       7.58917393      -1.61820348       1.18072873      -1.12821344
C        9.75951668       7.07592532       7.19023410       0.36571037      -0.57369616       0.67051748
C       -3.74566848       9.18200711       7.22166422       2.86189647      -0.57034910       1.04174801
C       -1.23997835       9.18971073       7.30566923      -0.40609649      -0.01510755       0.75269276
C        1.21526227       9.28674866       7.63202530      -0.02810190      -2.76991268      -0.26307579
C        3.68226250       9.30089516       7.62143923      -0.40123196      -1.38370087       0.14945077
C        6.16216994       9.29821322       7.60877120      -0.41348712      -2.11683088      -1.62193235
C        8.61747563       9.23008947       7.57689930      -1.01772234      -0.98688375      -1.86840061
C       -4.91000969      11.32003521       7.49752229       2.04825802       0.71680531       0.24911367
C       -2.39797594      11.37589952       7.35927296      -2.13984509      -2.35554907       1.02676131
C        0.00789040      11.30095361       7.44530074       1.13764604       2.36281038       0.66403599
C        2.50278010      11.38984723       7.58779107      -0.27801416       1.42871163       0.59345226
C        4.97390947      11.36785773       7.54357112      -1.54418913       1.50017725       0.46246613
C        7.39678500      11.40688414       7.48686945       0.81668392       0.50997548       0.72564913
72
Lattice="14.76 0.0 0.0 -7.38 12.782534959858314 0.0 0.0 0.0 15.0" Properties=species:S:1:pos:R:3:REF_forces:R:3 REF_energy=-11164.260882504544 config_type=fd_force_conv_snapshot_057 snapshot_index=57 split=validation degauss_Ry=0.0019000869 kgrid=8 lattice_temperature_K=450.0 trajectory_seed=0 pbc="T T T"
C       -0.06500252      -0.04056957       7.49007497       1.16655990      -0.58325450      -0.93964796
C        2.37648510       0.06794747       7.62183463       2.58896333      -1.45821067      -0.99605719
C        4.85140167       0.08564842       7.50659673       2.85259885      -2.27054300       0.20889030
C        7.33570443       0.05652048       7.47359757      -0.33959362      -1.65172809      -0.98160425
C        9.85498631      -0.05980778       7.47706816      -3.27236384       1.84494212      -0.59020881
C       12.25342863      -0.01341404       7.37977129      -0.29792735       1.17855409       0.93692748
C       -1.22446306       2.06347228       7.64690231      -1.11511161       2.09955821      -0.19913040
C        1.19759557       2.12224859       7.58170709       0.15121583       0.53797994      -1.02433367
C        3.68498961       2.20587569       7.47233549      -1.68692958      -2.41828682       0.14799193
C        6.10896153       2.24236990       7.35967257       0.31182365      -3.49404229      -0.05150408
C        8.60538409       2.17478726       7.47787661       0.35287388      -2.04793458      -0.45655053
C       11.10574490       2.11593193       7.63925883      -1.92562103       1.85704791      -1.09290551
C       -2.41843403       4.27352168       7.77178690      -0.68534066      -1.51241570      -0.30024880
C        0.00239182       4.20436876       7.73027876      -0.38649877       3.72804739      -0.58966991
C        2.41775485       4.23133850       7.36566651       1.63979020       1.94847376       2.24845003
C        4.94512145       4.28737661       7.29859424      -2.15890724       0.05455778       0.09193571
C        7.39210733       4.28074974       7.33735628       1.42267571      -2.03397837      -0.02438897
C        9.89404454       4.25576065       7.55829393      -0.68417775      -0.84057667      -0.26695224
C       -3.55977193       6.36344668       7.74019532      -2.00982928       0.91482653      -0.82513745
C       -1.18848724       6.41278937       7.66874478      -0.90614083      -0.97399558      -0.08855111
C        1.20091664       6.33764966       7.51194996       1.46526655       2.51796309       0.59265445
C        3.66368095       6.35914328       7.38255805       0.62136184       2.46209070       1.13005203
C        6.15767285       6.35747021       7.36705758       3.24092207      -0.74193398      -0.07774013
C        8.73355237       6.35128123       7.45522724      -1.46068382      -1.72699045       0.06222121
C       -4.91103580       8.45180953       7.47210578       0.94992800       1.79345964       1.84919344
C       -2.46480803       8.57261276       7.58200367      -0.10019846      -0.23920927       0.16694301
C        0.00509570       8.54433228       7.58127266      -1.11361986      -0.72202876      -0.85051270
C        2.48998236       8.58850326       7.48722661      -1.73568361      -3.98660729      -0.18064288
C        4.96436472       8.44028374       7.29952681      -1.25288314       2.79847713       0.39934966
C        7.40732501       8.52238559       7.48284097       1.23449719      -2.62315977      -0.48745982
C       -6.18206309      10.64817304       7.50062156       1.55283909      -0.63137938       1.07308590
C       -3.75038742      10.69426821       7.57795597       1.35974539      -0.28260563       0.67996731
C       -1.25888131      10.76420648       7.56395072       0.82646234      -3.92614523      -1.34360709
C        1.20859817      10.60545827       7.46810864      -1.21647375       2.23537982      -0.67314309
C        3.73480034      10.68207511       7.45788948      -2.40203230      -2.94496624      -0.91535129
C        6.19090835      10.59298012       7.30723897      -3.74047687       1.35855805       0.90405258
C        1.17188461       0.70870963       7.35514627      -0.99511797       0.55573624       3.02117451
C        3.68309340       0.76551065       7.58631720      -3.41515699       1.23403670      -0.32451796
C        6.10379559       0.78386890       7.44344320      -0.10253328       0.72572832       0.04361465
C        8.55942396       0.69838795       7.45147048       2.68558282       1.50248867       0.53735105
C       11.01670857       0.75737645       7.42749072       1.88148341      -3.98896705       0.74378363
C       13.47764954       0.64130998       7.51862716       0.98229999       1.86257166      -0.27417216
C       -0.02151649       2.85723416       7.64558764       0.31551987      -4.26234242       0.25029509
C        2.43784060       2.85450652       7.56200393      -0.53599145      -0.87115994      -1.11803598
C        4.85090833       2.88992405       7.26506139       2.67471450       0.84295031       0.89371494
C        7.36857411       2.87048502       7.39285970       0.26767678       0.25846323      -0.19263065
C        9.88008028       2.84939180       7.51140725      -0.52494522      -0.65609359       0.94386097
C       12.31296933       2.84043225       7.70003995       1.43179490      -1.15229747       0.11124829
C       -1.20527105       4.96536085       7.73430650       0.36156087       0.55189758       0.37240655
C        1.22090328       4.94472112       7.57868184      -0.34847755      -0.93244013      -0.71009627
C        3.68890875       4.99657598       7.42564462      -0.52990488      -2.70300590      -1.54531887
C        6.18857469       4.92417401       7.30474851      -1.64960565       3.01387412       0.13220227
C        8.64371901       4.88575209       7.39499897       1.32567647       3.69363729       0.69826971
C       11.11140431       4.95573388       7.71598076       0.89693474       0.45312376       0.12047058
C       -2.39360404       7.14854586       7.67152378      -0.30354804      -0.88890724       0.22432232
C       -0.00138581       7.08906526       7.54742904       1.07366954       1.35089051       0.55408944
C        2.44604683       7.09724871       7.53164894       0.15225816       0.30019429      -1.23097272
C        4.95288932       7.05428267       7.38415226      -1.21422378       0.05855353      -0.54820625
C        7.49186994       7.02246494       7.41995375      -2.74382550       2.57329631       0.11826766
C        9.96588552       7.03843239       7.59286682      -1.60330419       0.82843823      -0.56169065
C       -3.73468701       9.24883874       7.58364782       0.83159658       0.12418788      -0.69278426
C       -1.25579686       9.28367299       7.53471759       1.29759411       0.45345467       0.80807433
C        1.23232705       9.23123628       7.49650467      -0.37173395      -0.57282610       0.46958551
C        3.68965249       9.22370298       7.33965789       3.36554550       0.75253644       0.73841311
C        6.19425604       9.20623883       7.32812546      -1.35183591      -1.77405861       0.21256261
C        8.63614081       9.21482108       7.56297927      -0.60598253      -0.30756693      -1.29765659
C       -4.98049813      11.40995348       7.66413671       0.26453798       0.02609207      -1.18293423
C       -2.46449603      11.40673729       7.54307568      -3.37824675       1.68202983       0.31116390
C       -0.02822108      11.37353303       7.37003867       0.92120029       1.60021527       1.87787667
C        2.42469643      11.28193685       7.46302417       2.59020517       2.84982823       0.15631279
C        4.91891029      11.38699722       7.40444940       1.12103877      -1.97790775      -0.89778911
C        7.33669858      11.29095942       7.45310433       1.98651298       2.57342332      -0.29862026
72
Lattice="14.76 0.0 0.0 -7.38 12.782534959858314 0.0 0.0 0.0 15.0" Properties=species:S:1:pos:R:3:REF_forces:R:3 REF_energy=-11165.247220066252 config_type=fd_force_conv_snapshot_063 snapshot_index=63 split=validation degauss_Ry=0.0019000869 kgrid=8 lattice_temperature_K=450.0 trajectory_seed=0 pbc="T T T"
C        0.01732493       0.03093968       7.45763579       0.20773537       0.42847537       0.89255846
C        2.46506844      -0.00521080       7.42881065       0.58217232       1.76248993       1.49839290
C        4.97237293       0.03785377       7.43843436      -2.10981949      -1.86043276      -0.11581534
C        7.41507777      -0.05005184       7.49380605      -0.85575698       2.25747614      -0.84718286
C        9.85273149      -0.01145343       7.57029040       1.74926880      -0.22490905      -1.85669387
C       12.29531044       0.01829460       7.55153475       2.52676243      -1.67193671      -0.92604605
C       -1.26457527       2.12973373       7.35137830      -0.43560144       2.59367693       0.41366787
C        1.25313709       2.15282664       7.37596606      -1.32674297       0.75109457       0.20494289
C        3.75142879       2.17395034       7.48746448      -3.56119848      -2.51421030      -0.34515389
C        6.14146865       2.13158907       7.58266060       1.44571074      -0.34056113      -0.72947159
C        8.55755473       2.13465055       7.60366277       3.23637173      -0.88075530      -1.88501585
C       11.02674585       2.12178850       7.48483436       1.70820674       0.43560761      -0.82708866
C       -2.48955094       4.36887205       7.45071377       0.42616292      -4.60236773      -0.73199564
C       -0.02776766       4.25725378       7.28324985       0.51972871       0.98675314       0.06081276
C        2.48424738       4.24038897       7.39831966      -1.30646905       1.74265156      -0.61843798
C        4.95001927       4.26188260       7.60609403      -1.61084652      -0.91059758       0.39497030
C        7.35559797       4.26585007       7.62521148       2.48716847       0.23016593      -0.11837925
C        9.85333671       4.28023189       7.49237663      -1.13462474      -0.60511170      -0.35205139
C       -3.72890387       6.39389959       7.44079567      -0.39177467       1.08491323      -0.36221419
C       -1.27868632       6.39916513       7.20054801       3.08854127      -2.49446732       1.25525627
C        1.22007487       6.40696454       7.40551087       0.56031717      -3.23828283      -0.85544150
C        3.75184198       6.34884728       7.61548547      -2.29339599       1.73344007      -0.36997352
C        6.12493855       6.36749643       7.71715108      -0.20712396       0.43121411       0.73677635
C        8.59626054       6.39778280       7.52430086      -1.63707846       0.77651558       1.05336117
C       -4.91794256       8.51454286       7.60726808      -0.98225988       1.58749422      -1.05180282
C       -2.44932809       8.44627678       7.35605309      -1.32299944       1.02383230       0.97807618
C        0.00517446       8.51024851       7.48113024       0.27497717      -0.90149099      -0.31082837
C        2.48643720       8.48816194       7.49049683      -1.67345957      -2.12682065       0.67862494
C        4.90970948       8.54881118       7.60126109       0.68232141      -0.48857054       1.30883112
C        7.34289873       8.51759246       7.53293679       0.30973283       0.78475648       1.81277660
C       -6.14667119      10.67949927       7.61848710      -1.14341097      -0.56045935      -0.13950240
C       -3.70207500      10.69958973       7.52559700       1.08155126      -2.34760256      -0.34132140
C       -1.23008629      10.63855467       7.51829658      -0.30024211      -1.26622100      -0.50393082
C        1.23588210      10.64171235       7.46260856       1.36134410      -0.46176087       0.38140079
C        3.67595751      10.61414259       7.61917046       2.10373137      -0.06749480      -0.74595133
C        6.17490924      10.62576463       7.66685690       0.12481137       5.60539878      -0.53243381
C        1.24896819       0.74332565       7.49840686       0.29947875      -0.28005895      -1.35043568
C        3.73159341       0.73334755       7.48180539      -0.83059385      -0.24616616      -0.60892259
C        6.15441950       0.71254927       7.41902754       2.77259049       0.61276202       1.27271895
C        8.64889461       0.68334853       7.44905846      -2.12194584       0.70208883       1.68906437
C       11.10845760       0.69522825       7.45534025      -2.48353627       0.73001255       1.38935293
C       13.56079517       0.75161645       7.42767792      -1.92045311      -1.89080983       0.36058411
C       -0.04807731       2.88391493       7.34824632       1.75487407      -2.61481423      -0.28385802
C        2.48272556       2.86689246       7.37427363       0.52365324      -1.87640883       0.53546232
C        4.92959414       2.82534827       7.57991025       1.79403223       2.18164325      -0.10343342
C        7.39111850       2.86424003       7.57252349      -2.22082404      -0.95676868       0.67725814
C        9.82589919       2.82699982       7.46210582      -1.55001422       1.26305546       1.24655437
C       12.22739241       2.88022149       7.41068980       1.53469713      -0.01547753       0.29642428
C       -1.25845674       4.97489191       7.31878162       0.89691443       1.26367278      -0.55261312
C        1.23687511       4.92970527       7.27308164      -0.44309466       1.90780251       1.04856040
C        3.68902676       4.95988821       7.52252322       2.41539921      -0.67976008       0.50827418
C        6.16145588       4.94129348       7.74036342      -1.43320438       1.34558684      -0.81906811
C        8.60143587       4.99961759       7.51637423       0.24418435      -1.45973019       0.39807259
C       11.06346028       5.03434376       7.44996970      -1.85964549      -1.98510401       0.25518070
C       -2.48065821       6.99725110       7.31366903      -1.27887005       4.78580746       0.01403308
C       -0.01800922       7.07514057       7.35422169      -0.05271636       1.73897668      -0.18529298
C        2.48606432       7.02388808       7.49351790      -0.03541772       2.40771470       0.23942370
C        4.93914078       7.14210379       7.72815738      -0.53517512      -1.99353518      -1.02999447
C        7.29746634       7.07962856       7.70821641       3.70834811       1.40104322      -1.91935576
C        9.80392868       7.12260996       7.51661018       0.54503685      -0.70316200       0.03166416
C       -3.68031672       9.20529632       7.49328598       0.24671715       1.22785783       0.24486338
C       -1.24996881       9.17289847       7.49232499       0.91629154       1.53467631      -0.57493209
C        1.26936339       9.21032277       7.50525187      -1.55073876       0.25713808      -0.36772149
C        3.65855715       9.16495306       7.62752339       1.73034934       2.90288860      -0.65104189
C        6.13533438       9.30593033       7.65537358       0.45702567      -5.50636940      -0.79152285
C        8.58980413       9.26358216       7.56982002       0.22350163      -1.88647341       0.41349715
C       -4.96098175      11.37600768       7.58318580       3.04343178       0.45920340      -0.82581880
C       -2.42242793      11.37125160       7.42756376      -1.70535873       0.37981853       0.78422786
C       -0.00004833      11.34434422       7.50255787       0.66511379      -0.96274829      -0.13676675
C        2.51692363      11.34755278       7.45946762      -3.11501798       0.19441602       1.17485865
C        4.94044801      11.33333470       7.58744929      -0.98120959       0.86302986       0.79218054
C        7.41988216      11.41980674       7.61524504      -1.83763685      -1.75370987      -0.27519417
72
Lattice="14.76 0.0 0.0 -7.38 12.782534959858314 0.0 0.0 0.0 15.0" Properties=species:S:1:pos:R:3:REF_forces:R:3 REF_energy=-11164.880202716771 config_type=fd_force_conv_snapshot_069 snapshot_index=69 split=validation degauss_Ry=0.0019000869 kgrid=8 lattice_temperature_K=450.0 trajectory_seed=0 pbc="T T T"
C        0.03531212      -0.00118765       7.47621843      -1.66934658      -2.51909052       1.26465854
C        2.46277373      -0.02617878       7.52434423       0.57382240       0.16561581      -0.82719228
C        4.88111868      -0.02520399       7.35567639       1.48322056       1.03833076       0.30303742
C        7.39143909      -0.00230881       7.31761859      -1.22198671       0.61987986       0.34410256
C        9.84210386      -0.01497918       7.37276240       0.40875887      -0.21529595       0.01681142
C       12.31493799       0.03958818       7.51917964      -0.37013575      -3.12405515      -0.59959154
C       -1.18091000       2.10040565       7.60268492      -1.64474858      -0.38016023       0.36815600
C        1.23757940       2.15950184       7.56063405       1.06625448      -1.59382762      -0.12998521
C        3.68283112       2.15588240       7.29843199       1.53845120      -1.46975852       0.78741500
C        6.10702562       2.12432228       7.33221369       3.26872084      -1.65730559       0.11431793
C        8.59315565       2.11291701       7.38531514       0.84234790       0.03548225      -0.31380751
C       11.10706981       2.10858101       7.63115012      -2.98437920      -0.07099536      -1.09569310
C       -2.52446442       4.22083359       7.76701944       2.09638727       0.46314927      -0.24186445
C       -0.02178111       4.32809468       7.72785150       2.24639237      -2.38231503      -0.02600517
C        2.50370567       4.28023900       7.39399997      -0.53358027       0.38360705       0.82663049
C        4.96195948       4.26403570       7.27605754      -1.46553214       0.11516460       1.15317988
C        7.31934296       4.21687629       7.47940283       2.21560753       2.38019978      -0.65869375
C        9.76406335       4.27494477       7.76362729       1.84255486      -2.25543211      -2.11692550
C       -3.67505475       6.38454806       7.60308869      -0.56049612      -0.32903487       1.26232501
C       -1.27506832       6.38246226       7.73142017       2.91771229      -0.01375155       0.44384671
C        1.21317698       6.45235132       7.54357717       2.15520203      -1.16577340       1.19228944
C        3.72027706       6.40033882       7.36813294      -1.32806837       1.00099988      -0.21462926
C        6.16520583       6.43683707       7.40603579      -0.49837055      -0.67483513      -0.10351544
C        8.60773602       6.37648100       7.60163537      -1.87437149       0.69700653       0.12304091
C       -4.98382607       8.46607914       7.59464663       2.66396755       2.24939851       0.82205599
C       -2.44431713       8.50663572       7.75036025      -0.38673634       0.80110741      -0.84786112
C       -0.01866425       8.49864255       7.70042167       0.83038765       2.32925877      -0.17311829
C        2.46544619       8.59625643       7.43863309      -1.06683606      -2.84383756      -0.51932196
C        4.86550459       8.52262239       7.33342279       2.60729607       0.28109100      -0.15739574
C        7.38508622       8.59989619       7.27752395       0.27784755      -2.57040768       2.04311273
C       -6.14314324      10.71158393       7.43079516      -0.51680048      -2.65317663       1.24891542
C       -3.65422806      10.59648546       7.51026380      -0.46271192       1.48897443       1.00608835
C       -1.21819672      10.64189312       7.55911710       1.56059637       1.98650244       0.06266190
C        1.22754756      10.63241813       7.51585707       1.20559053       2.14410335      -1.86721148
C        3.69385155      10.64328266       7.23247507       1.09328834       0.75328772       0.85308509
C        6.09058152      10.58970346       7.46959503       2.84325572       4.30848781       0.06162729
C        1.24047498       0.66421785       7.59221122       0.65807823       2.98008443      -0.89479249
C        3.66575416       0.71201222       7.32035499       0.06754751       0.05212166       0.95191264
C        6.11660501       0.69298808       7.34365965       0.47497326       0.03074808      -0.52667017
C        8.60720105       0.69057477       7.34714351       0.61126126       0.61577741      -0.09744867
C       11.07574935       0.70868657       7.53396428      -0.31170949      -0.36678843      -0.49033868
C       13.55346077       0.63728696       7.49110368       0.64772568       4.43541366       0.65346567
C        0.01134128       2.84352311       7.67358661       0.04473720       1.48696177      -0.33989701
C        2.49091759       2.85870563       7.39553689      -1.67966724       0.13314046       0.29793378
C        4.96695727       2.83146057       7.40891360      -3.67687395       1.52327321      -1.79121378
C        7.36981701       2.83343540       7.33365506      -0.87587920      -0.78530567       0.74752510
C        9.82848875       2.80501806       7.46923957       0.29034285       1.77988704       2.36858611
C       12.30355863       2.79324558       7.68010726       1.53887132       1.14990198       0.34161528
C       -1.25958329       4.97910634       7.78940176      -1.05898160      -0.81692998      -0.50259693
C        1.29788958       4.99693698       7.63235320      -2.63452636       0.89068156      -0.92996184
C        3.73288437       4.99313285       7.34725346      -0.46350305      -0.75686746      -0.50791937
C        6.13634235       4.99118390       7.36283198       1.13756505       0.16022935       0.34450391
C        8.58238701       4.98019933       7.60257557      -1.89268468      -1.50098226       0.40123839
C       11.02626824       4.95585711       7.73869440       0.27175558       0.42439349      -0.06139614
C       -2.41033595       7.10290558       7.58947970      -3.59671313       0.03581135       1.29319521
C       -0.02002684       7.11355477       7.80680127       0.11017254      -0.86556188      -1.67247715
C        2.48310752       7.16964979       7.39869874      -1.22039340      -1.51311221       0.72315799
C        4.92042178       7.13112838       7.36972716       0.36232577      -0.78356631      -0.17185382
C        7.37700417       7.14484876       7.46531126       0.92716011       0.18252030      -0.75406419
C        9.81368637       7.05275188       7.71433225       1.33519650       1.19364004      -1.53916597
C       -3.67490620       9.21165141       7.71135444      -1.58117702      -1.48498511      -1.14237404
C       -1.24493706       9.25529934       7.69604492       1.11474754      -1.53863041       0.21815502
C        1.23885962       9.25717603       7.53112613      -1.90727826      -1.81340934       0.75753441
C        3.66594857       9.21985361       7.28670614       1.46962251       2.41820737       0.19913400
C        6.14433837       9.24108887       7.35573186      -1.91819594      -1.85196561      -0.61040226
C        8.62260565       9.27132732       7.46111345      -0.67443173      -0.64100430      -0.77266535
C       -4.90557564      11.32626806       7.48714950       1.17099736       1.40947155      -0.08132219
C       -2.41372929      11.36264063       7.53829267      -2.33891198      -1.21162131      -0.91234259
C        0.05289880      11.40247287       7.43002169      -2.38541269      -2.74985242       0.83208689
C        2.47679693      11.32461184       7.27318883      -0.87336723       1.21472257       1.15370747
C        4.94747501      11.38327482       7.40356041      -2.56139468      -0.90428578      -0.28324764
C        7.36067609      11.34816173       7.56758299       0.26445904       0.14528790      -1.60614809
72
Lattice="14.76 0.0 0.0 -7.38 12.782534959858314 0.0 0.0 0.0 15.0" Properties=species:S:1:pos:R:3:REF_forces:R:3 REF_energy=-11165.412568271571 config_type=fd_force_conv_snapshot_075 snapshot_index=75 split=validation degauss_Ry=0.0019000869 kgrid=8 lattice_temperature_K=450.0 trajectory_seed=0 pbc="T T T"
C       -0.02674263       0.00073296       7.32327264       0.08438206      -2.03639212       0.42137681
C        2.43745688      -0.00408466       7.38674640       0.32133827       0.02730074       1.55654791
C        4.88483642       0.01825300       7.62541538       1.28617070      -0.15159070      -0.04752376
C        7.40739472       0.01684172       7.61084420      -1.51532439      -0.23420333      -0.72137210
C        9.85437634      -0.03424613       7.50882773      -0.30010276       1.31182980      -0.26023189
C       12.30326622      -0.07425197       7.51447061       0.39059762       1.97760642      -1.10440451
C       -1.27204695       2.13447523       7.25063249       3.07667229      -1.60995898       0.16120225
C        1.19467000       2.06480100       7.27178898       2.36923094       1.82261338       1.20626416
C        3.67470554       2.13809923       7.53445030       1.50794558      -0.58777012       0.98061000
C        6.10182433       2.15276308       7.77223542       1.44917453      -0.76438563      -1.16583613
C        8.56922184       2.14532798       7.53565405       1.17807433       0.61163407       0.35137261
C       11.08186457       2.11320029       7.36599308      -0.79361521       1.66052049      -0.53920430
C       -2.42823620       4.27460944       7.23025654       0.19373519       1.60237037      -0.75507181
C       -0.01122180       4.27816490       7.30309063       1.18555109      -0.52905024       0.24973511
C        2.43950638       4.21277230       7.48062437      -0.27393793       3.82759999       0.78800172
C        4.88655540       4.24043973       7.76219399       0.48304112       2.79918829      -1.14427615
C        7.38542896       4.22220092       7.61779228       0.72958343       2.88417585       0.21362216
C        9.86387949       4.29600143       7.39015385       1.07381301      -1.40272369       0.00197975
C       -3.64683326       6.44134728       7.44093856       2.39624912      -2.37295364      -1.29251516
C       -1.17454093       6.46360667       7.32731983      -0.85933518      -0.75486740       0.32333705
C        1.19819959       6.45534914       7.53965606       1.03679272      -1.93694622       0.10155652
C        3.70655409       6.41056174       7.60565500      -1.04997271      -1.60565598       1.10243401
C        6.15861507       6.38167919       7.62337822      -0.08234524      -1.60657515      -0.08597075
C        8.62476923       6.41646964       7.52281122       1.66274218      -1.98111906      -0.78533498
C       -4.91733152       8.50639845       7.37126360       2.16783694       0.40300602       0.99434741
C       -2.46787179       8.55459604       7.36263851       1.87025849      -0.21792208       2.38260505
C       -0.00054275       8.62541701       7.58371847       1.23090047      -2.40683872       0.52023727
C        2.51166743       8.50681713       7.65632244      -3.35421876      -1.63639121       0.36360027
C        4.91610353       8.52371518       7.69661326       0.24337985      -1.86742514      -0.88013206
C        7.30813121       8.49426154       7.44839780       4.43838689      -1.56173434       0.02534851
C       -6.15104826      10.64436379       7.39620624      -0.72732755      -1.78948471       0.75993325
C       -3.73011895      10.66930645       7.46976730       1.55615042       0.65703616       1.18358291
C       -1.27702840      10.66931925       7.66798029       1.48343705       0.03559307      -0.82233186
C        1.22995569      10.63864624       7.58915836      -0.23053617       0.16839954       0.14450397
C        3.70644962      10.61441239       7.65127738      -1.32043142      -0.80367003      -0.65744213
C        6.13843814      10.58341714       7.43255698       1.59521705       1.73802768       0.77448158
C        1.19168888       0.65331203       7.31494855       1.24591417       1.89132817      -0.40345751
C        3.67229969       0.71863655       7.62380585      -1.25006933      -0.05501261      -1.74655398
C        6.12929189       0.71316225       7.62381020       0.60277997       0.89490819       1.03583293
C        8.63163040       0.75756056       7.52388640      -0.35588336      -3.02461671       0.37246826
C       11.08771549       0.70379202       7.42760739      -0.13042461      -1.67965336       0.77914556
C       13.51855940       0.68076917       7.33987344      -1.47124282       0.52605208       0.23429255
C        0.01321731       2.79909277       7.31224366      -1.55594653       1.52740883      -0.96153653
C        2.50871154       2.83808508       7.44530356      -4.44177766      -1.78691078      -0.95422946
C        4.89311082       2.87332968       7.69235954      -0.17387728      -2.13846209       0.42605519
C        7.36025878       2.86091445       7.68934767      -0.91118328      -2.19846958      -0.16942593
C        9.79148943       2.84282959       7.44220455       2.86430637       0.39861046      -0.61416533
C       12.34187266       2.86867881       7.19632133      -3.29586089      -0.86740767       1.03035571
C       -1.20194813       5.02088406       7.21120831      -0.21458221      -0.31662158       0.79415129
C        1.20288618       5.01064478       7.47242462       0.08837242      -1.37814086      -0.71600209
C        3.63857281       4.97968304       7.64200123       1.83019248      -0.80571148      -0.22043276
C        6.16415439       4.95001984       7.65736363      -1.21657043       0.07428663       0.62145106
C        8.66112822       4.95601344       7.53195073      -2.22314780       1.75343811      -0.07975742
C       11.12798207       5.01292956       7.25525350      -1.44821911      -0.66712697       1.47690285
C       -2.40529893       7.14406355       7.42020767      -1.15942174      -0.03636980      -0.98854263
C        0.01345442       7.20733697       7.48354438      -0.26360287      -0.87835646      -0.26069829
C        2.44809760       7.06430480       7.66991466       1.32741480       2.39240018      -0.79727955
C        4.95104075       7.10223580       7.68084676      -1.16238597       0.03865422      -0.18480395
C        7.37313185       7.05529749       7.50017389       0.43926243       1.96786065       0.40010402
C        9.93288549       7.09856654       7.40904966      -4.66326251       0.96426293       0.55726707
C       -3.65382398       9.26740161       7.49053431      -2.96629123      -0.61404526      -1.61676597
C       -1.24576478       9.24084126       7.63437840      -0.42996507       1.88680560      -1.39170703
C        1.28839839       9.23946195       7.66584253      -1.66689195       0.26075280      -0.46290810
C        3.67982304       9.17706653       7.65276991       2.31573065       2.50624631       0.50126099
C        6.13593298       9.18049666       7.50419946      -0.91458407       1.61241078       0.33377136
C        8.62668222       9.15766142       7.42979208      -2.61635663       2.50298564      -0.59337796
C       -4.97495033      11.37073254       7.50848127       2.07154604      -0.32326274      -1.35616282
C       -2.46568415      11.39423901       7.56882234      -2.10822386      -0.68944671       0.18773218
C       -0.02260249      11.35848038       7.56205921       0.79798378       0.56263271       1.02952036
C        2.45938937      11.30219681       7.55680766       0.89903661       2.33842090       0.40969320
C        4.93106849      11.29276300       7.57179574      -0.16023243       0.74503833      -0.27219652
C        7.39529100      11.35185000       7.41876348      -2.18604961      -1.05413198      -0.74503396
72
Lattice="14.76 0.0 0.0 -7.38 12.782534959858314 0.0 0.0 0.0 15.0" Properties=species:S:1:pos:R:3:REF_forces:R:3 REF_energy=-11165.161015490621 config_type=fd_force_conv_snapshot_081 snapshot_index=81 split=validation degauss_Ry=0.0019000869 kgrid=8 lattice_temperature_K=450.0 trajectory_seed=0 pbc="T T T"
C        0.05054598       0.01036086       7.65828525      -0.43210268      -0.82112627      -0.52671954
C        2.57072040       0.05486791       7.47177532      -5.07635189      -2.15001174       1.45771239
C        4.90718307       0.01436575       7.54459463       1.20859435      -1.67570234       0.41843598
C        7.29920677      -0.08510692       7.36896116       3.77923497       1.23873976       0.80245107
C        9.82730389      -0.00363607       7.62929942       0.16704740      -1.38095879      -2.27643931
C       12.26686465      -0.01759407       7.66141562       2.08425989       1.56063982      -0.55278744
C       -1.22349539       2.11882767       7.79186485       0.25300864      -0.54158797      -0.50419693
C        1.22462071       2.13877423       7.60650299       1.26842238       0.05317864       0.59842709
C        3.70756652       2.16929363       7.52032850       0.56866348      -1.23783242       0.11797584
C        6.19363845       2.09307528       7.45401431      -1.32944468       0.86601182       0.05229881
C        8.55879529       2.12087605       7.57420842       2.57265739      -0.64000234      -1.79372781
C       11.01991920       2.15591992       7.72809964       3.57332200      -1.18762520      -0.61851538
C       -2.47677919       4.28327063       7.70771035       0.55981015      -1.97054720       0.63692345
C        0.01892034       4.26952671       7.61323179      -0.54022811      -0.54325713       0.15064093
C        2.51070540       4.21806359       7.32053496      -1.72273451       2.75557827       0.83843777
C        4.95192652       4.27276969       7.24939639      -0.43009414       0.33316406      -0.27638022
C        7.28639439       4.28813721       7.42468710       4.03823016      -1.15234890       0.14613276
C        9.79354887       4.27297284       7.71696395      -0.27875232      -2.07248450      -0.92382565
C       -3.72909281       6.34576141       7.86045679       1.55393464       1.57928032      -0.34094936
C       -1.23037679       6.40944816       7.62662534      -0.84277702      -1.08027908       0.55075267
C        1.23321558       6.36409095       7.40297322       1.61845879       1.17647047      -0.31616650
C        3.64371674       6.39469934       7.10486536       4.47402829      -0.28417092       0.23140468
C        6.13400330       6.48942454       7.22180784       1.10594254      -2.09913115       0.00114131
C        8.57331892       6.38255665       7.65203632       0.20040926      -0.05989076      -0.70458691
C       -4.90715045       8.48503138       7.65659525      -1.02280875       1.27015299      -0.11896854
C       -2.49339644       8.53126189       7.63797001       0.90009745      -1.38450846       0.03531719
C       -0.05479362       8.49120345       7.40364629       4.43297549      -1.59286217      -0.63344886
C        2.47350785       8.52783939       7.18919697       0.13118231       0.38741177       0.73607984
C        4.89629132       8.56428123       7.25499913       1.12132365       0.33750537      -0.66898382
C        7.39165713       8.54606743       7.35599405       0.23904343       2.04477186       0.07278433
C       -6.09246733      10.68198641       7.57715146      -1.95746388      -0.52544735      -0.77102087
C       -3.69364985      10.61505796       7.62945168       0.61901905       3.31640349      -0.29046781
C       -1.24069765      10.60520876       7.48418617       0.54168053       0.25042648       0.03895247
C        1.20465856      10.60037764       7.25602247       2.60335354       1.91513710       0.97011168
C        3.71828243      10.66617148       7.39118291      -1.68714915       0.52198125      -0.50803661
C        6.10321436      10.64006391       7.34828744       3.26625952       3.54974370       0.64335969
C        1.29823025       0.74443282       7.60437727      -0.67898104      -1.15482718      -0.30745174
C        3.72021602       0.71087834       7.54752873       1.62875760       3.53672003      -0.28083440
C        6.13737336       0.66434544       7.50291486       0.35484669       1.20475184      -0.60608049
C        8.59442919       0.64404759       7.39922191      -1.82740874       2.06352960       1.77820863
C       11.06142907       0.73548198       7.64623222      -0.96402356      -0.97783707       0.99630685
C       13.55806538       0.68364655       7.71991641      -0.94400906       0.57398413       0.19050769
C        0.01075223       2.82137794       7.69891985      -0.67148447       1.52938009      -0.17366619
C        2.46574842       2.85520017       7.56982001       0.90229986      -0.71578458      -1.23812295
C        4.96811060       2.84178787       7.43153126      -0.89718748       0.33927635      -0.31396435
C        7.37323367       2.86990133       7.45860041      -0.99867920      -1.61533618       0.16433052
C        9.85961901       2.84149177       7.55114111      -3.84299036       0.49546675       1.67736379
C       12.31817842       2.82802668       7.76705926      -1.54437682       1.39513071      -0.16363837
C       -1.22840028       4.98315709       7.64601354      -0.36224735      -0.16356664       0.25397974
C        1.25175461       4.98229029       7.47308894       0.60329059      -1.93517602      -0.54830035
C        3.70266425       4.97888464       7.13680117       0.10214890      -1.54176741       0.79255849
C        6.16864980       5.01931802       7.23245876      -2.88500452       1.39497670       0.21720525
C        8.54767222       4.92238719       7.57894647       0.31562502       3.01022316       0.67401547
C       11.01489944       4.93515634       7.80186330       1.33388009       1.39243825      -0.08263371
C       -2.47498312       7.12810421       7.77438175      -0.63398493      -1.71934476      -0.56374342
C        0.00634500       7.03470919       7.50592828      -0.24092342       2.92910588      -0.42548878
C        2.52475239       7.10331765       7.24127663      -5.07526302       0.68899831      -0.11810594
C        4.91210456       7.16043140       7.15380485      -1.06066696      -0.75711455      -0.11202605
C        7.38380945       7.16252660       7.38970575      -0.27540423      -1.87117021       0.24195623
C        9.83588165       7.08212669       7.78595947      -1.27714870      -0.77491070      -0.43471647
C       -3.70880936       9.23566214       7.62739932       0.21641361      -1.21124593       0.56196653
C       -1.22513863       9.15203697       7.45572663      -2.66713155       3.05959476       0.77524494
C        1.24594898       9.23020230       7.22512262      -2.22714124      -2.52834083       0.49927995
C        3.67752756       9.28217277       7.28544110       0.56632892      -1.78953254      -0.59833581
C        6.16079681       9.29460968       7.23517560      -0.96607633      -3.60754493       0.63867334
C        8.63458752       9.23608889       7.50511293       0.35014208       0.24983024       0.46876944
C       -4.87853361      11.41275216       7.58997111       0.36358201      -1.20399002      -0.27511909
C       -2.44401090      11.37631406       7.61101484      -0.67857120      -2.02828363      -0.70081510
C        0.00530138      11.29878404       7.41485436      -2.17354762      -0.09380233      -0.76763576
C        2.47730466      11.32677150       7.40558052      -1.27575851       1.44933625       0.34366702
C        4.91897365      11.39034073       7.41032059      -0.50743112      -0.62209152       0.77390437
C        7.38768923      11.35705884       7.52146487       0.37707413       0.24210150      -0.01137790
72
Lattice="14.76 0.0 0.0 -7.38 12.782534959858314 0.0 0.0 0.0 15.0" Properties=species:S:1:pos:R:3:REF_forces:R:3 REF_energy=-11165.558876535542 config_type=fd_force_conv_snapshot_087 snapshot_index=87 split=validation degauss_Ry=0.0019000869 kgrid=8 lattice_temperature_K=450.0 trajectory_seed=0 pbc="T T T"
C        0.01858634      -0.05487843       7.29021660      -0.55706447       2.60320981       0.01048676
C        2.46476209       0.00039879       7.36297848      -0.03157803       1.22754904       0.04341976
C        4.85439952       0.00231083       7.62078113       1.89172129       0.79889600       0.11711658
C        7.32975180      -0.03163245       7.72724663       0.68905565       0.62460298      -1.14844056
C        9.87549374      -0.00933898       7.50628319      -1.31544143      -0.06556570       0.55097250
C       12.33135228      -0.04615243       7.38172497      -0.38992965       1.10004674      -0.38072227
C       -1.21530785       2.11939176       7.25721649       0.35208738       0.88080209      -0.29032588
C        1.28363468       2.13212049       7.29986336      -2.21584021      -0.48789948       0.70401021
C        3.70712923       2.20451886       7.58419540      -0.35841075      -3.07352474       0.03778982
C        6.11130675       2.10705670       7.55625602       0.53544740       1.02187312       1.29291985
C        8.57153098       2.13827790       7.56423178       0.09461891      -0.86236060      -1.29035723
C       11.07063086       2.14613241       7.46317571      -0.55235009      -1.79017351      -1.78771065
C       -2.49837202       4.23948374       7.21833168       1.09455847       1.27257137      -0.11912229
C       -0.03242131       4.27623563       7.35085067       2.16383682      -0.32056129      -0.36769835
C        2.44725670       4.26957046       7.51458304       1.41154823       0.20854269       0.98731904
C        4.95724594       4.27480590       7.73032249      -0.15470456      -0.08904682       0.80154912
C        7.36944320       4.27119869       7.78354718       2.26966266      -0.31638556      -2.42380852
C        9.87681301       4.25494544       7.46361583      -3.78684569       0.20708333      -0.89288294
C       -3.72766017       6.37599013       7.33738333       3.11376379       1.56710615      -0.19659272
C       -1.21032773       6.38106983       7.33850324      -0.48352037       1.06913463       0.18702873
C        1.20581788       6.34775480       7.51303657       2.61415963       2.96055844       0.38324015
C        3.70583691       6.39817933       7.84448324      -1.02561434      -1.79318505      -1.02074081
C        6.10117079       6.41784854       7.78486619       3.66024560      -1.45202511      -0.31436081
C        8.60648039       6.39364589       7.47756328      -0.51622455       0.33786172       0.71855211
C       -4.88081098       8.51258468       7.31845812      -0.39820577       0.59241636       0.58196637
C       -2.39440412       8.54583475       7.31988828      -1.80851036       0.02641140       0.70390403
C        0.03135367       8.55342186       7.41613463      -0.03562598      -0.67373290       1.66416066
C        2.43647557       8.50665145       7.71431614       0.28118304      -0.78629477      -0.61439184
C        4.85630357       8.53571326       7.71371374       1.97410483      -1.00678049       0.29028603
C        7.37699124       8.52636129       7.61843642       0.10419833      -0.15939323      -0.81182505
C       -6.16078485      10.61589490       7.35836260       1.82632759       0.50950574       0.07944760
C       -3.67243766      10.66825966       7.46282401      -0.34846161       0.19820660       0.17635145
C       -1.24204336      10.68583118       7.50009420       0.62824083      -0.34672303       2.03085140
C        1.26018314      10.68964588       7.63751401      -1.67325543      -1.80606833      -0.15963054
C        3.67259255      10.67055978       7.55311169       0.13883289      -2.59702708       0.15461380
C        6.12349032      10.64101745       7.47805050       1.48565206      -0.81978107      -1.01359649
C        1.21259964       0.69565197       7.32216483       1.57911834       0.34626049      -0.44071922
C        3.71033727       0.73954209       7.44798547      -2.63930810       0.86453961       0.77095634
C        6.07660617       0.67897529       7.61976687       2.33804577       1.24658086       0.29590286
C        8.58761476       0.65272830       7.58699762       0.30823799       2.44825277       0.31460687
C       11.12175118       0.67536342       7.46895712      -1.39911875       1.59316659      -0.11725002
C       13.54473105       0.71241117       7.28091856       0.28728453      -1.78003025       0.29465099
C        0.04670819       2.86663951       7.29901055      -1.52347195      -1.29129877      -0.36744818
C        2.47011710       2.83744562       7.49824672       0.17725751       1.53296575      -0.59686746
C        4.91839923       2.86260992       7.78151550       0.66322506      -0.17173658      -2.05293511
C        7.33315709       2.88211178       7.53182258       0.63447267      -2.73059563       1.53366355
C        9.80598187       2.84789655       7.36962115       1.09474384      -1.21684425       2.08905011
C       12.27542938       2.82778475       7.20598146       0.97282496       0.13678629       1.38294934
C       -1.23812032       4.96830759       7.24545689      -1.25204162      -0.32368878       0.46453458
C        1.23275815       4.99960215       7.45469378      -1.13959854      -3.17122744      -0.13467001
C        3.71931215       4.96337788       7.73768136      -1.17303908       0.26361238      -0.42187252
C        6.21124048       4.97049755       7.73732499      -3.99061667       2.01769609       0.93073806
C        8.60164407       4.97333751       7.54048273       1.10678432       0.06441565       0.86675359
C       11.03402663       4.97418264       7.32130202       2.12082561      -0.45539328      -0.03261881
C       -2.42968606       7.13589991       7.32411985      -0.84831852      -1.85332418      -0.28419535
C        0.02794769       7.08838614       7.48875375      -1.42676685       1.28563720      -1.21749885
C        2.48356716       7.05123734       7.63697721      -1.68521003       1.72523079       0.93518684
C        4.91411224       7.08736218       7.86064468      -1.19921574       2.49161776      -0.41619861
C        7.35485833       7.12073221       7.65228814       0.49571126      -0.80399090      -0.14292248
C        9.86885613       7.11061594       7.37838349      -2.00585333      -0.77966544      -0.21360699
C       -3.66522228       9.24277678       7.32450427       0.84900423       0.34054930       0.25755023
C       -1.19673872       9.27669202       7.48030626      -0.20254996      -1.03235346      -1.53244948
C        1.25386861       9.26122429       7.59806315      -0.83186886      -0.63584564      -0.21956732
C        3.63602252       9.23084313       7.71378418       1.18761903       0.66992124      -0.35901933
C        6.12153415       9.21744971       7.56120019      -0.09190820       0.63087750       0.86928818
C        8.64035631       9.19378739       7.43962060      -1.04949243       0.91572307      -0.11685895
C       -4.92399721      11.38315574       7.36734795       0.50104296      -1.73476958       0.20965341
C       -2.44949493      11.41133763       7.69361133      -1.77792632      -2.90202574      -2.19713826
C       -0.01269754      11.33835880       7.66917761       0.69145551       1.12544770      -0.40635720
C        2.47288034      11.34827348       7.56184872      -0.04989740       2.16951099       0.09580753
C        4.89678444      11.31033769       7.39439859       1.08577712       1.65585034       0.78129577
C        7.41129163      11.34347270       7.34287900      -2.48489099      -1.40170374       0.49382741
72
Lattice="14.76 0.0 0.0 -7.38 12.782534959858314 0.0 0.0 0.0 15.0" Properties=species:S:1:pos:R:3:REF_forces:R:3 REF_energy=-11165.957692836095 config_type=fd_force_conv_snapshot_093 snapshot_index=93 split=validation degauss_Ry=0.0019000869 kgrid=8 lattice_temperature_K=450.0 trajectory_seed=0 pbc="T T T"
C        0.02017850       0.03937658       7.56391452      -3.66526542      -1.35314331      -0.41067974
C        2.40163391      -0.01175772       7.47707309       2.27677973       0.83902732       0.93803125
C        4.93301010      -0.02053530       7.39480376      -2.38910788      -0.72406662       0.47861960
C        7.31938026      -0.03932314       7.43993972       1.65316431      -0.22561456      -0.78462895
C        9.84603787       0.00907552       7.48080584      -0.32184787      -0.41767545      -0.39166746
C       12.24320970       0.05179216       7.58400337       0.90796503      -1.03592086      -0.85181059
C       -1.21723537       2.12860651       7.62960611      -1.10157989       2.57014234      -0.12780877
C        1.23505269       2.13475941       7.57670552       0.02354488       0.98001377      -0.34100670
C        3.73514688       2.09149364       7.44769408      -2.91041293      -0.16394459      -0.16078831
C        6.12669875       2.07343215       7.33028642       2.31979685       1.81732616       0.04053318
C        8.65463529       2.11973200       7.47160920      -1.79870649      -0.45028501       0.37784109
C       11.10498704       2.17964609       7.70544495      -0.84623644       0.22420071      -1.19409976
C       -2.41891464       4.34458529       7.71908510      -0.22389732      -2.41185880      -0.53271561
C       -0.00120182       4.28830399       7.61498082       2.13890098      -1.71073003      -0.21944134
C        2.50833568       4.26652787       7.42437334      -1.72619701      -1.09645594       0.15488094
C        4.91910606       4.20157330       7.42932586       1.56603014       1.97978209      -0.33769460
C        7.37490143       4.27872440       7.51051606       1.26707281      -1.77913371       0.05249318
C        9.86243937       4.25152300       7.63967563      -0.34657057       1.34298874      -0.23378424
C       -3.72217738       6.39648746       7.75211369       3.69071317       0.60164688      -0.43933905
C       -1.22395942       6.42429214       7.66721104       1.59517411       0.68320099       0.33924369
C        1.26397635       6.35307264       7.42559584      -0.94533344       0.96205590       0.56882778
C        3.68861234       6.36359053       7.26718200      -0.16488665       0.12893131       1.35493280
C        6.12008423       6.36938867       7.38327561       1.77080154       0.95942257       0.39417943
C        8.64518334       6.36881027       7.57423171      -1.94417514       0.91774293      -0.05448142
C       -4.92330164       8.53375430       7.64545077       1.07668544      -0.91208239       0.49790493
C       -2.44947563       8.56684858       7.57849442       0.40365188      -2.19724008       0.67215270
C        0.02760985       8.54839360       7.39790845      -0.93523800      -2.87041685       1.05734278
C        2.46241831       8.54649786       7.27179897       1.17237625      -2.75414488       1.27812675
C        4.88329358       8.49703102       7.27512541       2.27103845       0.26220110       0.50618851
C        7.37637213       8.52554928       7.52096038      -0.22991242       0.36689719       0.34794045
C       -6.16213869      10.65993413       7.53552548      -0.39691765      -0.26035762       0.56011045
C       -3.69948143      10.69806343       7.52555335       0.24901803      -1.68874581       0.30963538
C       -1.25509789      10.62047973       7.34798805       0.08746276       0.66299983       0.88617261
C        1.18535384      10.59634562       7.36527227       1.80707389       2.66962141       0.76060353
C        3.65818788      10.63610461       7.40403145       1.13769284       1.28694100      -0.50013356
C        6.08012166      10.66025960       7.50929903       2.75994477       0.55316950      -0.66764093
C        1.21428639       0.72361310       7.56876040       0.41607545       0.28069530      -0.34245937
C        3.68778022       0.64372031       7.53183160      -0.46374114       2.12717572      -1.36825626
C        6.09615532       0.68817592       7.31847783       2.63441786      -0.29171942       0.63787604
C        8.59469857       0.62856872       7.42668521      -0.51324336       3.13253927       0.57933896
C       11.06312053       0.80061291       7.55979656      -0.94143822      -2.92027465       0.47930788
C       13.44474943       0.77607912       7.57264743       3.71964143      -3.35074340       0.43357438
C        0.01790492       2.83865243       7.62342733      -0.74923797       0.81196338      -0.01911718
C        2.44288338       2.85889381       7.44632574       2.75043606      -1.74839592       0.62750729
C        4.94391400       2.79499134       7.32942414      -1.19992793       0.38480827       0.89176862
C        7.37906588       2.82561877       7.43686456       0.66847654      -0.39804354      -0.09998609
C        9.87786552       2.86773857       7.63572961      -1.30940910      -1.31131249      -0.27645581
C       12.30835096       2.86347913       7.62053919       1.63189563       2.28933211       1.26773872
C       -1.15958009       5.03331826       7.73769060      -2.88228815      -1.09157085      -0.49921285
C        1.25767888       4.93131863       7.45266685      -0.10383246       1.31827504       0.42359619
C        3.72377862       4.95940824       7.44144270      -0.08970887      -0.62297290      -1.04324413
C        6.17502795       4.97078219       7.46268476      -2.29994897      -0.99242397      -0.40918464
C        8.62311106       4.96596198       7.59794288       0.07872666      -0.57967346      -0.29031226
C       11.08378003       4.99770602       7.64264151       0.28259123      -0.39811398       1.19000399
C       -2.41846266       7.14225154       7.77632385      -2.54339644      -0.36967707      -1.09052338
C        0.02879153       7.08533885       7.51770727       0.01821755       1.59995636      -0.49820960
C        2.47347144       7.09156291       7.39592941      -0.07589614       0.45609287      -1.64987716
C        4.89308658       7.05682211       7.27447560       0.82589104       1.52584868      -0.09382290
C        7.38258602       7.10469213       7.49524469      -0.21130457      -0.71577018      -0.21631282
C        9.85873245       7.06991148       7.62887791      -1.41590625       2.64635112       0.49357724
C       -3.66459552       9.24017209       7.63665098      -1.94475029       1.61437151      -0.65015588
C       -1.23070078       9.23446276       7.41860665       0.82613376      -0.38299924      -0.07248300
C        1.26226272       9.20015028       7.43941366      -1.47272095       1.34793271      -1.54771463
C        3.70406843       9.22914430       7.28716205      -1.47697947       0.11912384      -0.05555254
C        6.12534025       9.25537955       7.43179744      -0.39020244      -1.90502263      -0.15467140
C        8.61838258       9.23750717       7.67946268      -0.77712570      -0.03221721      -1.43105494
C       -4.94846066      11.38660106       7.53099213       0.16634832      -1.15585794      -0.33928097
C       -2.45043575      11.36115990       7.43757053      -0.90071477      -0.57530130      -0.32405567
C       -0.04032017      11.30928696       7.44229836       0.53965373       0.87602113      -0.92946948
C        2.44046018      11.36870497       7.37417147      -0.31906465      -1.06242765       0.54093054
C        4.89906069      11.37636780       7.45903731      -2.03432624       0.88958498       0.62683726
C        7.36917801      11.37052418       7.48183785      -0.67194393       0.72795078       0.88131451
72
Lattice="14.76 0.0 0.0 -7.38 12.782534959858314 0.0 0.0 0.0 15.0" Properties=species:S:1:pos:R:3:REF_forces:R:3 REF_energy=-11164.783557813436 config_type=fd_force_conv_snapshot_099 snapshot_index=99 split=validation degauss_Ry=0.0019000869 kgrid=8 lattice_temperature_K=450.0 trajectory_seed=0 pbc="T T T"
C       -0.00439881      -0.00027786       7.40269054      -0.19542184       0.28404056      -0.10035890
C        2.49125589       0.03025644       7.59830443      -0.93124020      -0.83434020      -0.41667915
C        4.93731321      -0.03705472       7.59655213      -0.18810731       1.56232775       0.86054540
C        7.38359964      -0.02572690       7.51274825       0.63490719       0.27585572       0.41877126
C        9.82656964      -0.00789343       7.50678153       1.57217199      -0.05844092      -0.36321177
C       12.31128064       0.02837171       7.35089034      -0.19286796      -1.44921824      -0.05802568
C       -1.22585465       2.13079191       7.38826940       2.32075845      -0.65227807      -0.84076745
C        1.22070166       2.13926198       7.41584465       1.92782189      -2.81660109      -0.14938418
C        3.72953113       2.14949124       7.49370457      -0.63467116      -0.61420569       1.45230999
C        6.16244437       2.16152424       7.58864425      -0.00860651      -2.29613473      -0.92881436
C        8.64233774       2.13674997       7.47676223      -0.14503876      -1.72109928      -0.40426843
C       11.11324804       2.12638696       7.27844105      -1.55014869      -1.30484822       0.90796940
C       -2.47022263       4.22894329       7.42893913      -0.07018469       0.35621914       0.06080453
C       -0.03686920       4.23710829       7.31653516       1.55705930       0.97883929       0.85433747
C        2.42642103       4.23859543       7.52398493      -0.02203821       0.71398326       0.54069940
C        4.89804753       4.27573961       7.67251791       0.04956110       1.82705239      -0.27119842
C        7.38167778       4.26381673       7.45068864       0.59470207       0.61511149       0.20468089
C        9.88843130       4.22773422       7.43569229      -2.94558511       1.39909767      -0.33245109
C       -3.75046668       6.32686193       7.45038531       1.81488002       3.34283109       0.60349653
C       -1.27641697       6.41429674       7.42035451      -1.32523810      -1.41206760       0.54174121
C        1.16646818       6.41954611       7.46969681       1.11677923      -0.59163346       1.13836081
C        3.67925938       6.40417900       7.70522378      -1.92281878      -0.03831561       0.02067475
C        6.13927733       6.40048413       7.70029881       0.03268695       1.74297629      -0.89471973
C        8.64603670       6.46863713       7.40511314      -3.86205200      -5.15803378      -0.27299382
C       -4.85295667       8.52002533       7.47837099      -2.70154551       1.31728079       0.09133407
C       -2.50686727       8.49114916       7.48450097       1.38692221       1.72431882       0.17142907
C       -0.05801850       8.49700618       7.50851470       1.11600430       0.83215245      -0.12456506
C        2.49774253       8.49302084       7.62174486      -1.65231533       1.45636796       0.48865487
C        4.93113660       8.56290435       7.58544364       0.73439448      -0.03990506       0.88752193
C        7.42141979       8.48303901       7.35565644      -1.02495511       3.41152222       1.37379313
C       -6.17095363      10.71319456       7.38924659       2.42694989      -1.84093172       1.22644860
C       -3.64933629      10.68713766       7.40914463      -1.39186515      -1.08749950       2.45556087
C       -1.22390870      10.66345517       7.54390415       0.89985448      -2.04891519      -0.62614564
C        1.20177034      10.60430129       7.60974686       2.94798832      -0.64732639       0.34205519
C        3.65578680      10.60731575       7.61666491       1.88090697       4.76904052      -0.23435271
C        6.14351386      10.71259790       7.55294639       1.14261161      -2.58798708      -0.57288472
C        1.20061989       0.65820443       7.37336469       3.08425344       3.16754253       1.48071605
C        3.74946029       0.73194424       7.69754571      -1.65477742      -0.25048381      -1.83162304
C        6.13935403       0.65012851       7.57183614       1.35492843       3.19950391      -0.06149719
C        8.61935300       0.68010068       7.49452285      -0.85015043       1.63633053      -0.00775650
C       11.07140567       0.70187389       7.27627397      -0.03320837       0.28282958       1.08536240
C       13.55489871       0.74776240       7.35461649      -1.35361459      -1.98994103       0.18010321
C        0.03687475       2.80505807       7.33193507      -2.56496105       2.49125730       0.39760568
C        2.47151986       2.81734389       7.54162209      -0.59591615       0.34567608      -1.10180255
C        4.92953939       2.89552666       7.51759099       0.78249211      -1.46522567       0.75903645
C        7.41613337       2.81568986       7.46941966      -1.24436636       1.56698685       0.62340201
C        9.86716823       2.82470882       7.43487068       0.79733071       0.04433507      -0.62293639
C       12.33930176       2.78486912       7.37111127      -1.81148230       2.95203806      -0.23169265
C       -1.28059624       4.95501531       7.38716126       1.38069731       0.56514082      -0.19387635
C        1.22374606       4.98383996       7.45630729      -2.28505791      -0.57404532      -0.75620592
C        3.60832736       4.97257360       7.68264929       3.33768220       0.33563001      -0.18854388
C        6.16184778       5.01579808       7.67404602      -1.07789746      -2.36924791      -0.53248729
C        8.61832810       4.97530783       7.32873498       0.82086017       0.22646174       1.39748893
C       11.06406530       4.98071104       7.49611509       0.71434862      -3.58429316      -0.75528161
C       -2.53692415       7.10319853       7.48193317       0.98636696      -1.87342069      -0.45536551
C       -0.07618396       7.12502660       7.52053696       0.80710296      -2.21976243      -1.01553433
C        2.41093580       7.12119561       7.63700597       1.50622551      -2.03100926      -0.51851566
C        4.88317257       7.15700860       7.72078428       1.47952872      -1.90672882      -0.47454594
C        7.37499084       7.09391119       7.45410495       0.29993281       0.41107132       0.33001317
C        9.82455336       7.07203668       7.47574311       2.43097984       3.13083849      -0.34746479
C       -3.66835621       9.26661404       7.56269581      -0.40725246      -0.55339190      -1.56333537
C       -1.26680745       9.20621238       7.42389686       0.05729961       1.35429825       1.16137527
C        1.21897598       9.11538216       7.57874769       0.11880785       4.17070522       0.11276884
C        3.72058183       9.27339036       7.66987670      -1.53783594      -3.53245149      -0.46287416
C        6.18012029       9.25100954       7.54414512       0.21292925      -0.01504841      -0.71830966
C        8.65213838       9.28284791       7.38738490      -0.29320063      -2.42751656      -0.22703329
C       -4.90703742      11.37297912       7.55660928       0.58187278       1.14751162      -1.40525520
C       -2.42153368      11.35829568       7.58649533      -1.09136979      -0.22718962      -1.04401264
C        0.04775699      11.34041738       7.54070452      -2.66482116      -0.13108641       0.17381352
C        2.47020669      11.38284575       7.69548143      -1.76245934      -2.45170010      -1.34334792
C        4.91699665      11.35519099       7.45837235      -0.91556675       1.24879663       0.79208284
C        7.39606507      11.39412847       7.50080908      -2.00196197      -0.08364724      -0.68483827
72
Lattice="14.76 0.0 0.0 -7.38 12.782534959858314 0.0 0.0 0.0 15.0" Properties=species:S:1:pos:R:3:REF_forces:R:3 REF_energy=-11165.247045097054 config_type=fd_force_conv_snapshot_105 snapshot_index=105 split=validation degauss_Ry=0.0019000869 kgrid=8 lattice_temperature_K=450.0 trajectory_seed=0 pbc="T T T"
C       -0.05942639       0.01456584       7.62309192       1.47395636      -0.48815839      -0.21084203
C        2.34767430      -0.04565794       7.54916564       4.30305481       0.01713923       0.53929300
C        4.86867143      -0.02046340       7.48771535       1.44372508       0.24094913       0.03166134
C        7.33380384      -0.05415484       7.60837195       1.42165267       2.72802736      -0.20789786
C        9.85504784       0.01642063       7.53077943      -1.43612232       0.76307976      -0.27185199
C       12.33679820       0.07298551       7.47864967      -2.09577741      -1.79463926      -0.04919883
C       -1.21340144       2.15699314       7.54444589       1.10811538       1.53709597      -0.31953542
C        1.24961820       2.09343006       7.47093440      -0.35615178       2.23605859       0.48838542
C        3.65305214       2.03568620       7.44344610       1.31181951       1.54288507       0.64145553
C        6.15167811       2.13255864       7.52490672      -0.04170921      -1.64985042       0.01394592
C        8.62818133       2.08969887       7.73265764       0.11914852       2.19620958      -1.53366149
C       11.13540776       2.13025848       7.59189569      -0.83928006       2.63630017      -1.01088423
C       -2.43572831       4.29460784       7.58304361      -1.59422588       0.06764495      -0.61894809
C       -0.02247239       4.28694307       7.55514625       1.46510277       1.15369667      -0.91547059
C        2.46950826       4.27431594       7.50157634      -1.31326962      -0.87042461      -0.46796032
C        4.90124602       4.16095041       7.42341566       0.33608406       3.63240364       0.34330192
C        7.40309687       4.24030907       7.48468269      -0.49754909      -0.14763069       0.31872526
C        9.86640389       4.22920691       7.58271258      -0.53847102       1.64346894       0.08371589
C       -3.66975488       6.36408332       7.53116109      -1.82748742       0.81088017       0.28442160
C       -1.25620482       6.41880204       7.50815816       1.44227832       0.88235453      -0.08009835
C        1.25277477       6.45822101       7.38476261      -1.81637845      -0.28774630       0.40780447
C        3.68921118       6.42705992       7.43037944      -0.69507563      -1.34985410      -0.66488342
C        6.15138552       6.38052032       7.46981788      -0.33482911      -0.42416954      -0.37512189
C        8.59995297       6.38585477       7.41310236       1.33144217      -2.01164988       1.35049610
C       -4.86634230       8.51922861       7.51071616      -2.15985650      -1.30679044      -0.57807835
C       -2.45767755       8.52321016       7.49727322       0.36667788      -1.58440890       0.64299099
C        0.07687152       8.54243371       7.46424015      -4.16458343      -0.52827814       1.10495215
C        2.47711819       8.61530333       7.30521930      -2.05438702      -2.36885453      -0.08262549
C        4.94623906       8.59369469       7.37867868      -1.96883536      -4.69108262      -0.24306746
C        7.35361847       8.49366408       7.43529691       2.61607201       0.08979732       0.13368759
C       -6.16844493      10.62736267       7.57861171       1.29271853       0.42702347      -0.49691711
C       -3.67588445      10.60611836       7.55763241      -0.55121212       2.58471587      -0.38207184
C       -1.27815056      10.58895322       7.48498077       1.56410104       1.47252323       1.22156814
C        1.21395484      10.70175301       7.56591709       0.28740974      -0.87907560      -0.88568822
C        3.75161817      10.64428256       7.43682365      -3.35229223       2.53212164      -1.10535684
C        6.10805327      10.63049590       7.38774951       2.98975666       1.90702090       1.33040628
C        1.18813080       0.70257208       7.57916354      -1.24293400      -0.67521386      -0.25119344
C        3.62460588       0.64005027       7.54365754      -0.21888521       0.32531783      -0.84480793
C        6.17124514       0.69553270       7.49171102      -3.26326059       0.14159219       0.61256096
C        8.55888514       0.71135831       7.65049276       2.44697210      -1.87533848      -0.00584797
C       11.09086442       0.75503912       7.46191454      -0.00984090      -1.52248928       0.90297323
C       13.51600117       0.76732892       7.57248445       0.83287390      -0.86046570      -0.21808637
C        0.03011881       2.86275943       7.51422750      -0.16192088      -0.40405503       0.28821552
C        2.49943472       2.79922187       7.44474460      -2.65063175       1.17824479       0.23448075
C        4.87156049       2.78293143       7.48439826       1.60384053      -1.19602551      -0.47475086
C        7.39931076       2.80510542       7.59733166      -0.34161682       1.23706289       0.06535950
C        9.90012252       2.86188372       7.58429121      -1.16220239      -3.46068737       1.21948297
C       12.36302572       2.90037400       7.50342777      -1.46906407      -1.82806463       1.07206723
C       -1.25558634       5.01516300       7.49081958       1.47689462      -0.53523554       0.89350771
C        1.21622666       5.05848419       7.49146997       0.84205403      -2.96065717       0.04176783
C        3.69080917       4.93155741       7.47760615       0.32051475       1.93568355      -0.36265462
C        6.14226032       4.96072025       7.40706716       0.24715218      -1.68514009       0.55191506
C        8.64099409       4.93001130       7.53100537      -1.31495703       1.20582681      -0.69777709
C       11.05518336       4.97116625       7.60907697       2.06553223      -0.47388388      -0.51757387
C       -2.47211795       7.11289582       7.51322858      -0.25555557      -0.56823051      -0.05737597
C       -0.00569433       7.15093735       7.48037349       1.03218479      -1.37410320      -0.70066392
C        2.44430556       7.17939232       7.28864181       1.88680483      -0.50200172       0.86792961
C        4.91169223       7.09693800       7.42368274       0.96887832       1.92568145       0.06577653
C        7.40666530       7.08095681       7.48078144      -2.37828791       0.36999229      -0.65997878
C        9.82215791       7.05265301       7.51544982       2.00582582       2.35086426      -0.57669047
C       -3.64421167       9.23955703       7.50515066      -1.69920814      -1.60075057       0.31058283
C       -1.23686283       9.15402762       7.61606969       1.66353126       3.32376944      -1.84647476
C        1.21970199       9.28868951       7.43757774       2.42548436       0.50996983      -0.08331171
C        3.69110340       9.24145494       7.29208873       2.46055524       2.21500666       0.99580857
C        6.15921240       9.21661812       7.42088731      -0.34178780       1.50231486      -0.41679331
C        8.61690772       9.20451505       7.42814330      -0.11403202       0.27459896       1.08676211
C       -4.87472143      11.34370932       7.60335753      -4.13845948      -1.45839939      -0.14502616
C       -2.50089536      11.35507044       7.46954186       1.94824622      -1.23513559       0.42672805
C       -0.00839220      11.36313133       7.59627858      -2.35440030      -2.30533286      -0.52487374
C        2.42399423      11.39919135       7.42113401       3.13817436      -0.87263884       1.22015120
C        4.94157140      11.41523655       7.43973426      -0.54443624      -1.17679469      -0.25051235
C        7.36489270      11.36518841       7.57582975      -0.93965850      -0.64406366      -0.65832865
72
Lattice="14.76 0.0 0.0 -7.38 12.782534959858314 0.0 0.0 0.0 15.0" Properties=species:S:1:pos:R:3:REF_forces:R:3 REF_energy=-11165.319485066271 config_type=fd_force_conv_snapshot_111 snapshot_index=111 split=validation degauss_Ry=0.0019000869 kgrid=8 lattice_temperature_K=450.0 trajectory_seed=0 pbc="T T T"
C       -0.03920572       0.00784365       7.45300729       0.79647222       0.14022385      -0.91218164
C        2.47718363       0.04218616       7.43502171      -2.23475427      -2.31240442       0.30665110
C        4.88851145      -0.05403249       7.34804058       1.71594294       3.71053252       0.71006310
C        7.39428185      -0.07346374       7.46656374      -1.23103982       2.39568142      -0.14787211
C        9.78476911      -0.05736604       7.45638098       2.08585449       1.12336922      -0.02253958
C       12.32618081      -0.02856285       7.55625644      -1.73511874      -0.00209879      -1.88300602
C       -1.30331758       2.14750791       7.37751275       2.20088230      -1.53391603      -0.28497208
C        1.19453445       2.14107745       7.33213145      -0.41780426      -0.80830984       0.32664040
C        3.68332005       2.10241757       7.53953174       0.34698914       0.34562311      -1.38540346
C        6.16884770       2.18842528       7.46024118      -1.64971852      -3.24523304       0.43576728
C        8.60428026       2.11375722       7.51427029       1.21339537       1.74496452      -0.13901646
C       11.09542357       2.11724812       7.51476495      -2.54996509      -1.21751145      -0.49973015
C       -2.48918432       4.25505673       7.49551858       0.53143520      -0.73605593      -0.71058529
C       -0.00786474       4.28379979       7.48299146       1.30180250      -1.57962613      -0.18267482
C        2.47842624       4.23555200       7.53209586       0.18030812      -1.06449173      -0.29435866
C        4.95134841       4.26354713       7.54045193      -2.90229519       1.08617024       0.77189531
C        7.38521723       4.26773241       7.47185867       0.29956360       2.48111686      -0.46700181
C        9.78933608       4.25076085       7.53292047       2.20218688       1.76642166      -0.85315965
C       -3.72514479       6.37619020       7.47537587       0.83944873       1.17994506      -0.04936415
C       -1.26979465       6.32810891       7.41865366       2.50158362       1.54733333      -0.16944110
C        1.27357325       6.37842816       7.42135441      -0.86795660       1.51229100       0.80479154
C        3.69173375       6.42511876       7.65527488      -0.74236773      -1.59078086       0.21792670
C        6.11078888       6.39567526       7.60725145       2.17467942       2.12636171       0.01294165
C        8.65586985       6.47264770       7.62575290      -1.96295936      -0.64752745      -0.71343022
C       -4.85667560       8.61671995       7.63199068      -1.89983441      -0.36356684       0.95328123
C       -2.37951125       8.47768162       7.50082727      -1.98838011       0.26395099      -0.63985810
C        0.02842446       8.49790728       7.48114106      -0.42547798      -0.90829953      -1.09326083
C        2.49206486       8.53739338       7.54595946      -0.86490342       0.05559111      -0.46777931
C        4.91634236       8.53886755       7.68783040       0.37650695       0.19246995      -0.81227345
C        7.40771930       8.56470865       7.68049749      -1.47841234       0.21842267      -0.55028730
C       -6.15808101      10.71224017       7.64214385      -0.13541923       0.74650078      -1.00615983
C       -3.65108396      10.65220697       7.46506150      -2.73133817       0.12123214       0.58224662
C       -1.26594752      10.58183023       7.37424184       1.86239117       3.14103626       0.44880380
C        1.24449300      10.59629150       7.47357710      -1.62151249      -1.08091799       0.20466650
C        3.69427576      10.63919388       7.52557339       0.58874071       1.39640855       0.51902422
C        6.16107964      10.63716045       7.50629009      -0.77411211       0.78993699      -0.37920892
C        1.20666614       0.72014833       7.43875177       0.09586384       0.11633470      -0.51716506
C        3.67809541       0.69871255       7.41004019       1.55563748       0.27485736       0.25464231
C        6.15881042       0.69929760       7.45557898      -0.46528123      -0.45196677      -0.57901397
C        8.59668674       0.72967372       7.43131550      -0.09931015      -2.90644495       0.66432549
C       11.05780686       0.64858207       7.42032384      -0.24858634       0.94246100       1.45890513
C       13.50087438       0.70829582       7.35171931       0.18879790       0.71976825       1.43491236
C       -0.08521637       2.84706702       7.38220721       2.72115146       0.81116968       0.00848901
C        2.47225420       2.77325214       7.33772527      -1.16441431       2.69110657       1.88597719
C        4.89318587       2.85392720       7.55614643       1.85409191      -0.19622942      -0.57393450
C        7.39152587       2.85466850       7.46614137       0.30007422       0.47029462       0.17367468
C        9.86939918       2.87158448       7.58784804      -1.94291298      -2.94273041      -0.73107956
C       12.27078788       2.82655572       7.43598429      -0.27019312       1.40322583       0.58720268
C       -1.23510278       4.93189728       7.49170539      -0.80896547       0.90191162      -0.29768515
C        1.30411864       4.97492220       7.52660004      -3.41415760      -0.57834420      -0.80616991
C        3.64790034       4.97567166       7.68335507       3.20690972       0.10412248      -1.29211561
C        6.14355641       5.02109749       7.47606251       0.59769921      -2.69984858       0.58768193
C        8.61818124       5.04202673       7.43902304      -0.73973749      -1.36140761       1.49611979
C       11.05422885       4.94996511       7.41626729      -1.26099266       0.81537934       1.29810911
C       -2.46016059       7.03873727       7.39840061      -0.81186413       1.50816875       0.93509325
C       -0.00817408       7.09918328       7.39342296       0.39071409      -2.45069172       0.56673002
C        2.49239060       7.14258631       7.52360114      -0.72145360      -1.28886522       0.21892146
C        4.90397054       7.11482840       7.69654652       0.55822789       0.39977337      -0.13907174
C        7.38272853       7.14276998       7.63823873       0.07284527      -0.33127970       0.24579566
C        9.85983250       7.21049755       7.64313376       0.54159131      -2.26881419      -0.77795462
C       -3.61575661       9.25386437       7.57996432       0.55716448      -0.83901884      -0.57557975
C       -1.17096622       9.21113881       7.42081043      -2.09617387      -1.26545352       0.44626895
C        1.22426852       9.17358946       7.44108323       2.24301343       1.48721297       0.73141431
C        3.70807564       9.27060837       7.60842957      -0.43558730      -2.09673180      -0.04948397
C        6.12869684       9.26028667       7.54270848       1.70640980      -2.21228566       1.38222892
C        8.60621949       9.33463544       7.71853322       1.57762556      -2.64764567      -0.52893403
C       -4.90181824      11.37389893       7.54910906      -0.05899319       0.86536056      -0.49531942
C       -2.50251505      11.36558572       7.33634946       3.19029242      -1.97494250       0.16721606
C        0.01354759      11.29003282       7.48768750      -1.45499576       0.52922970      -0.91696877
C        2.42965207      11.28944658       7.51874599       1.37910143       2.17874408      -0.52261143
C        4.95536629      11.33496288       7.54119303      -1.80569578       0.80010751      -0.02234032
C        7.33866805      11.37526247       7.42688906       2.05729031       0.49862792       1.65058447
72
Lattice="14.76 0.0 0.0 -7.38 12.782534959858314 0.0 0.0 0.0 15.0" Properties=species:S:1:pos:R:3:REF_forces:R:3 REF_energy=-11165.3232757481 config_type=fd_force_conv_snapshot_117 snapshot_index=117 split=validation degauss_Ry=0.0019000869 kgrid=8 lattice_temperature_K=450.0 trajectory_seed=0 pbc="T T T"
C        0.01342284      -0.04101902       7.68727052      -0.96889374       0.64596884      -0.47394533
C        2.48083332      -0.01406132       7.55392383      -1.66354257      -0.64495197       0.15295981
C        4.93554257       0.02079314       7.38128615      -0.98496185      -1.27393714       0.90159229
C        7.30724508      -0.02065746       7.43095882       2.21728183       2.01555025      -1.01721660
C        9.90790423       0.00791755       7.36170249      -3.55493527      -1.03543055      -0.43478820
C       12.28427369      -0.03871546       7.57575240       1.94439599       3.74030538      -0.96253283
C       -1.15890606       2.17558403       7.65382375      -3.53303127      -2.00566410      -1.11129378
C        1.28613230       2.12075531       7.65874133      -0.75895700       0.64089734      -0.33878912
C        3.69076925       2.10460470       7.49957622       1.10309247       0.96067933       0.78602917
C        6.14069488       2.19826470       7.58068297       1.97139078      -2.23028621      -1.34480934
C        8.60352195       2.12222604       7.31779849       0.49663943      -0.79880601       0.96347052
C       11.06074565       2.07566540       7.45566970       0.11162522       3.74846966       0.57803978
C       -2.45873294       4.26639836       7.53778144      -1.51013847      -0.81429485      -0.67650404
C       -0.00709020       4.28023564       7.51660619      -0.50439953       0.85758297      -1.03153764
C        2.40512224       4.31158371       7.46361100       1.49479490      -1.52414018       0.81117996
C        4.90445271       4.22238186       7.57425461      -0.11364482       2.72906325       0.33225903
C        7.40007678       4.28351316       7.49766063       0.68188433      -1.24722132       0.46852776
C        9.80806640       4.22557593       7.43052874       3.61235906       1.21838820       0.80762310
C       -3.67726075       6.36257155       7.54603295      -0.81054876       2.35779904      -0.82289596
C       -1.25315206       6.39106304       7.36708146       1.29650577       1.24130212      -0.11452156
C        1.28268443       6.46035517       7.28140958      -4.01818327      -0.65284397       0.34661762
C        3.62921701       6.38145001       7.41739759       1.37371805       0.73137138       0.74607217
C        6.06777060       6.37821245       7.48971031       1.57512542      -1.70443571       0.78875660
C        8.58273250       6.33372502       7.56165078       1.32636604       2.91962365      -0.73030797
C       -4.90327988       8.52511427       7.61871411      -2.74751889      -0.82431727      -0.82769699
C       -2.49198705       8.52990177       7.56636582       1.34470829       0.16520983      -0.68382962
C        0.00681367       8.54733669       7.38730314       0.70099456      -0.24749490       0.65899842
C        2.50642467       8.59669102       7.43846463      -1.45740000      -2.10178556       0.01501241
C        4.97837888       8.51625166       7.55916754      -3.63354984      -1.58170076      -0.50516701
C        7.35795801       8.52056192       7.61086732       0.62911989      -3.13787946      -1.30089027
C       -6.18025941      10.63050089       7.54930940       1.27818846      -0.78476085       0.49206569
C       -3.71596143      10.67988385       7.47975541       2.16279835      -1.10480817       0.57594948
C       -1.20980276      10.56792932       7.43840122      -0.82757332       4.53230389       1.02578969
C        1.23172977      10.72387752       7.51753527       0.72979735      -2.39995125      -0.84856817
C        3.73432616      10.62717451       7.50991985      -0.53290664       1.66153531      -0.70145633
C        6.17235043      10.63202841       7.59815612      -2.05751322      -0.05439349      -0.93010505
C        1.23520752       0.68331448       7.68231920       0.89503135       0.65024664      -0.32889192
C        3.67613338       0.68029116       7.46042760       0.81628000       1.09098669       0.03178269
C        6.10727845       0.75655725       7.42619150       1.67945204       0.30162845       0.49030037
C        8.60489826       0.68168163       7.27823490      -0.17798179       0.16822188       1.18276222
C       11.07964116       0.71536856       7.43728536       0.96821420      -1.80367386       0.29306154
C       13.55235695       0.70848553       7.59842725       0.08292708       0.00276008       1.07953911
C        0.04179184       2.86888046       7.57180725       0.85783417      -0.54279124       1.02044462
C        2.52687562       2.86896201       7.61375785      -3.03656796      -0.74431868      -0.91281387
C        4.92967043       2.85344103       7.57439383      -1.53537359      -1.20612506      -0.22248218
C        7.41853926       2.85892892       7.47862794      -2.02450951       0.08299341      -0.03925046
C        9.82891361       2.83584962       7.47003366       0.20849924      -1.83326109      -1.47663597
C       12.25564527       2.83585492       7.55395910       3.05270138      -0.11411019       0.26987944
C       -1.25819511       4.97015967       7.42031457       1.26720162       0.11910121       0.74677100
C        1.17914155       5.02195771       7.38792529       1.76461263       0.28887424       0.16304316
C        3.64259833       4.98052951       7.52698163       0.75997053      -0.56556068      -0.85559783
C        6.16811163       4.93148527       7.59537225      -2.29044720       1.25167421      -0.96089299
C        8.66270274       4.96265650       7.48970936      -3.16718566      -0.52492182      -0.16293286
C       11.07535737       4.98337888       7.48206183      -0.86886086      -1.97805945       0.20343134
C       -2.45272254       7.12753261       7.44904449      -1.15102375      -1.15849306       0.86865235
C       -0.01976905       7.16208806       7.30459094       1.36015008      -2.49608686       0.07681016
C        2.47446237       7.15738565       7.34319791      -0.32088190       0.19532671       0.10791126
C        4.84127693       7.07625790       7.53227844       2.28409529       1.17902101      -0.50053465
C        7.32500807       7.01819345       7.48749117       0.63724406       2.81397728       1.17271023
C        9.84414526       7.10826861       7.54307551      -0.59452364      -1.32474059       0.82967648
C       -3.73198622       9.24010907       7.55690168       2.15300425       0.97482991       0.12366749
C       -1.20601162       9.21672085       7.53239122      -2.06152620      -1.23383538      -0.67724091
C        1.25081807       9.25189925       7.47701008      -0.03479962       1.90111996      -0.36026143
C        3.73286914       9.23176081       7.53898227       1.05614824       0.60126276      -0.17468923
C        6.15958548       9.20792096       7.51796060       0.40952068       1.12271590       1.04374730
C        8.56577635       9.20977236       7.57412704       2.02007847       0.28575395       0.36127496
C       -4.92751681      11.34022003       7.52015788      -0.96894028       0.94075739      -0.04141044
C       -2.41174547      11.37291680       7.49102585      -1.83817087      -1.13694002      -1.12151597
C       -0.02757135      11.36716087       7.45728771       0.46544321      -0.79658124      -0.01631082
C        2.50562218      11.35773224       7.40874919      -0.31889187       0.49331474       0.88225888
C        4.94688308      11.39510834       7.46521389      -0.02770364      -3.57599235       1.42234892
C        7.36145041      11.29661241       7.63781200       1.30589286       2.57397868      -0.11269968
